*SPEF "ieee 1481-1999"
*DESIGN "i2c_controller"
*DATE "20:00:57 Monday August 24, 2026"
*VENDOR "The OpenROAD Project"
*PROGRAM "OpenROAD"
*VERSION "26Q1-1024-gdcf36133a"
*DESIGN_FLOW "NAME_SCOPE LOCAL" "PIN_CAP NONE"
*DIVIDER /
*DELIMITER :
*BUS_DELIMITER []
*T_UNIT 1 NS
*C_UNIT 1 PF
*R_UNIT 1 OHM
*L_UNIT 1 HENRY

*NAME_MAP
*1 ACK_I
*2 ADDR_O[0]
*3 ADDR_O[1]
*4 ADDR_O[2]
*5 ADDR_O[3]
*6 ADDR_O[4]
*7 ADDR_O[5]
*8 ADDR_O[6]
*9 ADDR_O[7]
*10 CLK_I
*11 CYC_O
*12 DAT_I[0]
*13 DAT_I[1]
*14 DAT_I[2]
*15 DAT_I[3]
*16 DAT_I[4]
*17 DAT_I[5]
*18 DAT_I[6]
*19 DAT_I[7]
*20 DAT_O[0]
*21 DAT_O[1]
*22 DAT_O[2]
*23 DAT_O[3]
*24 DAT_O[4]
*25 DAT_O[5]
*26 DAT_O[6]
*27 DAT_O[7]
*28 ERR_I
*29 RST_I
*30 RTY_I
*31 STB_O
*34 WE_O
*35 i2c_scl_in
*36 i2c_sda_in
*37 i2c_sda_out_pin_ctrl
*38 i2c_sda_out_pin_ctrl_n
*39 _000_
*40 _001_
*41 _002_
*42 _003_
*43 _004_
*44 _005_
*45 _006_
*46 _007_
*47 _008_
*48 _009_
*49 _010_
*50 _011_
*51 _012_
*52 _013_
*53 _014_
*54 _015_
*55 _016_
*56 _017_
*57 _018_
*58 _019_
*59 _020_
*60 _021_
*61 _022_
*62 _023_
*63 _024_
*64 _025_
*65 _026_
*66 _027_
*67 _028_
*68 _029_
*69 _030_
*70 _031_
*71 _032_
*72 _033_
*73 _034_
*74 _035_
*75 _036_
*76 _037_
*77 _038_
*78 _039_
*79 _040_
*80 _041_
*81 _042_
*82 _043_
*83 _044_
*84 _045_
*85 _046_
*86 _047_
*87 _048_
*88 _049_
*89 _050_
*90 _051_
*91 _052_
*92 _053_
*93 _054_
*94 _055_
*95 _056_
*96 _057_
*97 _058_
*98 _059_
*99 _060_
*100 _061_
*101 _062_
*102 _063_
*103 _064_
*104 _065_
*105 _066_
*106 _067_
*107 _068_
*108 _069_
*109 _070_
*110 _071_
*111 _072_
*112 _073_
*113 _074_
*114 _075_
*115 _076_
*116 _077_
*117 _078_
*118 _079_
*119 _080_
*120 _081_
*121 _082_
*122 _083_
*123 _084_
*124 _085_
*125 _086_
*126 _087_
*127 _088_
*128 _089_
*129 _090_
*130 _091_
*131 _092_
*132 _093_
*133 _094_
*134 _095_
*135 _096_
*136 _097_
*137 _098_
*138 _099_
*139 _100_
*140 _101_
*141 _102_
*142 _103_
*143 _104_
*144 _105_
*145 _106_
*146 _107_
*147 _108_
*148 _109_
*149 _110_
*150 _111_
*151 _112_
*152 _113_
*153 _114_
*154 _115_
*155 _116_
*156 _117_
*157 _118_
*158 _119_
*159 _120_
*160 _121_
*161 _122_
*162 _123_
*163 _124_
*164 _125_
*165 _126_
*166 _127_
*167 _128_
*168 _129_
*169 _130_
*170 _131_
*171 _132_
*172 _133_
*173 _134_
*174 _135_
*175 _136_
*176 _137_
*177 _138_
*178 _139_
*179 _140_
*180 _141_
*181 _142_
*182 _143_
*183 _144_
*184 _145_
*185 _146_
*186 _147_
*187 _148_
*188 _149_
*189 _150_
*190 _151_
*191 _152_
*192 _153_
*193 _154_
*194 _155_
*195 _156_
*196 _157_
*197 _158_
*198 _159_
*199 _160_
*200 _161_
*201 _162_
*202 _163_
*203 _164_
*204 _165_
*205 _166_
*206 _167_
*207 _168_
*208 _169_
*209 _170_
*210 _171_
*211 _172_
*212 _173_
*213 _174_
*214 _175_
*215 _176_
*216 _177_
*217 _178_
*218 _179_
*219 _180_
*220 _181_
*221 _182_
*222 _183_
*223 _184_
*224 _185_
*225 _186_
*226 _187_
*227 _188_
*228 _189_
*229 _190_
*230 _191_
*231 _192_
*232 _193_
*233 _194_
*234 _195_
*235 _196_
*236 _197_
*237 _198_
*238 _199_
*239 _200_
*240 _201_
*241 _202_
*242 _203_
*243 _204_
*244 _205_
*245 _206_
*246 _207_
*247 _208_
*248 _209_
*249 _210_
*250 _211_
*251 _212_
*252 _213_
*253 _214_
*254 _215_
*255 _216_
*256 _217_
*257 _218_
*258 _219_
*259 _220_
*260 _221_
*261 _222_
*262 _223_
*263 _224_
*264 _225_
*265 _226_
*266 _227_
*267 _228_
*268 _229_
*269 _230_
*270 _231_
*271 _232_
*272 _233_
*273 _234_
*274 _235_
*275 _236_
*276 _237_
*277 _238_
*278 _239_
*279 _240_
*280 _241_
*281 _242_
*282 _243_
*283 _244_
*284 _245_
*285 _246_
*286 _247_
*287 _248_
*288 _249_
*289 _250_
*290 _251_
*291 _252_
*292 _253_
*293 _254_
*294 _255_
*295 _256_
*296 _257_
*297 _258_
*298 _259_
*299 _260_
*300 _261_
*301 _262_
*302 _263_
*303 _264_
*304 _265_
*305 _266_
*306 _267_
*307 _268_
*308 _269_
*309 _270_
*310 _271_
*311 _272_
*312 _273_
*313 _274_
*314 _275_
*315 _276_
*316 _277_
*317 _278_
*318 _279_
*319 _280_
*320 _281_
*321 _282_
*322 _283_
*323 _284_
*324 _285_
*325 _286_
*326 _287_
*327 _288_
*328 _289_
*329 _290_
*330 _291_
*331 _292_
*332 _293_
*333 _294_
*334 _295_
*335 _296_
*336 _297_
*337 _298_
*338 _299_
*339 _300_
*340 _301_
*341 _302_
*342 _303_
*343 _304_
*344 _305_
*345 _306_
*346 _307_
*347 _308_
*348 _309_
*349 _310_
*350 _311_
*351 _312_
*352 _313_
*353 _314_
*354 _315_
*355 _316_
*356 _317_
*357 _318_
*358 _319_
*359 _320_
*360 _321_
*361 _322_
*362 _323_
*363 _324_
*364 _325_
*365 addr_pointer_register_internal\[0\]
*366 addr_pointer_register_internal\[1\]
*367 addr_pointer_register_internal\[2\]
*368 addr_pointer_register_internal\[3\]
*369 addr_pointer_register_internal\[4\]
*370 addr_pointer_register_internal\[5\]
*371 addr_pointer_register_internal\[6\]
*372 addr_pointer_register_internal\[7\]
*373 addr_set_register\[0\]
*374 addr_set_register\[1\]
*375 addr_set_register\[2\]
*376 addr_set_register\[3\]
*377 addr_set_register\[4\]
*378 addr_set_register\[5\]
*379 addr_set_register\[6\]
*380 addr_set_register\[7\]
*381 address_data_buffer_internal\[0\]
*382 address_data_buffer_internal\[1\]
*383 address_data_buffer_internal\[2\]
*384 address_data_buffer_internal\[3\]
*385 address_data_buffer_internal\[4\]
*386 address_data_buffer_internal\[5\]
*387 address_data_buffer_internal\[6\]
*388 address_data_buffer_internal\[7\]
*389 clknet_0_CLK_I
*390 clknet_4_0_0_CLK_I
*391 clknet_4_10_0_CLK_I
*392 clknet_4_11_0_CLK_I
*393 clknet_4_12_0_CLK_I
*394 clknet_4_13_0_CLK_I
*395 clknet_4_14_0_CLK_I
*396 clknet_4_15_0_CLK_I
*397 clknet_4_1_0_CLK_I
*398 clknet_4_2_0_CLK_I
*399 clknet_4_3_0_CLK_I
*400 clknet_4_4_0_CLK_I
*401 clknet_4_5_0_CLK_I
*402 clknet_4_6_0_CLK_I
*403 clknet_4_7_0_CLK_I
*404 clknet_4_8_0_CLK_I
*405 clknet_4_9_0_CLK_I
*406 falling_edge_delayer\[0\]
*407 falling_edge_delayer\[1\]
*408 falling_edge_detected
*409 i2c_next_state\[0\]
*410 i2c_next_state\[1\]
*411 i2c_state\[0\]
*412 i2c_state\[1\]
*413 iteration\[0\]
*414 iteration\[1\]
*415 iteration\[2\]
*416 iteration\[3\]
*417 net1
*418 net10
*419 net11
*420 net12
*421 net13
*422 net14
*423 net15
*424 net16
*425 net17
*426 net18
*427 net19
*428 net2
*429 net20
*430 net21
*431 net22
*432 net23
*433 net24
*434 net25
*435 net26
*436 net27
*437 net28
*438 net29
*439 net3
*440 net30
*441 net31
*442 net32
*443 net33
*444 net34
*445 net35
*446 net36
*447 net37
*448 net38
*449 net39
*450 net4
*451 net40
*452 net41
*453 net42
*454 net43
*455 net44
*456 net45
*457 net46
*458 net47
*459 net48
*460 net49
*461 net5
*462 net50
*463 net51
*464 net52
*465 net53
*466 net54
*467 net55
*468 net56
*469 net57
*470 net58
*471 net6
*472 net7
*473 net8
*474 net9
*475 previous_state
*476 received_data_internal_flag
*477 recv_data_buffer\[0\]
*478 recv_data_buffer\[1\]
*479 recv_data_buffer\[2\]
*480 recv_data_buffer\[3\]
*481 recv_data_buffer\[4\]
*482 recv_data_buffer\[5\]
*483 recv_data_buffer\[6\]
*484 recv_data_buffer\[7\]
*485 register_addr_data_flag
*486 register_content_data_flag
*487 rising_edge_detected
*488 sda_previous_state
*489 send_data_buffer\[0\]
*490 send_data_buffer\[1\]
*491 send_data_buffer\[2\]
*492 send_data_buffer\[3\]
*493 send_data_buffer\[4\]
*494 send_data_buffer\[5\]
*495 send_data_buffer\[6\]
*496 send_data_buffer\[7\]
*497 wb_master_next_state\[0\]
*498 wb_master_next_state\[1\]
*499 wb_master_state\[0\]
*500 wb_master_state\[1\]
*501 wb_master_subroutine_iteration\[0\]
*502 wb_master_subroutine_iteration\[1\]
*503 write_request_internal_flag
*504 FILLER_0_104
*505 FILLER_0_138
*506 FILLER_0_2
*507 FILLER_0_206
*508 FILLER_0_208
*509 FILLER_0_240
*510 FILLER_0_247
*511 FILLER_0_36
*512 FILLER_0_70
*513 FILLER_10_100
*514 FILLER_10_104
*515 FILLER_10_107
*516 FILLER_10_111
*517 FILLER_10_120
*518 FILLER_10_134
*519 FILLER_10_142
*520 FILLER_10_177
*521 FILLER_10_185
*522 FILLER_10_187
*523 FILLER_10_2
*524 FILLER_10_247
*525 FILLER_10_37
*526 FILLER_10_45
*527 FILLER_10_49
*528 FILLER_10_51
*529 FILLER_10_84
*530 FILLER_11_131
*531 FILLER_11_153
*532 FILLER_11_157
*533 FILLER_11_159
*534 FILLER_11_189
*535 FILLER_11_2
*536 FILLER_11_224
*537 FILLER_11_69
*538 FILLER_11_72
*539 FILLER_11_88
*540 FILLER_11_96
*541 FILLER_11_98
*542 FILLER_12_122
*543 FILLER_12_130
*544 FILLER_12_139
*545 FILLER_12_155
*546 FILLER_12_159
*547 FILLER_12_161
*548 FILLER_12_169
*549 FILLER_12_173
*550 FILLER_12_177
*551 FILLER_12_185
*552 FILLER_12_199
*553 FILLER_12_201
*554 FILLER_12_214
*555 FILLER_12_247
*556 FILLER_12_31
*557 FILLER_12_37
*558 FILLER_12_51
*559 FILLER_12_55
*560 FILLER_12_62
*561 FILLER_12_93
*562 FILLER_13_138
*563 FILLER_13_142
*564 FILLER_13_155
*565 FILLER_13_163
*566 FILLER_13_167
*567 FILLER_13_173
*568 FILLER_13_18
*569 FILLER_13_212
*570 FILLER_13_220
*571 FILLER_13_34
*572 FILLER_13_52
*573 FILLER_13_61
*574 FILLER_13_72
*575 FILLER_14_10
*576 FILLER_14_139
*577 FILLER_14_143
*578 FILLER_14_152
*579 FILLER_14_160
*580 FILLER_14_162
*581 FILLER_14_172
*582 FILLER_14_174
*583 FILLER_14_177
*584 FILLER_14_185
*585 FILLER_14_194
*586 FILLER_14_2
*587 FILLER_14_20
*588 FILLER_14_202
*589 FILLER_14_216
*590 FILLER_14_224
*591 FILLER_14_228
*592 FILLER_14_236
*593 FILLER_14_247
*594 FILLER_14_27
*595 FILLER_14_32
*596 FILLER_14_34
*597 FILLER_14_37
*598 FILLER_14_61
*599 FILLER_14_71
*600 FILLER_14_75
*601 FILLER_15_10
*602 FILLER_15_112
*603 FILLER_15_120
*604 FILLER_15_137
*605 FILLER_15_139
*606 FILLER_15_157
*607 FILLER_15_162
*608 FILLER_15_177
*609 FILLER_15_181
*610 FILLER_15_183
*611 FILLER_15_2
*612 FILLER_15_220
*613 FILLER_15_228
*614 FILLER_15_27
*615 FILLER_15_36
*616 FILLER_15_52
*617 FILLER_15_64
*618 FILLER_15_68
*619 FILLER_15_72
*620 FILLER_15_88
*621 FILLER_15_96
*622 FILLER_16_102
*623 FILLER_16_104
*624 FILLER_16_107
*625 FILLER_16_123
*626 FILLER_16_153
*627 FILLER_16_162
*628 FILLER_16_164
*629 FILLER_16_174
*630 FILLER_16_185
*631 FILLER_16_194
*632 FILLER_16_241
*633 FILLER_16_247
*634 FILLER_16_31
*635 FILLER_16_37
*636 FILLER_16_45
*637 FILLER_16_58
*638 FILLER_16_60
*639 FILLER_16_71
*640 FILLER_16_73
*641 FILLER_16_78
*642 FILLER_16_94
*643 FILLER_17_10
*644 FILLER_17_119
*645 FILLER_17_135
*646 FILLER_17_139
*647 FILLER_17_142
*648 FILLER_17_189
*649 FILLER_17_197
*650 FILLER_17_2
*651 FILLER_17_201
*652 FILLER_17_209
*653 FILLER_17_28
*654 FILLER_17_44
*655 FILLER_17_48
*656 FILLER_17_59
*657 FILLER_17_72
*658 FILLER_17_89
*659 FILLER_18_107
*660 FILLER_18_109
*661 FILLER_18_157
*662 FILLER_18_159
*663 FILLER_18_168
*664 FILLER_18_177
*665 FILLER_18_18
*666 FILLER_18_181
*667 FILLER_18_194
*668 FILLER_18_2
*669 FILLER_18_202
*670 FILLER_18_206
*671 FILLER_18_213
*672 FILLER_18_221
*673 FILLER_18_225
*674 FILLER_18_263
*675 FILLER_18_34
*676 FILLER_18_37
*677 FILLER_18_45
*678 FILLER_18_47
*679 FILLER_18_68
*680 FILLER_18_72
*681 FILLER_18_89
*682 FILLER_19_124
*683 FILLER_19_197
*684 FILLER_19_2
*685 FILLER_19_205
*686 FILLER_19_209
*687 FILLER_19_21
*688 FILLER_19_212
*689 FILLER_19_220
*690 FILLER_19_234
*691 FILLER_19_33
*692 FILLER_19_49
*693 FILLER_19_56
*694 FILLER_19_64
*695 FILLER_19_68
*696 FILLER_19_72
*697 FILLER_19_86
*698 FILLER_19_94
*699 FILLER_1_139
*700 FILLER_1_142
*701 FILLER_1_146
*702 FILLER_1_2
*703 FILLER_1_205
*704 FILLER_1_209
*705 FILLER_1_263
*706 FILLER_1_66
*707 FILLER_1_72
*708 FILLER_1_74
*709 FILLER_20_103
*710 FILLER_20_107
*711 FILLER_20_123
*712 FILLER_20_153
*713 FILLER_20_161
*714 FILLER_20_182
*715 FILLER_20_200
*716 FILLER_20_202
*717 FILLER_20_241
*718 FILLER_20_247
*719 FILLER_20_31
*720 FILLER_20_45
*721 FILLER_20_49
*722 FILLER_20_61
*723 FILLER_20_69
*724 FILLER_20_79
*725 FILLER_20_95
*726 FILLER_21_10
*727 FILLER_21_102
*728 FILLER_21_106
*729 FILLER_21_108
*730 FILLER_21_138
*731 FILLER_21_14
*732 FILLER_21_160
*733 FILLER_21_162
*734 FILLER_21_199
*735 FILLER_21_2
*736 FILLER_21_207
*737 FILLER_21_209
*738 FILLER_21_227
*739 FILLER_21_27
*740 FILLER_21_43
*741 FILLER_21_57
*742 FILLER_21_61
*743 FILLER_21_72
*744 FILLER_21_74
*745 FILLER_21_86
*746 FILLER_22_10
*747 FILLER_22_103
*748 FILLER_22_107
*749 FILLER_22_115
*750 FILLER_22_119
*751 FILLER_22_14
*752 FILLER_22_168
*753 FILLER_22_172
*754 FILLER_22_174
*755 FILLER_22_177
*756 FILLER_22_193
*757 FILLER_22_2
*758 FILLER_22_201
*759 FILLER_22_203
*760 FILLER_22_233
*761 FILLER_22_235
*762 FILLER_22_247
*763 FILLER_22_26
*764 FILLER_22_32
*765 FILLER_22_34
*766 FILLER_22_37
*767 FILLER_22_45
*768 FILLER_22_49
*769 FILLER_22_62
*770 FILLER_22_91
*771 FILLER_22_99
*772 FILLER_23_127
*773 FILLER_23_135
*774 FILLER_23_139
*775 FILLER_23_142
*776 FILLER_23_150
*777 FILLER_23_152
*778 FILLER_23_158
*779 FILLER_23_174
*780 FILLER_23_186
*781 FILLER_23_198
*782 FILLER_23_2
*783 FILLER_23_206
*784 FILLER_23_227
*785 FILLER_23_40
*786 FILLER_23_48
*787 FILLER_23_57
*788 FILLER_23_6
*789 FILLER_23_65
*790 FILLER_23_69
*791 FILLER_23_72
*792 FILLER_23_80
*793 FILLER_23_87
*794 FILLER_23_95
*795 FILLER_23_97
*796 FILLER_24_10
*797 FILLER_24_103
*798 FILLER_24_122
*799 FILLER_24_138
*800 FILLER_24_14
*801 FILLER_24_142
*802 FILLER_24_158
*803 FILLER_24_16
*804 FILLER_24_165
*805 FILLER_24_173
*806 FILLER_24_177
*807 FILLER_24_187
*808 FILLER_24_195
*809 FILLER_24_2
*810 FILLER_24_23
*811 FILLER_24_243
*812 FILLER_24_25
*813 FILLER_24_263
*814 FILLER_24_34
*815 FILLER_24_37
*816 FILLER_24_41
*817 FILLER_24_47
*818 FILLER_24_49
*819 FILLER_24_56
*820 FILLER_24_64
*821 FILLER_24_87
*822 FILLER_25_105
*823 FILLER_25_107
*824 FILLER_25_123
*825 FILLER_25_139
*826 FILLER_25_18
*827 FILLER_25_200
*828 FILLER_25_208
*829 FILLER_25_227
*830 FILLER_25_28
*831 FILLER_25_36
*832 FILLER_25_38
*833 FILLER_25_67
*834 FILLER_25_69
*835 FILLER_25_72
*836 FILLER_25_74
*837 FILLER_25_81
*838 FILLER_25_97
*839 FILLER_26_100
*840 FILLER_26_104
*841 FILLER_26_136
*842 FILLER_26_152
*843 FILLER_26_154
*844 FILLER_26_163
*845 FILLER_26_167
*846 FILLER_26_169
*847 FILLER_26_184
*848 FILLER_26_196
*849 FILLER_26_2
*850 FILLER_26_247
*851 FILLER_26_30
*852 FILLER_26_34
*853 FILLER_26_37
*854 FILLER_26_45
*855 FILLER_26_49
*856 FILLER_26_6
*857 FILLER_26_60
*858 FILLER_26_92
*859 FILLER_27_154
*860 FILLER_27_162
*861 FILLER_27_166
*862 FILLER_27_196
*863 FILLER_27_204
*864 FILLER_27_208
*865 FILLER_27_31
*866 FILLER_27_35
*867 FILLER_27_50
*868 FILLER_27_57
*869 FILLER_27_65
*870 FILLER_27_69
*871 FILLER_27_72
*872 FILLER_27_76
*873 FILLER_27_83
*874 FILLER_28_107
*875 FILLER_28_135
*876 FILLER_28_137
*877 FILLER_28_150
*878 FILLER_28_166
*879 FILLER_28_182
*880 FILLER_28_214
*881 FILLER_28_218
*882 FILLER_28_247
*883 FILLER_28_31
*884 FILLER_28_37
*885 FILLER_28_78
*886 FILLER_29_131
*887 FILLER_29_139
*888 FILLER_29_17
*889 FILLER_29_193
*890 FILLER_29_2
*891 FILLER_29_212
*892 FILLER_29_216
*893 FILLER_29_25
*894 FILLER_29_47
*895 FILLER_29_51
*896 FILLER_29_6
*897 FILLER_29_60
*898 FILLER_29_68
*899 FILLER_29_72
*900 FILLER_29_8
*901 FILLER_29_80
*902 FILLER_29_84
*903 FILLER_29_86
*904 FILLER_2_107
*905 FILLER_2_109
*906 FILLER_2_157
*907 FILLER_2_165
*908 FILLER_2_169
*909 FILLER_2_18
*910 FILLER_2_241
*911 FILLER_2_263
*912 FILLER_2_34
*913 FILLER_2_37
*914 FILLER_2_69
*915 FILLER_2_73
*916 FILLER_2_75
*917 FILLER_30_160
*918 FILLER_30_18
*919 FILLER_30_187
*920 FILLER_30_2
*921 FILLER_30_225
*922 FILLER_30_241
*923 FILLER_30_247
*924 FILLER_30_27
*925 FILLER_30_29
*926 FILLER_30_37
*927 FILLER_30_94
*928 FILLER_30_96
*929 FILLER_31_131
*930 FILLER_31_139
*931 FILLER_31_15
*932 FILLER_31_166
*933 FILLER_31_199
*934 FILLER_31_2
*935 FILLER_31_203
*936 FILLER_31_6
*937 FILLER_31_64
*938 FILLER_31_72
*939 FILLER_32_103
*940 FILLER_32_151
*941 FILLER_32_173
*942 FILLER_32_184
*943 FILLER_32_200
*944 FILLER_32_231
*945 FILLER_32_244
*946 FILLER_32_247
*947 FILLER_32_31
*948 FILLER_33_103
*949 FILLER_33_142
*950 FILLER_33_144
*951 FILLER_33_174
*952 FILLER_33_18
*953 FILLER_33_182
*954 FILLER_33_2
*955 FILLER_33_212
*956 FILLER_33_216
*957 FILLER_33_25
*958 FILLER_33_66
*959 FILLER_34_102
*960 FILLER_34_104
*961 FILLER_34_107
*962 FILLER_34_123
*963 FILLER_34_125
*964 FILLER_34_141
*965 FILLER_34_173
*966 FILLER_34_177
*967 FILLER_34_18
*968 FILLER_34_185
*969 FILLER_34_189
*970 FILLER_34_2
*971 FILLER_34_22
*972 FILLER_34_247
*973 FILLER_34_29
*974 FILLER_34_33
*975 FILLER_34_45
*976 FILLER_34_61
*977 FILLER_34_94
*978 FILLER_35_108
*979 FILLER_35_142
*980 FILLER_35_174
*981 FILLER_35_190
*982 FILLER_35_194
*983 FILLER_35_2
*984 FILLER_35_247
*985 FILLER_35_6
*986 FILLER_35_67
*987 FILLER_35_69
*988 FILLER_35_72
*989 FILLER_35_8
*990 FILLER_35_80
*991 FILLER_35_82
*992 FILLER_36_102
*993 FILLER_36_104
*994 FILLER_36_107
*995 FILLER_36_171
*996 FILLER_36_177
*997 FILLER_36_18
*998 FILLER_36_209
*999 FILLER_36_22
*1000 FILLER_36_24
*1001 FILLER_36_247
*1002 FILLER_36_29
*1003 FILLER_36_33
*1004 FILLER_36_37
*1005 FILLER_36_44
*1006 FILLER_36_52
*1007 FILLER_36_82
*1008 FILLER_36_98
*1009 FILLER_37_104
*1010 FILLER_37_138
*1011 FILLER_37_172
*1012 FILLER_37_2
*1013 FILLER_37_206
*1014 FILLER_37_210
*1015 FILLER_37_218
*1016 FILLER_37_36
*1017 FILLER_37_70
*1018 FILLER_3_102
*1019 FILLER_3_106
*1020 FILLER_3_108
*1021 FILLER_3_121
*1022 FILLER_3_123
*1023 FILLER_3_142
*1024 FILLER_3_146
*1025 FILLER_3_148
*1026 FILLER_3_161
*1027 FILLER_3_165
*1028 FILLER_3_167
*1029 FILLER_3_176
*1030 FILLER_3_178
*1031 FILLER_3_184
*1032 FILLER_3_2
*1033 FILLER_3_212
*1034 FILLER_3_229
*1035 FILLER_3_233
*1036 FILLER_3_66
*1037 FILLER_3_72
*1038 FILLER_3_80
*1039 FILLER_3_94
*1040 FILLER_4_100
*1041 FILLER_4_104
*1042 FILLER_4_107
*1043 FILLER_4_136
*1044 FILLER_4_140
*1045 FILLER_4_157
*1046 FILLER_4_165
*1047 FILLER_4_177
*1048 FILLER_4_2
*1049 FILLER_4_263
*1050 FILLER_4_34
*1051 FILLER_4_37
*1052 FILLER_4_53
*1053 FILLER_4_61
*1054 FILLER_4_65
*1055 FILLER_5_107
*1056 FILLER_5_128
*1057 FILLER_5_132
*1058 FILLER_5_142
*1059 FILLER_5_146
*1060 FILLER_5_155
*1061 FILLER_5_163
*1062 FILLER_5_167
*1063 FILLER_5_176
*1064 FILLER_5_184
*1065 FILLER_5_2
*1066 FILLER_5_218
*1067 FILLER_5_66
*1068 FILLER_5_72
*1069 FILLER_5_80
*1070 FILLER_5_85
*1071 FILLER_5_99
*1072 FILLER_6_104
*1073 FILLER_6_107
*1074 FILLER_6_121
*1075 FILLER_6_140
*1076 FILLER_6_144
*1077 FILLER_6_156
*1078 FILLER_6_172
*1079 FILLER_6_174
*1080 FILLER_6_193
*1081 FILLER_6_2
*1082 FILLER_6_232
*1083 FILLER_6_234
*1084 FILLER_6_244
*1085 FILLER_6_247
*1086 FILLER_6_34
*1087 FILLER_6_37
*1088 FILLER_6_53
*1089 FILLER_7_129
*1090 FILLER_7_142
*1091 FILLER_7_144
*1092 FILLER_7_157
*1093 FILLER_7_173
*1094 FILLER_7_18
*1095 FILLER_7_188
*1096 FILLER_7_2
*1097 FILLER_7_22
*1098 FILLER_7_24
*1099 FILLER_7_54
*1100 FILLER_7_72
*1101 FILLER_7_80
*1102 FILLER_7_82
*1103 FILLER_8_102
*1104 FILLER_8_104
*1105 FILLER_8_131
*1106 FILLER_8_147
*1107 FILLER_8_158
*1108 FILLER_8_162
*1109 FILLER_8_164
*1110 FILLER_8_177
*1111 FILLER_8_179
*1112 FILLER_8_18
*1113 FILLER_8_188
*1114 FILLER_8_2
*1115 FILLER_8_247
*1116 FILLER_8_28
*1117 FILLER_8_32
*1118 FILLER_8_34
*1119 FILLER_8_37
*1120 FILLER_8_74
*1121 FILLER_8_83
*1122 FILLER_9_10
*1123 FILLER_9_107
*1124 FILLER_9_131
*1125 FILLER_9_139
*1126 FILLER_9_14
*1127 FILLER_9_142
*1128 FILLER_9_146
*1129 FILLER_9_158
*1130 FILLER_9_160
*1131 FILLER_9_166
*1132 FILLER_9_180
*1133 FILLER_9_188
*1134 FILLER_9_190
*1135 FILLER_9_2
*1136 FILLER_9_203
*1137 FILLER_9_212
*1138 FILLER_9_222
*1139 FILLER_9_46
*1140 FILLER_9_50
*1141 FILLER_9_52
*1142 FILLER_9_68
*1143 PHY_EDGE_ROW_0_Left_38
*1144 PHY_EDGE_ROW_0_Right_0
*1145 PHY_EDGE_ROW_10_Left_48
*1146 PHY_EDGE_ROW_10_Right_10
*1147 PHY_EDGE_ROW_11_Left_49
*1148 PHY_EDGE_ROW_11_Right_11
*1149 PHY_EDGE_ROW_12_Left_50
*1150 PHY_EDGE_ROW_12_Right_12
*1151 PHY_EDGE_ROW_13_Left_51
*1152 PHY_EDGE_ROW_13_Right_13
*1153 PHY_EDGE_ROW_14_Left_52
*1154 PHY_EDGE_ROW_14_Right_14
*1155 PHY_EDGE_ROW_15_Left_53
*1156 PHY_EDGE_ROW_15_Right_15
*1157 PHY_EDGE_ROW_16_Left_54
*1158 PHY_EDGE_ROW_16_Right_16
*1159 PHY_EDGE_ROW_17_Left_55
*1160 PHY_EDGE_ROW_17_Right_17
*1161 PHY_EDGE_ROW_18_Left_56
*1162 PHY_EDGE_ROW_18_Right_18
*1163 PHY_EDGE_ROW_19_Left_57
*1164 PHY_EDGE_ROW_19_Right_19
*1165 PHY_EDGE_ROW_1_Left_39
*1166 PHY_EDGE_ROW_1_Right_1
*1167 PHY_EDGE_ROW_20_Left_58
*1168 PHY_EDGE_ROW_20_Right_20
*1169 PHY_EDGE_ROW_21_Left_59
*1170 PHY_EDGE_ROW_21_Right_21
*1171 PHY_EDGE_ROW_22_Left_60
*1172 PHY_EDGE_ROW_22_Right_22
*1173 PHY_EDGE_ROW_23_Left_61
*1174 PHY_EDGE_ROW_23_Right_23
*1175 PHY_EDGE_ROW_24_Left_62
*1176 PHY_EDGE_ROW_24_Right_24
*1177 PHY_EDGE_ROW_25_Left_63
*1178 PHY_EDGE_ROW_25_Right_25
*1179 PHY_EDGE_ROW_26_Left_64
*1180 PHY_EDGE_ROW_26_Right_26
*1181 PHY_EDGE_ROW_27_Left_65
*1182 PHY_EDGE_ROW_27_Right_27
*1183 PHY_EDGE_ROW_28_Left_66
*1184 PHY_EDGE_ROW_28_Right_28
*1185 PHY_EDGE_ROW_29_Left_67
*1186 PHY_EDGE_ROW_29_Right_29
*1187 PHY_EDGE_ROW_2_Left_40
*1188 PHY_EDGE_ROW_2_Right_2
*1189 PHY_EDGE_ROW_30_Left_68
*1190 PHY_EDGE_ROW_30_Right_30
*1191 PHY_EDGE_ROW_31_Left_69
*1192 PHY_EDGE_ROW_31_Right_31
*1193 PHY_EDGE_ROW_32_Left_70
*1194 PHY_EDGE_ROW_32_Right_32
*1195 PHY_EDGE_ROW_33_Left_71
*1196 PHY_EDGE_ROW_33_Right_33
*1197 PHY_EDGE_ROW_34_Left_72
*1198 PHY_EDGE_ROW_34_Right_34
*1199 PHY_EDGE_ROW_35_Left_73
*1200 PHY_EDGE_ROW_35_Right_35
*1201 PHY_EDGE_ROW_36_Left_74
*1202 PHY_EDGE_ROW_36_Right_36
*1203 PHY_EDGE_ROW_37_Left_75
*1204 PHY_EDGE_ROW_37_Right_37
*1205 PHY_EDGE_ROW_3_Left_41
*1206 PHY_EDGE_ROW_3_Right_3
*1207 PHY_EDGE_ROW_4_Left_42
*1208 PHY_EDGE_ROW_4_Right_4
*1209 PHY_EDGE_ROW_5_Left_43
*1210 PHY_EDGE_ROW_5_Right_5
*1211 PHY_EDGE_ROW_6_Left_44
*1212 PHY_EDGE_ROW_6_Right_6
*1213 PHY_EDGE_ROW_7_Left_45
*1214 PHY_EDGE_ROW_7_Right_7
*1215 PHY_EDGE_ROW_8_Left_46
*1216 PHY_EDGE_ROW_8_Right_8
*1217 PHY_EDGE_ROW_9_Left_47
*1218 PHY_EDGE_ROW_9_Right_9
*1219 TAP_TAPCELL_ROW_0_76
*1220 TAP_TAPCELL_ROW_0_77
*1221 TAP_TAPCELL_ROW_0_78
*1222 TAP_TAPCELL_ROW_0_79
*1223 TAP_TAPCELL_ROW_0_80
*1224 TAP_TAPCELL_ROW_0_81
*1225 TAP_TAPCELL_ROW_0_82
*1226 TAP_TAPCELL_ROW_10_114
*1227 TAP_TAPCELL_ROW_10_115
*1228 TAP_TAPCELL_ROW_10_116
*1229 TAP_TAPCELL_ROW_10_117
*1230 TAP_TAPCELL_ROW_11_118
*1231 TAP_TAPCELL_ROW_11_119
*1232 TAP_TAPCELL_ROW_11_120
*1233 TAP_TAPCELL_ROW_12_121
*1234 TAP_TAPCELL_ROW_12_122
*1235 TAP_TAPCELL_ROW_12_123
*1236 TAP_TAPCELL_ROW_12_124
*1237 TAP_TAPCELL_ROW_13_125
*1238 TAP_TAPCELL_ROW_13_126
*1239 TAP_TAPCELL_ROW_13_127
*1240 TAP_TAPCELL_ROW_14_128
*1241 TAP_TAPCELL_ROW_14_129
*1242 TAP_TAPCELL_ROW_14_130
*1243 TAP_TAPCELL_ROW_14_131
*1244 TAP_TAPCELL_ROW_15_132
*1245 TAP_TAPCELL_ROW_15_133
*1246 TAP_TAPCELL_ROW_15_134
*1247 TAP_TAPCELL_ROW_16_135
*1248 TAP_TAPCELL_ROW_16_136
*1249 TAP_TAPCELL_ROW_16_137
*1250 TAP_TAPCELL_ROW_16_138
*1251 TAP_TAPCELL_ROW_17_139
*1252 TAP_TAPCELL_ROW_17_140
*1253 TAP_TAPCELL_ROW_17_141
*1254 TAP_TAPCELL_ROW_18_142
*1255 TAP_TAPCELL_ROW_18_143
*1256 TAP_TAPCELL_ROW_18_144
*1257 TAP_TAPCELL_ROW_18_145
*1258 TAP_TAPCELL_ROW_19_146
*1259 TAP_TAPCELL_ROW_19_147
*1260 TAP_TAPCELL_ROW_19_148
*1261 TAP_TAPCELL_ROW_1_83
*1262 TAP_TAPCELL_ROW_1_84
*1263 TAP_TAPCELL_ROW_1_85
*1264 TAP_TAPCELL_ROW_20_149
*1265 TAP_TAPCELL_ROW_20_150
*1266 TAP_TAPCELL_ROW_20_151
*1267 TAP_TAPCELL_ROW_20_152
*1268 TAP_TAPCELL_ROW_21_153
*1269 TAP_TAPCELL_ROW_21_154
*1270 TAP_TAPCELL_ROW_21_155
*1271 TAP_TAPCELL_ROW_22_156
*1272 TAP_TAPCELL_ROW_22_157
*1273 TAP_TAPCELL_ROW_22_158
*1274 TAP_TAPCELL_ROW_22_159
*1275 TAP_TAPCELL_ROW_23_160
*1276 TAP_TAPCELL_ROW_23_161
*1277 TAP_TAPCELL_ROW_23_162
*1278 TAP_TAPCELL_ROW_24_163
*1279 TAP_TAPCELL_ROW_24_164
*1280 TAP_TAPCELL_ROW_24_165
*1281 TAP_TAPCELL_ROW_24_166
*1282 TAP_TAPCELL_ROW_25_167
*1283 TAP_TAPCELL_ROW_25_168
*1284 TAP_TAPCELL_ROW_25_169
*1285 TAP_TAPCELL_ROW_26_170
*1286 TAP_TAPCELL_ROW_26_171
*1287 TAP_TAPCELL_ROW_26_172
*1288 TAP_TAPCELL_ROW_26_173
*1289 TAP_TAPCELL_ROW_27_174
*1290 TAP_TAPCELL_ROW_27_175
*1291 TAP_TAPCELL_ROW_27_176
*1292 TAP_TAPCELL_ROW_28_177
*1293 TAP_TAPCELL_ROW_28_178
*1294 TAP_TAPCELL_ROW_28_179
*1295 TAP_TAPCELL_ROW_28_180
*1296 TAP_TAPCELL_ROW_29_181
*1297 TAP_TAPCELL_ROW_29_182
*1298 TAP_TAPCELL_ROW_29_183
*1299 TAP_TAPCELL_ROW_2_86
*1300 TAP_TAPCELL_ROW_2_87
*1301 TAP_TAPCELL_ROW_2_88
*1302 TAP_TAPCELL_ROW_2_89
*1303 TAP_TAPCELL_ROW_30_184
*1304 TAP_TAPCELL_ROW_30_185
*1305 TAP_TAPCELL_ROW_30_186
*1306 TAP_TAPCELL_ROW_30_187
*1307 TAP_TAPCELL_ROW_31_188
*1308 TAP_TAPCELL_ROW_31_189
*1309 TAP_TAPCELL_ROW_31_190
*1310 TAP_TAPCELL_ROW_32_191
*1311 TAP_TAPCELL_ROW_32_192
*1312 TAP_TAPCELL_ROW_32_193
*1313 TAP_TAPCELL_ROW_32_194
*1314 TAP_TAPCELL_ROW_33_195
*1315 TAP_TAPCELL_ROW_33_196
*1316 TAP_TAPCELL_ROW_33_197
*1317 TAP_TAPCELL_ROW_34_198
*1318 TAP_TAPCELL_ROW_34_199
*1319 TAP_TAPCELL_ROW_34_200
*1320 TAP_TAPCELL_ROW_34_201
*1321 TAP_TAPCELL_ROW_35_202
*1322 TAP_TAPCELL_ROW_35_203
*1323 TAP_TAPCELL_ROW_35_204
*1324 TAP_TAPCELL_ROW_36_205
*1325 TAP_TAPCELL_ROW_36_206
*1326 TAP_TAPCELL_ROW_36_207
*1327 TAP_TAPCELL_ROW_36_208
*1328 TAP_TAPCELL_ROW_37_209
*1329 TAP_TAPCELL_ROW_37_210
*1330 TAP_TAPCELL_ROW_37_211
*1331 TAP_TAPCELL_ROW_37_212
*1332 TAP_TAPCELL_ROW_37_213
*1333 TAP_TAPCELL_ROW_37_214
*1334 TAP_TAPCELL_ROW_37_215
*1335 TAP_TAPCELL_ROW_3_90
*1336 TAP_TAPCELL_ROW_3_91
*1337 TAP_TAPCELL_ROW_3_92
*1338 TAP_TAPCELL_ROW_4_93
*1339 TAP_TAPCELL_ROW_4_94
*1340 TAP_TAPCELL_ROW_4_95
*1341 TAP_TAPCELL_ROW_4_96
*1342 TAP_TAPCELL_ROW_5_97
*1343 TAP_TAPCELL_ROW_5_98
*1344 TAP_TAPCELL_ROW_5_99
*1345 TAP_TAPCELL_ROW_6_100
*1346 TAP_TAPCELL_ROW_6_101
*1347 TAP_TAPCELL_ROW_6_102
*1348 TAP_TAPCELL_ROW_6_103
*1349 TAP_TAPCELL_ROW_7_104
*1350 TAP_TAPCELL_ROW_7_105
*1351 TAP_TAPCELL_ROW_7_106
*1352 TAP_TAPCELL_ROW_8_107
*1353 TAP_TAPCELL_ROW_8_108
*1354 TAP_TAPCELL_ROW_8_109
*1355 TAP_TAPCELL_ROW_8_110
*1356 TAP_TAPCELL_ROW_9_111
*1357 TAP_TAPCELL_ROW_9_112
*1358 TAP_TAPCELL_ROW_9_113
*1359 _326_
*1360 _327_
*1361 _328_
*1362 _329_
*1363 _330_
*1364 _331_
*1365 _332_
*1366 _333_
*1367 _334_
*1368 _335_
*1369 _336_
*1370 _337_
*1371 _338_
*1372 _339_
*1373 _340_
*1374 _341_
*1375 _342_
*1376 _343_
*1377 _344_
*1378 _345_
*1379 _346_
*1380 _347_
*1381 _348_
*1382 _349_
*1383 _350_
*1384 _351_
*1385 _352_
*1386 _353_
*1387 _354_
*1388 _355_
*1389 _356_
*1390 _357_
*1391 _358_
*1392 _359_
*1393 _360_
*1394 _361_
*1395 _362_
*1396 _363_
*1397 _364_
*1398 _365_
*1399 _366_
*1400 _367_
*1401 _368_
*1402 _369_
*1403 _370_
*1404 _371_
*1405 _372_
*1406 _373_
*1407 _374_
*1408 _375_
*1409 _376_
*1410 _377_
*1411 _378_
*1412 _379_
*1413 _380_
*1414 _381_
*1415 _382_
*1416 _383_
*1417 _384_
*1418 _385_
*1419 _386_
*1420 _387_
*1421 _388_
*1422 _389_
*1423 _390_
*1424 _391_
*1425 _392_
*1426 _393_
*1427 _394_
*1428 _395_
*1429 _396_
*1430 _397_
*1431 _398_
*1432 _399_
*1433 _400_
*1434 _401_
*1435 _402_
*1436 _403_
*1437 _404_
*1438 _405_
*1439 _406_
*1440 _407_
*1441 _408_
*1442 _409_
*1443 _410_
*1444 _411_
*1445 _412_
*1446 _413_
*1447 _414_
*1448 _415_
*1449 _416_
*1450 _417_
*1451 _418_
*1452 _419_
*1453 _420_
*1454 _421_
*1455 _422_
*1456 _423_
*1457 _424_
*1458 _425_
*1459 _426_
*1460 _427_
*1461 _428_
*1462 _429_
*1463 _430_
*1464 _431_
*1465 _432_
*1466 _433_
*1467 _434_
*1468 _435_
*1469 _436_
*1470 _437_
*1471 _438_
*1472 _439_
*1473 _440_
*1474 _441_
*1475 _442_
*1476 _443_
*1477 _444_
*1478 _445_
*1479 _446_
*1480 _447_
*1481 _448_
*1482 _449_
*1483 _450_
*1484 _451_
*1485 _452_
*1486 _453_
*1487 _454_
*1488 _455_
*1489 _456_
*1490 _457_
*1491 _458_
*1492 _459_
*1493 _460_
*1494 _461_
*1495 _462_
*1496 _463_
*1497 _464_
*1498 _465_
*1499 _466_
*1500 _467_
*1501 _468_
*1502 _469_
*1503 _470_
*1504 _471_
*1505 _472_
*1506 _473_
*1507 _474_
*1508 _475_
*1509 _476_
*1510 _477_
*1511 _478_
*1512 _479_
*1513 _480_
*1514 _481_
*1515 _482_
*1516 _483_
*1517 _484_
*1518 _485_
*1519 _486_
*1520 _487_
*1521 _488_
*1522 _489_
*1523 _490_
*1524 _491_
*1525 _492_
*1526 _493_
*1527 _494_
*1528 _495_
*1529 _496_
*1530 _497_
*1531 _498_
*1532 _499_
*1533 _500_
*1534 _501_
*1535 _502_
*1536 _503_
*1537 _504_
*1538 _505_
*1539 _506_
*1540 _507_
*1541 _508_
*1542 _509_
*1543 _510_
*1544 _511_
*1545 _512_
*1546 _513_
*1547 _514_
*1548 _515_
*1549 _516_
*1550 _517_
*1551 _518_
*1552 _519_
*1553 _520_
*1554 _521_
*1555 _522_
*1556 _523_
*1557 _524_
*1558 _525_
*1559 _526_
*1560 _527_
*1561 _528_
*1562 _529_
*1563 _530_
*1564 _531_
*1565 _532_
*1566 _533_
*1567 _534_
*1568 _535_
*1569 _536_
*1570 _537_
*1571 _538_
*1572 _539_
*1573 _540_
*1574 _541_
*1575 _542_
*1576 _543_
*1577 _544_
*1578 _545_
*1579 _546_
*1580 _547_
*1581 _548_
*1582 _549_
*1583 _550_
*1584 _551_
*1585 _552_
*1586 _553_
*1587 _554_
*1588 _555_
*1589 _556_
*1590 _557_
*1591 _558_
*1592 _559_
*1593 _560_
*1594 _561_
*1595 _562_
*1596 _563_
*1597 _564_
*1598 _565_
*1599 _566_
*1600 _567_
*1601 _568_
*1602 _569_
*1603 _570_
*1604 _571_
*1605 _572_
*1606 _573_
*1607 _574_
*1608 _575_
*1609 _576_
*1610 _577_
*1611 _578_
*1612 _579_
*1613 _580_
*1614 _581_
*1615 _582_
*1616 _583_
*1617 _584_
*1618 _585_
*1619 _586_
*1620 _587_
*1621 _588_
*1622 _589_
*1623 _590_
*1624 _591_
*1625 _592_
*1626 _593_
*1627 _594_
*1628 _595_
*1629 _596_
*1630 _597_
*1631 _598_
*1632 _599_
*1633 _600_
*1634 _601_
*1635 _602_
*1636 _603_
*1637 _604_
*1638 _605_
*1639 _606_
*1640 _607_
*1641 _608_
*1642 _609_
*1643 _610_
*1644 _611_
*1645 _612_
*1646 _613_
*1647 _614_
*1648 _615_
*1649 _616_
*1650 _617_
*1651 _618_
*1652 _619_
*1653 _620_
*1654 _621_
*1655 _622_
*1656 _623_
*1657 _624_
*1658 _625_
*1659 _626_
*1660 _627_
*1661 _628_
*1662 _629_
*1663 _630_
*1664 _631_
*1665 _632_
*1666 _633_
*1667 _634_
*1668 _635_
*1669 _636_
*1670 _637_
*1671 _638_
*1672 _639_
*1673 _640_
*1674 _641_
*1675 _642_
*1676 _643_
*1677 _644_
*1678 _645_
*1679 _646_
*1680 _647_
*1681 _648_
*1682 _649_
*1683 _650_
*1684 _651_
*1685 _652_
*1686 _653_
*1687 _654_
*1688 _655_
*1689 _656_
*1690 _657_
*1691 _658_
*1692 _659_
*1693 _660_
*1694 _661_
*1695 _662_
*1696 _663_
*1697 _664_
*1698 _665_
*1699 _666_
*1700 _667_
*1701 _668_
*1702 _669_
*1703 _670_
*1704 _671_
*1705 _672_
*1706 _673_
*1707 _674_
*1708 _675_
*1709 _676_
*1710 _677_
*1711 _678_
*1712 _679_
*1713 _680_
*1714 _681_
*1715 _682_
*1716 _683_
*1717 _684_
*1718 _685_
*1719 _686_
*1720 _687_
*1721 _688_
*1722 _689_
*1723 _690_
*1724 _691_
*1725 _692_
*1726 _693_
*1727 _694_
*1728 _695_
*1729 _696_
*1730 _697_
*1731 _698_
*1732 _699_
*1733 _700_
*1734 _701_
*1735 _702_
*1736 _703_
*1737 _704_
*1738 _705_
*1739 _706_
*1740 _707_
*1741 _708_
*1742 _709_
*1743 _710_
*1744 _711_
*1745 _712_
*1746 _713_
*1747 _714_
*1748 _715_
*1749 _716_
*1750 _717_
*1751 _718_
*1752 _719_
*1753 _720_
*1754 _721_
*1755 _722_
*1756 _723_
*1757 _724_
*1758 _725_
*1759 _726_
*1760 _727_
*1761 _728_
*1762 _729_
*1763 _730_
*1764 _731_
*1765 _732_
*1766 _733_
*1767 _734_
*1768 _735_
*1769 _736_
*1770 clkbuf_0_CLK_I
*1771 clkbuf_4_0_0_CLK_I
*1772 clkbuf_4_10_0_CLK_I
*1773 clkbuf_4_11_0_CLK_I
*1774 clkbuf_4_12_0_CLK_I
*1775 clkbuf_4_13_0_CLK_I
*1776 clkbuf_4_14_0_CLK_I
*1777 clkbuf_4_15_0_CLK_I
*1778 clkbuf_4_1_0_CLK_I
*1779 clkbuf_4_2_0_CLK_I
*1780 clkbuf_4_3_0_CLK_I
*1781 clkbuf_4_4_0_CLK_I
*1782 clkbuf_4_5_0_CLK_I
*1783 clkbuf_4_6_0_CLK_I
*1784 clkbuf_4_7_0_CLK_I
*1785 clkbuf_4_8_0_CLK_I
*1786 clkbuf_4_9_0_CLK_I
*1787 clkload0
*1788 clkload1
*1789 clkload10
*1790 clkload11
*1791 clkload12
*1792 clkload2
*1793 clkload3
*1794 clkload4
*1795 clkload5
*1796 clkload6
*1797 clkload7
*1798 clkload8
*1799 clkload9
*1800 fanout42
*1801 fanout43
*1802 fanout49
*1803 fanout51
*1804 fanout52
*1805 fanout53
*1806 fanout54
*1807 fanout55
*1808 fanout56
*1809 hold57
*1810 hold58
*1811 input1
*1812 input10
*1813 input11
*1814 input12
*1815 input2
*1816 input3
*1817 input4
*1818 input5
*1819 input6
*1820 input7
*1821 input8
*1822 input9
*1823 load_slew40
*1824 max_cap34
*1825 max_cap35
*1826 max_cap36
*1827 max_cap37
*1828 max_cap38
*1829 max_cap39
*1830 max_cap44
*1831 max_cap45
*1832 max_cap46
*1833 max_cap47
*1834 max_cap48
*1835 max_cap50
*1836 output13
*1837 output14
*1838 output15
*1839 output16
*1840 output17
*1841 output18
*1842 output19
*1843 output20
*1844 output21
*1845 output22
*1846 output23
*1847 output24
*1848 output25
*1849 output26
*1850 output27
*1851 output28
*1852 output29
*1853 output30
*1854 output31
*1855 output32
*1856 output33
*1857 wire41

*PORTS
ACK_I I
ADDR_O[0] O
ADDR_O[1] O
ADDR_O[2] O
ADDR_O[3] O
ADDR_O[4] O
ADDR_O[5] O
ADDR_O[6] O
ADDR_O[7] O
CLK_I I
CYC_O O
DAT_I[0] I
DAT_I[1] I
DAT_I[2] I
DAT_I[3] I
DAT_I[4] I
DAT_I[5] I
DAT_I[6] I
DAT_I[7] I
DAT_O[0] O
DAT_O[1] O
DAT_O[2] O
DAT_O[3] O
DAT_O[4] O
DAT_O[5] O
DAT_O[6] O
DAT_O[7] O
ERR_I I
RST_I I
RTY_I I
STB_O O
WE_O O
i2c_scl_in I
i2c_sda_in I
i2c_sda_out_pin_ctrl O
i2c_sda_out_pin_ctrl_n O

*D_NET *1 0.00426946
*CONN
*P ACK_I I
*I *1811:I I *D gf180mcu_fd_sc_mcu7t5v0__dlyb_1
*CAP
1 ACK_I 0.00104466
2 *1811:I 0.00104466
3 *1811:I WE_O 0
4 *1811:I *1645:A2 0.000416007
5 *1811:I *1645:B 0.001297
6 *1811:I *1646:A2 2.45927e-05
7 *1811:I *1854:I 1.81333e-05
8 *1811:I *441:6 0.000424397
*RES
1 ACK_I *1811:I 18.386 
*END

*D_NET *2 0.00521641
*CONN
*P ADDR_O[0] O
*I *1836:Z O *D gf180mcu_fd_sc_mcu7t5v0__dlyb_1
*CAP
1 ADDR_O[0] 0.00127196
2 *1836:Z 0.00127196
3 ADDR_O[0] ADDR_O[1] 0
4 ADDR_O[0] ADDR_O[3] 0
5 ADDR_O[0] *1614:B2 0.000918586
6 ADDR_O[0] *1617:A1 0.000809807
7 ADDR_O[0] *1719:CLK 0
8 ADDR_O[0] *1812:I 2.29986e-05
9 ADDR_O[0] *1836:I 0
10 ADDR_O[0] *466:57 0.000921092
*RES
1 *1836:Z ADDR_O[0] 30.882 
*END

*D_NET *3 0.00494618
*CONN
*P ADDR_O[1] O
*I *1837:Z O *D gf180mcu_fd_sc_mcu7t5v0__dlyb_1
*CAP
1 ADDR_O[1] 0.00111863
2 *1837:Z 0.00111863
3 ADDR_O[1] ADDR_O[2] 0
4 ADDR_O[1] ADDR_O[3] 0.00218425
5 ADDR_O[1] *1717:CLK 5.14116e-06
6 ADDR_O[1] *1720:D 1.59317e-05
7 ADDR_O[1] *1838:I 7.04824e-05
8 ADDR_O[1] *465:12 0.000139333
9 ADDR_O[1] *466:57 0.000293782
10 ADDR_O[0] ADDR_O[1] 0
*RES
1 *1837:Z ADDR_O[1] 19.374 
*END

*D_NET *4 0.00166866
*CONN
*P ADDR_O[2] O
*I *1838:Z O *D gf180mcu_fd_sc_mcu7t5v0__dlyb_1
*CAP
1 ADDR_O[2] 0.00059423
2 *1838:Z 0.00059423
3 ADDR_O[2] ADDR_O[3] 0
4 ADDR_O[2] *1617:A1 1.15275e-05
5 ADDR_O[2] *1617:A2 9.37617e-05
6 ADDR_O[2] *1720:D 0.000298951
7 ADDR_O[2] *1841:I 7.59633e-05
8 ADDR_O[1] ADDR_O[2] 0
*RES
1 *1838:Z ADDR_O[2] 13.522 
*END

*D_NET *5 0.010312
*CONN
*P ADDR_O[3] O
*I *1839:Z O *D gf180mcu_fd_sc_mcu7t5v0__dlyb_1
*CAP
1 ADDR_O[3] 0.00100144
2 *1839:Z 0.00100144
3 ADDR_O[3] ADDR_O[4] 0
4 ADDR_O[3] ADDR_O[5] 0.00125736
5 ADDR_O[3] *1614:B2 0.00264948
6 ADDR_O[3] *1617:A1 0.000478097
7 ADDR_O[3] *1812:I 0.00125022
8 ADDR_O[3] *1836:I 0
9 ADDR_O[3] *1839:I 0
10 ADDR_O[3] *367:12 0.000202418
11 ADDR_O[3] *466:57 0.000287297
12 ADDR_O[0] ADDR_O[3] 0
13 ADDR_O[1] ADDR_O[3] 0.00218425
14 ADDR_O[2] ADDR_O[3] 0
*RES
1 *1839:Z ADDR_O[3] 35.442 
*END

*D_NET *6 0.00140948
*CONN
*P ADDR_O[4] O
*I *1840:Z O *D gf180mcu_fd_sc_mcu7t5v0__dlyb_1
*CAP
1 ADDR_O[4] 0.000411661
2 *1840:Z 0.000411661
3 ADDR_O[4] ADDR_O[5] 0
4 ADDR_O[4] *1720:CLK 2.6126e-05
5 ADDR_O[4] *1721:CLK 0.000210388
6 ADDR_O[4] *1800:I 0.00024199
7 ADDR_O[4] *1812:I 4.10997e-05
8 ADDR_O[4] *426:12 6.65506e-05
9 ADDR_O[3] ADDR_O[4] 0
*RES
1 *1840:Z ADDR_O[4] 12.306 
*END

*D_NET *7 0.0048469
*CONN
*P ADDR_O[5] O
*I *1841:Z O *D gf180mcu_fd_sc_mcu7t5v0__dlyb_1
*CAP
1 ADDR_O[5] 0.000646576
2 *1841:Z 0.000646576
3 ADDR_O[5] ADDR_O[6] 0
4 ADDR_O[5] ADDR_O[7] 1.5015e-05
5 ADDR_O[5] *1617:A1 0.00019064
6 ADDR_O[5] *1617:A2 4.25142e-05
7 ADDR_O[5] *1720:CLK 0.000496496
8 ADDR_O[5] *1721:CLK 0.000355781
9 ADDR_O[5] *1800:I 0.000264169
10 ADDR_O[5] *1812:I 0.000223903
11 ADDR_O[5] *426:12 0.000707866
12 ADDR_O[3] ADDR_O[5] 0.00125736
13 ADDR_O[4] ADDR_O[5] 0
*RES
1 *1841:Z ADDR_O[5] 17.778 
*END

*D_NET *8 0.00291315
*CONN
*P ADDR_O[6] O
*I *1842:Z O *D gf180mcu_fd_sc_mcu7t5v0__dlyb_1
*CAP
1 ADDR_O[6] 0.000987779
2 *1842:Z 0.000987779
3 ADDR_O[6] ADDR_O[7] 0
4 ADDR_O[6] *1675:A2 5.76373e-06
5 ADDR_O[6] *1722:D 7.98466e-05
6 ADDR_O[6] *1724:D 0
7 ADDR_O[6] *1843:I 7.5579e-05
8 ADDR_O[6] *318:10 0.000320116
9 ADDR_O[6] *427:12 0
10 ADDR_O[6] *466:97 0.000456283
11 ADDR_O[5] ADDR_O[6] 0
*RES
1 *1842:Z ADDR_O[6] 17.094 
*END

*D_NET *9 0.0026256
*CONN
*P ADDR_O[7] O
*I *1843:Z O *D gf180mcu_fd_sc_mcu7t5v0__dlyb_1
*CAP
1 ADDR_O[7] 0.000555068
2 *1843:Z 0.000555068
3 ADDR_O[7] *1800:I 0.000441055
4 ADDR_O[7] *1801:I 0.000337692
5 ADDR_O[7] *1815:I 0.000493307
6 ADDR_O[7] *426:12 8.55819e-05
7 ADDR_O[7] *427:12 0.000142809
8 ADDR_O[5] ADDR_O[7] 1.5015e-05
9 ADDR_O[6] ADDR_O[7] 0
*RES
1 *1843:Z ADDR_O[7] 14.738 
*END

*D_NET *10 0.0128203
*CONN
*P CLK_I I
*I *1770:I I *D gf180mcu_fd_sc_mcu7t5v0__clkbuf_16
*CAP
1 CLK_I 0.00625158
2 *1770:I 3.96983e-06
3 *10:12 0.00625555
4 *1770:I *1682:B1 4.50449e-05
5 *1770:I *1682:C 4.50449e-05
6 *10:12 *1462:A1 0
7 *10:12 *1616:A1 8.64865e-05
8 *10:12 *1812:I 0
9 *10:12 *368:43 0.000132666
*RES
1 CLK_I *10:12 47.114 
2 *10:12 *1770:I 9.228 
*END

*D_NET *11 0.00245679
*CONN
*P CYC_O O
*I *1844:Z O *D gf180mcu_fd_sc_mcu7t5v0__dlyb_1
*CAP
1 CYC_O 0.000654704
2 *1844:Z 0.000654704
3 CYC_O DAT_O[6] 0.000386421
4 CYC_O DAT_O[7] 0.000134564
5 CYC_O STB_O 0.000626396
6 CYC_O *1844:I 0
7 CYC_O *1853:I 0
8 CYC_O *430:25 0
*RES
1 *1844:Z CYC_O 14.586 
*END

*D_NET *12 0.00217012
*CONN
*P DAT_I[0] I
*I *1815:I I *D gf180mcu_fd_sc_mcu7t5v0__dlyb_1
*CAP
1 DAT_I[0] 0.0006433
2 *1815:I 0.0006433
3 *1815:I *1801:I 9.58397e-05
4 *1815:I *1816:I 0.000272327
5 *1815:I *429:8 2.20475e-05
6 ADDR_O[7] *1815:I 0.000493307
*RES
1 DAT_I[0] *1815:I 14.282 
*END

*D_NET *13 0.00183579
*CONN
*P DAT_I[1] I
*I *1816:I I *D gf180mcu_fd_sc_mcu7t5v0__dlyb_1
*CAP
1 DAT_I[1] 0.000571661
2 *1816:I 0.000571661
3 *1816:I *1801:I 0.000394018
4 *1816:I *1817:I 2.6126e-05
5 *1816:I *429:8 0
6 *1815:I *1816:I 0.000272327
*RES
1 DAT_I[1] *1816:I 13.826 
*END

*D_NET *14 0.00133177
*CONN
*P DAT_I[2] I
*I *1817:I I *D gf180mcu_fd_sc_mcu7t5v0__dlyb_1
*CAP
1 DAT_I[2] 0.000527795
2 *1817:I 0.000527795
3 *1817:I *1801:I 0.000157386
4 *1817:I *1818:I 9.26705e-05
5 *1816:I *1817:I 2.6126e-05
*RES
1 DAT_I[2] *1817:I 13.066 
*END

*D_NET *15 0.00177987
*CONN
*P DAT_I[3] I
*I *1818:I I *D gf180mcu_fd_sc_mcu7t5v0__dlyb_1
*CAP
1 DAT_I[3] 0.000507127
2 *1818:I 0.000507127
3 *1818:I *1801:I 0.000134564
4 *1818:I *1819:I 0.000386421
5 *1818:I *430:8 0.000151957
6 *1817:I *1818:I 9.26705e-05
*RES
1 DAT_I[3] *1818:I 13.37 
*END

*D_NET *16 0.00248191
*CONN
*P DAT_I[4] I
*I *1819:I I *D gf180mcu_fd_sc_mcu7t5v0__dlyb_1
*CAP
1 DAT_I[4] 0.000524275
2 *1819:I 0.000524275
3 *1819:I *1801:I 0.000979553
4 *1819:I *1820:I 6.73834e-05
5 *1819:I *430:8 0
6 *1818:I *1819:I 0.000386421
*RES
1 DAT_I[4] *1819:I 14.282 
*END

*D_NET *17 0.00154182
*CONN
*P DAT_I[5] I
*I *1820:I I *D gf180mcu_fd_sc_mcu7t5v0__dlyb_1
*CAP
1 DAT_I[5] 0.000577555
2 *1820:I 0.000577555
3 *1820:I *1801:I 0.000116355
4 *1820:I *1821:I 0.000202968
5 *1819:I *1820:I 6.73834e-05
*RES
1 DAT_I[5] *1820:I 13.37 
*END

*D_NET *18 0.00184723
*CONN
*P DAT_I[6] I
*I *1821:I I *D gf180mcu_fd_sc_mcu7t5v0__dlyb_1
*CAP
1 DAT_I[6] 0.000549191
2 *1821:I 0.000549191
3 *1821:I *1801:I 0.000242776
4 *1821:I *1807:I 0.000265755
5 *1821:I *1822:I 0
6 *1821:I *431:10 3.73535e-05
7 *1820:I *1821:I 0.000202968
*RES
1 DAT_I[6] *1821:I 13.674 
*END

*D_NET *19 0.00112856
*CONN
*P DAT_I[7] I
*I *1822:I I *D gf180mcu_fd_sc_mcu7t5v0__dlyb_1
*CAP
1 DAT_I[7] 0.00038368
2 *1822:I 0.00038368
3 *1822:I DAT_O[0] 0
4 *1822:I *1801:I 8.59438e-05
5 *1822:I *431:10 0.000275258
6 *1821:I *1822:I 0
*RES
1 DAT_I[7] *1822:I 12.154 
*END

*D_NET *20 0.00088662
*CONN
*P DAT_O[0] O
*I *1845:Z O *D gf180mcu_fd_sc_mcu7t5v0__dlyb_1
*CAP
1 DAT_O[0] 0.000364501
2 *1845:Z 0.000364501
3 DAT_O[0] DAT_O[1] 0
4 DAT_O[0] *431:10 3.16765e-06
5 DAT_O[0] *432:12 0.000154451
6 *1822:I DAT_O[0] 0
*RES
1 *1845:Z DAT_O[0] 11.698 
*END

*D_NET *21 0.00241257
*CONN
*P DAT_O[1] O
*I *1846:Z O *D gf180mcu_fd_sc_mcu7t5v0__dlyb_1
*CAP
1 DAT_O[1] 0.000666804
2 *1846:Z 0.000666804
3 DAT_O[1] DAT_O[2] 0.000619258
4 DAT_O[1] *1801:I 7.53241e-05
5 DAT_O[1] *430:25 0
6 DAT_O[1] *433:10 0.000384379
7 DAT_O[0] DAT_O[1] 0
*RES
1 *1846:Z DAT_O[1] 14.586 
*END

*D_NET *22 0.00322286
*CONN
*P DAT_O[2] O
*I *1847:Z O *D gf180mcu_fd_sc_mcu7t5v0__dlyb_1
*CAP
1 DAT_O[2] 0.000610496
2 *1847:Z 0.000610496
3 DAT_O[2] DAT_O[3] 0.000840106
4 DAT_O[2] *1729:CLK 0.000494095
5 DAT_O[2] *430:25 0
6 DAT_O[2] *433:10 2.09451e-05
7 DAT_O[2] *434:10 2.74661e-05
8 DAT_O[1] DAT_O[2] 0.000619258
*RES
1 *1847:Z DAT_O[2] 15.346 
*END

*D_NET *23 0.00299728
*CONN
*P DAT_O[3] O
*I *1848:Z O *D gf180mcu_fd_sc_mcu7t5v0__dlyb_1
*CAP
1 DAT_O[3] 0.000866793
2 *1848:Z 0.000866793
3 DAT_O[3] DAT_O[4] 0
4 DAT_O[3] DAT_O[5] 0.000147129
5 DAT_O[3] *1729:D 9.67157e-05
6 DAT_O[3] *1729:CLK 0.0001626
7 DAT_O[3] *1848:I 1.71429e-05
8 DAT_O[3] *430:25 0
9 DAT_O[2] DAT_O[3] 0.000840106
*RES
1 *1848:Z DAT_O[3] 16.334 
*END

*D_NET *24 0.00233827
*CONN
*P DAT_O[4] O
*I *1849:Z O *D gf180mcu_fd_sc_mcu7t5v0__dlyb_1
*CAP
1 DAT_O[4] 0.000986592
2 *1849:Z 0.000986592
3 DAT_O[4] DAT_O[5] 0
4 DAT_O[4] *1633:A1 0
5 DAT_O[4] *1729:CLK 0.000240559
6 DAT_O[4] *1847:I 3.94905e-05
7 DAT_O[4] *389:242 8.50315e-05
8 DAT_O[4] *434:10 0
9 DAT_O[3] DAT_O[4] 0
*RES
1 *1849:Z DAT_O[4] 15.878 
*END

*D_NET *25 0.00252108
*CONN
*P DAT_O[5] O
*I *1850:Z O *D gf180mcu_fd_sc_mcu7t5v0__dlyb_1
*CAP
1 DAT_O[5] 0.000756465
2 *1850:Z 0.000756465
3 DAT_O[5] DAT_O[6] 0.000676769
4 DAT_O[5] *1729:D 0
5 DAT_O[5] *1729:CLK 3.08902e-05
6 DAT_O[5] *434:10 6.04444e-06
7 DAT_O[5] *437:10 0.000147313
8 DAT_O[3] DAT_O[5] 0.000147129
9 DAT_O[4] DAT_O[5] 0
*RES
1 *1850:Z DAT_O[5] 15.042 
*END

*D_NET *26 0.00350338
*CONN
*P DAT_O[6] O
*I *1851:Z O *D gf180mcu_fd_sc_mcu7t5v0__dlyb_1
*CAP
1 DAT_O[6] 0.000570351
2 *1851:Z 0.000570351
3 DAT_O[6] DAT_O[7] 0.00103419
4 DAT_O[6] *1729:D 6.84521e-05
5 DAT_O[6] *430:25 0
6 DAT_O[6] *436:10 6.22815e-05
7 DAT_O[6] *437:10 0.000134564
8 CYC_O DAT_O[6] 0.000386421
9 DAT_O[5] DAT_O[6] 0.000676769
*RES
1 *1851:Z DAT_O[6] 15.65 
*END

*D_NET *27 0.0028925
*CONN
*P DAT_O[7] O
*I *1852:Z O *D gf180mcu_fd_sc_mcu7t5v0__dlyb_1
*CAP
1 DAT_O[7] 0.000763281
2 *1852:Z 0.000763281
3 DAT_O[7] *430:25 0
4 DAT_O[7] *436:10 0
5 DAT_O[7] *437:10 0.000197186
6 CYC_O DAT_O[7] 0.000134564
7 DAT_O[6] DAT_O[7] 0.00103419
*RES
1 *1852:Z DAT_O[7] 15.726 
*END

*D_NET *29 0.00632979
*CONN
*P RST_I I
*I *1812:I I *D gf180mcu_fd_sc_mcu7t5v0__dlyb_1
*CAP
1 RST_I 0.00206466
2 *1812:I 0.00206466
3 *1812:I *1617:A1 8.0352e-06
4 *1812:I *1620:B2 3.60988e-06
5 *1812:I *1718:D 6.9337e-07
6 *1812:I *1840:I 0.000103814
7 *1812:I *391:44 0
8 *1812:I *426:12 0.000359295
9 *1812:I *466:97 0.00018681
10 ADDR_O[0] *1812:I 2.29986e-05
11 ADDR_O[3] *1812:I 0.00125022
12 ADDR_O[4] *1812:I 4.10997e-05
13 ADDR_O[5] *1812:I 0.000223903
14 *10:12 *1812:I 0
*RES
1 RST_I *1812:I 33.086 
*END

*D_NET *31 0.00183278
*CONN
*P STB_O O
*I *1853:Z O *D gf180mcu_fd_sc_mcu7t5v0__dlyb_1
*CAP
1 STB_O 0.00060319
2 *1853:Z 0.00060319
3 STB_O WE_O 0
4 CYC_O STB_O 0.000626396
*RES
1 *1853:Z STB_O 13.674 
*END

*D_NET *34 0.00225974
*CONN
*P WE_O O
*I *1854:Z O *D gf180mcu_fd_sc_mcu7t5v0__dlyb_1
*CAP
1 WE_O 0.00102292
2 *1854:Z 0.00102292
3 WE_O *1645:B 4.13816e-05
4 WE_O *1646:A2 9.25409e-05
5 WE_O *1732:D 0
6 WE_O *1769:I 0
7 WE_O *1853:I 7.99821e-05
8 STB_O WE_O 0
9 *1811:I WE_O 0
*RES
1 *1854:Z WE_O 16.106 
*END

*D_NET *35 0.000876851
*CONN
*P i2c_scl_in I
*I *1813:I I *D gf180mcu_fd_sc_mcu7t5v0__dlyb_1
*CAP
1 i2c_scl_in 0.000438426
2 *1813:I 0.000438426
*RES
1 i2c_scl_in *1813:I 11.85 
*END

*D_NET *36 0.000958363
*CONN
*P i2c_sda_in I
*I *1814:I I *D gf180mcu_fd_sc_mcu7t5v0__dlyb_1
*CAP
1 i2c_sda_in 0.000479181
2 *1814:I 0.000479181
*RES
1 i2c_sda_in *1814:I 12.154 
*END

*D_NET *37 0.000780501
*CONN
*P i2c_sda_out_pin_ctrl O
*I *1855:Z O *D gf180mcu_fd_sc_mcu7t5v0__dlyb_1
*CAP
1 i2c_sda_out_pin_ctrl 0.000371569
2 *1855:Z 0.000371569
3 i2c_sda_out_pin_ctrl *397:30 3.73627e-05
*RES
1 *1855:Z i2c_sda_out_pin_ctrl 11.622 
*END

*D_NET *38 0.00098622
*CONN
*P i2c_sda_out_pin_ctrl_n O
*I *1856:Z O *D gf180mcu_fd_sc_mcu7t5v0__dlyb_1
*CAP
1 i2c_sda_out_pin_ctrl_n 0.000482812
2 *1856:Z 0.000482812
3 i2c_sda_out_pin_ctrl_n *1856:I 2.05953e-05
*RES
1 *1856:Z i2c_sda_out_pin_ctrl_n 12.23 
*END

*D_NET *39 0.000357849
*CONN
*I *1768:D I *D gf180mcu_fd_sc_mcu7t5v0__dffq_1
*I *1387:Z O *D gf180mcu_fd_sc_mcu7t5v0__and2_1
*CAP
1 *1768:D 0.00016983
2 *1387:Z 0.00016983
3 *1768:D *401:6 0
4 *1768:D *401:14 1.81888e-05
*RES
1 *1387:Z *1768:D 10.064 
*END

*D_NET *40 0.000590858
*CONN
*I *1767:D I *D gf180mcu_fd_sc_mcu7t5v0__dffq_1
*I *1386:ZN O *D gf180mcu_fd_sc_mcu7t5v0__nor2_1
*CAP
1 *1767:D 0.000275506
2 *1386:ZN 0.000275506
3 *1767:D *1387:A2 4.2318e-06
4 *1767:D *1765:CLK 0
5 *1767:D *132:16 3.56141e-05
*RES
1 *1386:ZN *1767:D 10.824 
*END

*D_NET *41 0.00100765
*CONN
*I *1747:D I *D gf180mcu_fd_sc_mcu7t5v0__dffq_1
*I *1419:Z O *D gf180mcu_fd_sc_mcu7t5v0__mux2_2
*CAP
1 *1747:D 0.000151346
2 *1419:Z 0.000151346
3 *1747:D *1419:I1 0
4 *1747:D *1423:S 0.000611472
5 *1747:D *1750:CLK 9.34825e-05
*RES
1 *1419:Z *1747:D 19.976 
*END

*D_NET *42 0.00124592
*CONN
*I *1748:D I *D gf180mcu_fd_sc_mcu7t5v0__dffq_1
*I *1423:Z O *D gf180mcu_fd_sc_mcu7t5v0__mux2_2
*CAP
1 *1748:D 6.86054e-05
2 *1423:Z 6.86054e-05
3 *1748:D *1423:I1 3.64183e-05
4 *1748:D *1510:A2 0.000406051
5 *1748:D *1513:A2 0.000412903
6 *1748:D *399:47 0.00025334
*RES
1 *1423:Z *1748:D 19.672 
*END

*D_NET *43 0.000489063
*CONN
*I *1749:D I *D gf180mcu_fd_sc_mcu7t5v0__dffq_1
*I *1427:Z O *D gf180mcu_fd_sc_mcu7t5v0__mux2_2
*CAP
1 *1749:D 0.000235437
2 *1427:Z 0.000235437
3 *1749:D *1427:I1 0
4 *1749:D *1749:CLK 1.81888e-05
*RES
1 *1427:Z *1749:D 10.52 
*END

*D_NET *44 0.00133943
*CONN
*I *1750:D I *D gf180mcu_fd_sc_mcu7t5v0__dffq_1
*I *1431:Z O *D gf180mcu_fd_sc_mcu7t5v0__mux2_2
*CAP
1 *1750:D 0.000406801
2 *1431:Z 0.000406801
3 *1750:D *1419:I1 0.000207099
4 *1750:D *1427:I1 0.000188189
5 *1750:D *1783:I 0
6 *1750:D *1825:I 0.00013054
*RES
1 *1431:Z *1750:D 21.648 
*END

*D_NET *45 0.00211648
*CONN
*I *1751:D I *D gf180mcu_fd_sc_mcu7t5v0__dffq_1
*I *1442:ZN O *D gf180mcu_fd_sc_mcu7t5v0__oai211_1
*CAP
1 *1751:D 0.000227868
2 *1442:ZN 0.000227868
3 *1751:D *1438:A2 8.53637e-06
4 *1751:D *1442:A1 0.000297547
5 *1751:D *150:43 0.000290392
6 *1751:D *165:41 0.000988886
7 *1751:D *327:14 7.53844e-05
*RES
1 *1442:ZN *1751:D 21.344 
*END

*D_NET *46 0.00109817
*CONN
*I *1752:D I *D gf180mcu_fd_sc_mcu7t5v0__dffq_1
*I *1447:ZN O *D gf180mcu_fd_sc_mcu7t5v0__oai221_1
*CAP
1 *1752:D 0.000541698
2 *1447:ZN 0.000541698
3 *1752:D *1753:D 0
4 *1752:D *197:8 1.47787e-05
5 *1752:D *404:16 0
*RES
1 *1447:ZN *1752:D 12.192 
*END

*D_NET *47 0.00163592
*CONN
*I *1753:D I *D gf180mcu_fd_sc_mcu7t5v0__dffq_1
*I *1453:ZN O *D gf180mcu_fd_sc_mcu7t5v0__aoi21_1
*CAP
1 *1753:D 0.000536224
2 *1453:ZN 0.000536224
3 *1753:D *1443:A1 2.18353e-05
4 *1753:D *1444:I 5.14456e-05
5 *1753:D *1453:A2 0.000284411
6 *1753:D *1839:I 1.20961e-05
7 *1753:D *197:8 6.43274e-05
8 *1753:D *367:12 1.20961e-05
9 *1753:D *404:16 0.00011726
10 *1752:D *1753:D 0
*RES
1 *1453:ZN *1753:D 21.8 
*END

*D_NET *48 0.00249989
*CONN
*I *1754:D I *D gf180mcu_fd_sc_mcu7t5v0__dffq_1
*I *1458:ZN O *D gf180mcu_fd_sc_mcu7t5v0__aoi211_1
*CAP
1 *1754:D 0.000149824
2 *1458:ZN 0.000149824
3 *1754:D *1458:A1 0.000144931
4 *1754:D *1621:A2 0.0010751
5 *1754:D *1797:I 0.000484575
6 *1754:D *318:10 0
7 *1754:D *368:10 1.5015e-05
8 *1754:D *462:57 0.000353717
9 *1754:D *468:38 0.000126905
*RES
1 *1458:ZN *1754:D 21.952 
*END

*D_NET *49 0.000471333
*CONN
*I *1755:D I *D gf180mcu_fd_sc_mcu7t5v0__dffq_1
*I *1462:ZN O *D gf180mcu_fd_sc_mcu7t5v0__oai22_1
*CAP
1 *1755:D 0.000224529
2 *1462:ZN 0.000224529
3 *1755:D *1462:B1 2.22758e-05
4 *1755:D *1469:A2 0
5 *1755:D *1796:I 0
6 *1755:D *369:14 0
7 *1755:D *389:115 0
*RES
1 *1462:ZN *1755:D 10.368 
*END

*D_NET *50 0.000891206
*CONN
*I *1756:D I *D gf180mcu_fd_sc_mcu7t5v0__dffq_1
*I *1466:ZN O *D gf180mcu_fd_sc_mcu7t5v0__nor3_1
*CAP
1 *1756:D 0.000293147
2 *1466:ZN 0.000293147
3 *1756:D *1466:A2 0.000179945
4 *1756:D *1473:B2 0.000124968
*RES
1 *1466:ZN *1756:D 11.28 
*END

*D_NET *51 0.00120987
*CONN
*I *1757:D I *D gf180mcu_fd_sc_mcu7t5v0__dffq_1
*I *1471:ZN O *D gf180mcu_fd_sc_mcu7t5v0__aoi22_1
*CAP
1 *1757:D 8.1003e-05
2 *1471:ZN 8.1003e-05
3 *1757:D *1422:B1 0.000204383
4 *1757:D *1471:B1 0.00033338
5 *1757:D *370:16 0.000106338
6 *1757:D *405:56 0.000403764
*RES
1 *1471:ZN *1757:D 20.052 
*END

*D_NET *52 0.00312681
*CONN
*I *1758:D I *D gf180mcu_fd_sc_mcu7t5v0__dffq_1
*I *1474:ZN O *D gf180mcu_fd_sc_mcu7t5v0__nor2_1
*CAP
1 *1758:D 0.000462885
2 *1474:ZN 0.000462885
3 *1758:D *1467:A1 4.94368e-05
4 *1758:D *1468:A2 0.000275895
5 *1758:D *1471:A1 0.00016067
6 *1758:D *1472:A1 5.88975e-06
7 *1758:D *1473:B2 0.000244537
8 *1758:D *1474:A1 0.000495855
9 *1758:D *1474:A2 0.000299878
10 *1758:D *1624:A2 4.39913e-05
11 *1758:D *1643:B 1.74362e-05
12 *1758:D *1758:CLK 2.11364e-05
13 *1758:D *1773:I 6.73834e-05
14 *1758:D *216:14 0.000518934
*RES
1 *1474:ZN *1758:D 14.472 
*END

*D_NET *53 0.0014631
*CONN
*I *1759:D I *D gf180mcu_fd_sc_mcu7t5v0__dffq_1
*I *1480:ZN O *D gf180mcu_fd_sc_mcu7t5v0__oai33_1
*CAP
1 *1759:D 0.00063445
2 *1480:ZN 0.00063445
3 *1759:D *1480:B1 9.52854e-05
4 *1759:D *1480:B3 8.9996e-05
5 *1759:D *1482:B2 8.92063e-06
6 *1759:D *1760:CLK 0
7 *1759:D *390:10 0
*RES
1 *1480:ZN *1759:D 22.18 
*END

*D_NET *54 0.00125541
*CONN
*I *1760:D I *D gf180mcu_fd_sc_mcu7t5v0__dffq_1
*I *1482:ZN O *D gf180mcu_fd_sc_mcu7t5v0__oai32_1
*CAP
1 *1760:D 0.000581127
2 *1482:ZN 0.000581127
3 *1760:D *1478:A1 0
4 *1760:D *1482:B2 8.9355e-05
5 *1760:D *1760:CLK 0
6 *1760:D *465:66 3.80424e-06
*RES
1 *1482:ZN *1760:D 21.344 
*END

*D_NET *55 0.00113301
*CONN
*I *1761:D I *D gf180mcu_fd_sc_mcu7t5v0__dffq_1
*I *1484:ZN O *D gf180mcu_fd_sc_mcu7t5v0__aoi211_1
*CAP
1 *1761:D 0.000113019
2 *1484:ZN 0.000113019
3 *1761:D *1484:B 0.000578336
4 *1761:D *1761:CLK 0.000276717
5 *1761:D *460:21 5.19228e-05
*RES
1 *1484:ZN *1761:D 19.748 
*END

*D_NET *56 0.000358196
*CONN
*I *1762:D I *D gf180mcu_fd_sc_mcu7t5v0__dffq_1
*I *1486:ZN O *D gf180mcu_fd_sc_mcu7t5v0__aoi21_1
*CAP
1 *1762:D 0.000179098
2 *1486:ZN 0.000179098
3 *1762:D *1762:CLK 0
*RES
1 *1486:ZN *1762:D 10.14 
*END

*D_NET *57 0.000292644
*CONN
*I *1763:D I *D gf180mcu_fd_sc_mcu7t5v0__dffq_1
*I *1478:ZN O *D gf180mcu_fd_sc_mcu7t5v0__nor2_1
*CAP
1 *1763:D 0.000134657
2 *1478:ZN 0.000134657
3 *1763:D *1764:D 2.333e-05
*RES
1 *1478:ZN *1763:D 9.836 
*END

*D_NET *58 0.00112236
*CONN
*I *1764:D I *D gf180mcu_fd_sc_mcu7t5v0__dffq_1
*I *1481:ZN O *D gf180mcu_fd_sc_mcu7t5v0__nor2_1
*CAP
1 *1764:D 0.000486224
2 *1481:ZN 0.000486224
3 *1764:D *1478:A2 0
4 *1764:D *1763:CLK 1.91917e-06
5 *1764:D *1764:CLK 2.07594e-05
6 *1764:D *398:14 0.000103908
7 *1763:D *1764:D 2.333e-05
*RES
1 *1481:ZN *1764:D 12.116 
*END

*D_NET *59 0.000368417
*CONN
*I *1686:D I *D gf180mcu_fd_sc_mcu7t5v0__dffq_1
*I *1528:Z O *D gf180mcu_fd_sc_mcu7t5v0__mux2_2
*CAP
1 *1686:D 0.000130943
2 *1528:Z 0.000130943
3 *1686:D *1686:CLK 5.3266e-05
4 *1686:D *244:14 5.3266e-05
*RES
1 *1528:Z *1686:D 10.064 
*END

*D_NET *60 0.00117893
*CONN
*I *1687:D I *D gf180mcu_fd_sc_mcu7t5v0__dffq_1
*I *1534:Z O *D gf180mcu_fd_sc_mcu7t5v0__mux2_2
*CAP
1 *1687:D 0.000269716
2 *1534:Z 0.000269716
3 *1687:D *1534:I0 0.000206333
4 *1687:D *1534:I1 0.000111727
5 *1687:D *272:23 6.57222e-05
6 *1687:D *402:34 0.000255714
*RES
1 *1534:Z *1687:D 20.736 
*END

*D_NET *61 0.000370293
*CONN
*I *1688:D I *D gf180mcu_fd_sc_mcu7t5v0__dffq_1
*I *1535:Z O *D gf180mcu_fd_sc_mcu7t5v0__mux2_2
*CAP
1 *1688:D 0.000147485
2 *1535:Z 0.000147485
3 *1688:D *1688:CLK 0
4 *1688:D *483:24 7.53241e-05
*RES
1 *1535:Z *1688:D 10.064 
*END

*D_NET *62 0.000427341
*CONN
*I *1689:D I *D gf180mcu_fd_sc_mcu7t5v0__dffq_1
*I *1536:Z O *D gf180mcu_fd_sc_mcu7t5v0__mux2_2
*CAP
1 *1689:D 0.000199129
2 *1536:Z 0.000199129
3 *1689:D *1536:I1 1.1971e-05
4 *1689:D *479:20 2.57058e-06
5 *1689:D *482:39 1.45415e-05
*RES
1 *1536:Z *1689:D 10.216 
*END

*D_NET *63 0.000768837
*CONN
*I *1690:D I *D gf180mcu_fd_sc_mcu7t5v0__dffq_1
*I *1537:Z O *D gf180mcu_fd_sc_mcu7t5v0__mux2_2
*CAP
1 *1690:D 0.000192848
2 *1537:Z 0.000192848
3 *1690:D *1538:I0 0.000139374
4 *1690:D *1538:S 2.02279e-05
5 *1690:D *1824:I 5.43644e-06
6 *1690:D *272:23 1.99284e-05
7 *1690:D *480:34 9.50338e-05
8 *1690:D *481:32 0.000103141
*RES
1 *1537:Z *1690:D 19.672 
*END

*D_NET *64 0.0021033
*CONN
*I *1691:D I *D gf180mcu_fd_sc_mcu7t5v0__dffq_1
*I *1538:Z O *D gf180mcu_fd_sc_mcu7t5v0__mux2_2
*CAP
1 *1691:D 0.000515225
2 *1538:Z 0.000515225
3 *1691:D *1774:I 0
4 *1691:D *480:34 0
5 *1691:D *482:39 0.00107285
6 *1691:D *483:24 0
*RES
1 *1538:Z *1691:D 22.256 
*END

*D_NET *65 0.000834332
*CONN
*I *1692:D I *D gf180mcu_fd_sc_mcu7t5v0__dffq_1
*I *1539:Z O *D gf180mcu_fd_sc_mcu7t5v0__mux2_2
*CAP
1 *1692:D 0.000157559
2 *1539:Z 0.000157559
3 *1692:D *1539:I0 0.000111266
4 *1692:D *1638:A2 0.000252266
5 *1692:D *1775:I 6.56573e-05
6 *1692:D *482:31 7.53241e-05
7 *1692:D *482:70 1.47007e-05
*RES
1 *1539:Z *1692:D 20.128 
*END

*D_NET *66 0.000520145
*CONN
*I *1693:D I *D gf180mcu_fd_sc_mcu7t5v0__dffq_1
*I *1540:Z O *D gf180mcu_fd_sc_mcu7t5v0__mux2_2
*CAP
1 *1693:D 0.000205808
2 *1540:Z 0.000205808
3 *1693:D *1775:I 1.94199e-05
4 *1693:D *483:14 8.91093e-05
*RES
1 *1540:Z *1693:D 10.52 
*END

*D_NET *67 0.000590595
*CONN
*I *1694:D I *D gf180mcu_fd_sc_mcu7t5v0__dffq_1
*I *1541:Z O *D gf180mcu_fd_sc_mcu7t5v0__mux2_2
*CAP
1 *1694:D 0.000132977
2 *1541:Z 0.000132977
3 *1694:D *1541:I1 0.00017019
4 *1694:D *1694:CLK 0
5 *1694:D *484:18 0.000154451
*RES
1 *1541:Z *1694:D 10.216 
*END

*D_NET *68 0.000504246
*CONN
*I *1695:D I *D gf180mcu_fd_sc_mcu7t5v0__dffq_1
*I *1553:ZN O *D gf180mcu_fd_sc_mcu7t5v0__aoi21_1
*CAP
1 *1695:D 4.97007e-05
2 *1553:ZN 4.97007e-05
3 *1695:D *1553:A2 0.000317503
4 *1695:D *1553:B 8.73421e-05
*RES
1 *1553:ZN *1695:D 9.836 
*END

*D_NET *69 0.000360111
*CONN
*I *1696:D I *D gf180mcu_fd_sc_mcu7t5v0__dffq_1
*I *1556:Z O *D gf180mcu_fd_sc_mcu7t5v0__mux2_2
*CAP
1 *1696:D 0.000159365
2 *1556:Z 0.000159365
3 *1696:D *1556:I1 4.1381e-05
4 *1696:D *1703:CLK 0
*RES
1 *1556:Z *1696:D 10.064 
*END

*D_NET *70 0.00108673
*CONN
*I *1697:D I *D gf180mcu_fd_sc_mcu7t5v0__dffq_1
*I *1558:ZN O *D gf180mcu_fd_sc_mcu7t5v0__aoi21_1
*CAP
1 *1697:D 0.000481291
2 *1558:ZN 0.000481291
3 *1697:D *1557:A1 0
4 *1697:D *1557:A2 9.58397e-05
5 *1697:D *1558:A2 2.83071e-05
*RES
1 *1558:ZN *1697:D 21.192 
*END

*D_NET *71 0.00154724
*CONN
*I *1698:D I *D gf180mcu_fd_sc_mcu7t5v0__dffq_1
*I *1560:ZN O *D gf180mcu_fd_sc_mcu7t5v0__aoi21_1
*CAP
1 *1698:D 0.000509288
2 *1560:ZN 0.000509288
3 *1698:D *1366:I 0.00010166
4 *1698:D *1558:B 0.000171286
5 *1698:D *127:10 0
6 *1698:D *270:40 0
7 *1698:D *390:18 0.000255714
*RES
1 *1560:ZN *1698:D 21.572 
*END

*D_NET *72 0.000300575
*CONN
*I *1699:D I *D gf180mcu_fd_sc_mcu7t5v0__dffq_1
*I *1572:ZN O *D gf180mcu_fd_sc_mcu7t5v0__aoi21_1
*CAP
1 *1699:D 0.000119207
2 *1572:ZN 0.000119207
3 *1699:D *1571:A1 4.71447e-05
4 *1699:D *1572:A1 1.5015e-05
*RES
1 *1572:ZN *1699:D 9.836 
*END

*D_NET *73 0.000858254
*CONN
*I *1700:D I *D gf180mcu_fd_sc_mcu7t5v0__dffq_1
*I *1577:ZN O *D gf180mcu_fd_sc_mcu7t5v0__aoi211_1
*CAP
1 *1700:D 0.000256492
2 *1577:ZN 0.000256492
3 *1700:D *1529:A1 0
4 *1700:D *1576:A2 8.07935e-05
5 *1700:D *1577:C 0.000105415
6 *1700:D *1782:I 0.000159061
7 *1700:D *400:10 0
*RES
1 *1577:ZN *1700:D 11.052 
*END

*D_NET *74 0.000410991
*CONN
*I *1701:D I *D gf180mcu_fd_sc_mcu7t5v0__dffq_1
*I *1582:ZN O *D gf180mcu_fd_sc_mcu7t5v0__aoi21_1
*CAP
1 *1701:D 3.64036e-05
2 *1582:ZN 3.64036e-05
3 *1701:D *1582:A1 0.00026286
4 *1701:D *1582:A2 7.53241e-05
*RES
1 *1582:ZN *1701:D 9.684 
*END

*D_NET *75 0.00132193
*CONN
*I *1702:D I *D gf180mcu_fd_sc_mcu7t5v0__dffq_1
*I *1586:ZN O *D gf180mcu_fd_sc_mcu7t5v0__aoi21_1
*CAP
1 *1702:D 0.000372639
2 *1586:ZN 0.000372639
3 *1702:D *1552:A2 0
4 *1702:D *1586:A1 6.75633e-05
5 *1702:D *1586:B 6.25613e-05
6 *1702:D *415:8 8.55242e-05
7 *1702:D *415:27 0.000361006
*RES
1 *1586:ZN *1702:D 11.964 
*END

*D_NET *76 0.00138546
*CONN
*I *1703:D I *D gf180mcu_fd_sc_mcu7t5v0__dffq_1
*I *1589:ZN O *D gf180mcu_fd_sc_mcu7t5v0__aoi211_1
*CAP
1 *1703:D 0.000221642
2 *1589:ZN 0.000221642
3 *1703:D *1589:B 8.55327e-05
4 *1703:D *1828:I 0.000203409
5 *1703:D *270:32 3.25235e-05
6 *1703:D *270:40 0.000199864
7 *1703:D *303:26 3.73535e-05
8 *1703:D *303:32 2.74753e-05
9 *1703:D *448:10 0.000356013
*RES
1 *1589:ZN *1703:D 11.66 
*END

*D_NET *77 0.00117286
*CONN
*I *1704:D I *D gf180mcu_fd_sc_mcu7t5v0__dffq_1
*I *1594:ZN O *D gf180mcu_fd_sc_mcu7t5v0__aoi21_1
*CAP
1 *1704:D 0.000343445
2 *1594:ZN 0.000343445
3 *1704:D *1580:A2 0.000149579
4 *1704:D *1582:A1 5.23469e-05
5 *1704:D *1582:A2 0.000192519
6 *1704:D *1594:A2 2.17248e-05
7 *1704:D *397:30 6.97952e-05
*RES
1 *1594:ZN *1704:D 21.04 
*END

*D_NET *78 0.00265404
*CONN
*I *1705:D I *D gf180mcu_fd_sc_mcu7t5v0__dffq_1
*I *1596:Z O *D gf180mcu_fd_sc_mcu7t5v0__mux2_2
*CAP
1 *1705:D 0.000536463
2 *1596:Z 0.000536463
3 *1705:D *1596:I1 0
4 *1705:D *1707:CLK 4.07337e-05
5 *1705:D *1810:I 0.000644146
6 *1705:D *140:20 0.000146817
7 *1705:D *407:16 0.000287801
8 *1705:D *464:8 0.000461616
*RES
1 *1596:Z *1705:D 23.852 
*END

*D_NET *79 0.00110426
*CONN
*I *1706:D I *D gf180mcu_fd_sc_mcu7t5v0__dffq_1
*I *1597:Z O *D gf180mcu_fd_sc_mcu7t5v0__mux2_2
*CAP
1 *1706:D 0.000170108
2 *1597:Z 0.000170108
3 *1706:D *1707:CLK 0.000239827
4 *1706:D *1781:I 0
5 *1706:D *140:12 0.000285856
6 *1706:D *381:43 9.54497e-05
7 *1706:D *467:86 0.000142908
*RES
1 *1597:Z *1706:D 20.128 
*END

*D_NET *80 0.000553892
*CONN
*I *1707:D I *D gf180mcu_fd_sc_mcu7t5v0__dffq_1
*I *1598:Z O *D gf180mcu_fd_sc_mcu7t5v0__mux2_2
*CAP
1 *1707:D 0.000124826
2 *1598:Z 0.000124826
3 *1707:D *316:23 4.1381e-05
4 *1707:D *381:12 0.00026286
*RES
1 *1598:Z *1707:D 10.216 
*END

*D_NET *81 0.00116677
*CONN
*I *1708:D I *D gf180mcu_fd_sc_mcu7t5v0__dffq_1
*I *1599:Z O *D gf180mcu_fd_sc_mcu7t5v0__mux2_2
*CAP
1 *1708:D 0.000221265
2 *1599:Z 0.000221265
3 *1708:D *1709:CLK 7.71175e-06
4 *1708:D *272:12 0.000601724
5 *1708:D *402:10 2.74753e-05
6 *1708:D *402:16 0
7 *1708:D *402:34 8.7332e-05
*RES
1 *1599:Z *1708:D 11.28 
*END

*D_NET *82 0.00231646
*CONN
*I *1709:D I *D gf180mcu_fd_sc_mcu7t5v0__dffq_1
*I *1600:Z O *D gf180mcu_fd_sc_mcu7t5v0__mux2_2
*CAP
1 *1709:D 0.000185516
2 *1600:Z 0.000185516
3 *1709:D *1599:S 0.000848846
4 *1709:D *1600:I1 1.10583e-05
5 *1709:D *383:6 0.000360235
6 *1709:D *383:10 0.000725285
*RES
1 *1600:Z *1709:D 12.344 
*END

*D_NET *83 0.00173393
*CONN
*I *1710:D I *D gf180mcu_fd_sc_mcu7t5v0__dffq_1
*I *1601:Z O *D gf180mcu_fd_sc_mcu7t5v0__mux2_2
*CAP
1 *1710:D 0.000426344
2 *1601:Z 0.000426344
3 *1710:D *1521:A2 1.18004e-05
4 *1710:D *1601:S 0
5 *1710:D *1781:I 7.04427e-05
6 *1710:D *386:12 0.000401427
7 *1710:D *467:86 0.000397575
*RES
1 *1601:Z *1710:D 22.56 
*END

*D_NET *84 0.00150183
*CONN
*I *1711:D I *D gf180mcu_fd_sc_mcu7t5v0__dffq_1
*I *1602:Z O *D gf180mcu_fd_sc_mcu7t5v0__mux2_2
*CAP
1 *1711:D 0.000184571
2 *1602:Z 0.000184571
3 *1711:D *140:20 0.000535844
4 *1711:D *387:12 0.000285856
5 *1711:D *467:86 0.000310982
*RES
1 *1602:Z *1711:D 21.572 
*END

*D_NET *85 0.000700932
*CONN
*I *1712:D I *D gf180mcu_fd_sc_mcu7t5v0__dffq_1
*I *1603:Z O *D gf180mcu_fd_sc_mcu7t5v0__mux2_2
*CAP
1 *1712:D 0.000290048
2 *1603:Z 0.000290048
3 *1712:D *1603:I1 4.6818e-05
4 *1712:D *140:20 7.40175e-05
*RES
1 *1603:Z *1712:D 20.128 
*END

*D_NET *86 0.000803533
*CONN
*I *1713:D I *D gf180mcu_fd_sc_mcu7t5v0__dffq_1
*I *1604:Z O *D gf180mcu_fd_sc_mcu7t5v0__and2_1
*CAP
1 *1713:D 0.000381877
2 *1604:Z 0.000381877
3 *1713:D *262:10 0
4 *1713:D *409:18 2.43241e-05
5 *1713:D *411:16 0
6 *1713:D *464:10 0
7 *1713:D *487:22 1.54542e-05
*RES
1 *1604:Z *1713:D 20.432 
*END

*D_NET *87 0.000251743
*CONN
*I *1714:D I *D gf180mcu_fd_sc_mcu7t5v0__dffq_1
*I *1605:Z O *D gf180mcu_fd_sc_mcu7t5v0__and2_1
*CAP
1 *1714:D 9.60865e-05
2 *1605:Z 9.60865e-05
3 *1714:D *1605:A1 4.1381e-05
4 *1714:D *400:16 1.81888e-05
*RES
1 *1605:Z *1714:D 9.684 
*END

*D_NET *88 0.000780827
*CONN
*I *1715:D I *D gf180mcu_fd_sc_mcu7t5v0__dffq_1
*I *1606:ZN O *D gf180mcu_fd_sc_mcu7t5v0__nor2_1
*CAP
1 *1715:D 0.000301067
2 *1606:ZN 0.000301067
3 *1715:D *1715:CLK 0
4 *1715:D *401:31 0.000170431
5 *1715:D *419:18 8.26254e-06
*RES
1 *1606:ZN *1715:D 20.128 
*END

*D_NET *89 0.000356873
*CONN
*I *1716:D I *D gf180mcu_fd_sc_mcu7t5v0__dffq_1
*I *1607:Z O *D gf180mcu_fd_sc_mcu7t5v0__and2_1
*CAP
1 *1716:D 0.000178436
2 *1607:Z 0.000178436
*RES
1 *1607:Z *1716:D 10.064 
*END

*D_NET *90 0.00257212
*CONN
*I *1717:D I *D gf180mcu_fd_sc_mcu7t5v0__dffq_1
*I *1611:ZN O *D gf180mcu_fd_sc_mcu7t5v0__nor2_1
*CAP
1 *1717:D 0.000409654
2 *1611:ZN 0.000409654
3 *1717:D *1610:B2 0.000580759
4 *1717:D *1617:A2 0.00108653
5 *1717:D *1836:I 8.55242e-05
6 *1717:D *367:12 0
7 *1717:D *468:6 0
*RES
1 *1611:ZN *1717:D 22.408 
*END

*D_NET *91 0.00660588
*CONN
*I *1718:D I *D gf180mcu_fd_sc_mcu7t5v0__dffq_1
*I *1613:ZN O *D gf180mcu_fd_sc_mcu7t5v0__nor2_1
*CAP
1 *1718:D 0.000736361
2 *1613:ZN 0.000736361
3 *1718:D *1391:A1 0.000105256
4 *1718:D *1457:A1 1.38226e-05
5 *1718:D *1457:A3 2.303e-05
6 *1718:D *1718:CLK 0
7 *1718:D *1772:I 8.82709e-06
8 *1718:D *1797:I 0.000262996
9 *1718:D *1805:I 0.000378272
10 *1718:D *1808:I 0
11 *1718:D *1838:I 7.24161e-06
12 *1718:D *191:46 8.22908e-06
13 *1718:D *208:16 0.000144
14 *1718:D *391:15 0.000689391
15 *1718:D *453:46 4.16285e-05
16 *1718:D *460:66 0.000649046
17 *1718:D *465:12 0.00144659
18 *1718:D *466:51 3.8206e-05
19 *1718:D *466:57 0.00130471
20 *1718:D *468:101 1.12136e-05
21 *1812:I *1718:D 6.9337e-07
*RES
1 *1613:ZN *1718:D 28.716 
*END

*D_NET *92 0.00207503
*CONN
*I *1719:D I *D gf180mcu_fd_sc_mcu7t5v0__dffq_1
*I *1615:ZN O *D gf180mcu_fd_sc_mcu7t5v0__nor2_1
*CAP
1 *1719:D 0.000766259
2 *1615:ZN 0.000766259
3 *1719:D *1615:A2 0.000201286
4 *1719:D *1717:CLK 7.59678e-05
5 *1719:D *1719:CLK 1.43742e-05
6 *1719:D *1808:I 0.00012363
7 *1719:D *422:8 0.000127259
*RES
1 *1615:ZN *1719:D 14.168 
*END

*D_NET *93 0.00111819
*CONN
*I *1720:D I *D gf180mcu_fd_sc_mcu7t5v0__dffq_1
*I *1617:ZN O *D gf180mcu_fd_sc_mcu7t5v0__nor2_1
*CAP
1 *1720:D 0.000264826
2 *1617:ZN 0.000264826
3 *1720:D *1617:A2 0.00018402
4 *1720:D *1800:I 6.22405e-05
5 *1720:D *1841:I 2.73945e-05
6 ADDR_O[1] *1720:D 1.59317e-05
7 ADDR_O[2] *1720:D 0.000298951
*RES
1 *1617:ZN *1720:D 20.508 
*END

*D_NET *94 0.00246186
*CONN
*I *1721:D I *D gf180mcu_fd_sc_mcu7t5v0__dffq_1
*I *1619:ZN O *D gf180mcu_fd_sc_mcu7t5v0__nor2_1
*CAP
1 *1721:D 0.000868177
2 *1619:ZN 0.000868177
3 *1721:D *1619:A2 0.000315763
4 *1721:D *1620:B2 4.01364e-05
5 *1721:D *1840:I 6.31437e-06
6 *1721:D *1841:I 0.000118459
7 *1721:D *453:16 0.000244828
*RES
1 *1619:ZN *1721:D 15.536 
*END

*D_NET *95 0.00464198
*CONN
*I *1722:D I *D gf180mcu_fd_sc_mcu7t5v0__dffq_1
*I *1621:ZN O *D gf180mcu_fd_sc_mcu7t5v0__nor2_1
*CAP
1 *1722:D 0.000535393
2 *1621:ZN 0.000535393
3 *1722:D *1618:A1 0.000953823
4 *1722:D *1621:A1 0.000476632
5 *1722:D *1623:A2 0
6 *1722:D *1643:A2 0.000271291
7 *1722:D *1772:I 0.000363338
8 *1722:D *1773:I 0.000138537
9 *1722:D *1843:I 0
10 *1722:D *148:12 0.000719681
11 *1722:D *216:14 0
12 *1722:D *318:10 6.84759e-05
13 *1722:D *427:12 0
14 *1722:D *466:18 0.00025099
15 *1722:D *466:97 0.000248576
16 ADDR_O[6] *1722:D 7.98466e-05
*RES
1 *1621:ZN *1722:D 25.6 
*END

*D_NET *96 0.00337106
*CONN
*I *1723:D I *D gf180mcu_fd_sc_mcu7t5v0__dffq_1
*I *1623:ZN O *D gf180mcu_fd_sc_mcu7t5v0__nor2_1
*CAP
1 *1723:D 0.000421622
2 *1623:ZN 0.000421622
3 *1723:D *1468:B 8.38447e-05
4 *1723:D *1620:A1 0
5 *1723:D *1623:A2 0.00119252
6 *1723:D *1675:A2 0
7 *1723:D *1724:CLK 0
8 *1723:D *1772:I 0
9 *1723:D *160:14 0.000288839
10 *1723:D *208:31 1.59984e-05
11 *1723:D *369:22 0.000324233
12 *1723:D *427:12 0.000622387
*RES
1 *1623:ZN *1723:D 23.548 
*END

*D_NET *97 0.00237215
*CONN
*I *1724:D I *D gf180mcu_fd_sc_mcu7t5v0__dffq_1
*I *1625:ZN O *D gf180mcu_fd_sc_mcu7t5v0__nor2_1
*CAP
1 *1724:D 0.000550655
2 *1625:ZN 0.000550655
3 *1724:D *1643:A1 5.27305e-05
4 *1724:D *1643:B 0.000540471
5 *1724:D *1644:A2 9.87258e-05
6 *1724:D *1671:A2 0
7 *1724:D *1679:A2 1.98468e-05
8 *1724:D *1683:A2 9.13298e-05
9 *1724:D *1733:D 1.28891e-05
10 *1724:D *371:12 0.000105405
11 *1724:D *466:97 0.000349441
12 ADDR_O[6] *1724:D 0
*RES
1 *1625:ZN *1724:D 23.244 
*END

*D_NET *98 0.00185818
*CONN
*I *1725:D I *D gf180mcu_fd_sc_mcu7t5v0__dffq_1
*I *1628:ZN O *D gf180mcu_fd_sc_mcu7t5v0__nor2_1
*CAP
1 *1725:D 0.000137766
2 *1628:ZN 0.000137766
3 *1725:D *1418:A2 0.000387757
4 *1725:D *1628:A1 0.000108498
5 *1725:D *1726:D 0.000844356
6 *1725:D *467:14 0.000242033
*RES
1 *1628:ZN *1725:D 20.812 
*END

*D_NET *99 0.00382356
*CONN
*I *1726:D I *D gf180mcu_fd_sc_mcu7t5v0__dffq_1
*I *1630:ZN O *D gf180mcu_fd_sc_mcu7t5v0__nor2_1
*CAP
1 *1726:D 0.000661724
2 *1630:ZN 0.000661724
3 *1726:D *1425:A2 0.00030449
4 *1726:D *1429:A2 0.000110054
5 *1726:D *1628:A1 8.62813e-05
6 *1726:D *1629:A2 3.2711e-05
7 *1726:D *1776:I 6.56979e-06
8 *1726:D *1807:I 0.000213224
9 *1726:D *1846:I 8.17308e-05
10 *1726:D *160:72 0.00042002
11 *1726:D *389:242 0.000239651
12 *1726:D *430:25 1.27163e-05
13 *1726:D *467:14 0.000148309
14 *1725:D *1726:D 0.000844356
*RES
1 *1630:ZN *1726:D 25.676 
*END

*D_NET *100 0.000657598
*CONN
*I *1727:D I *D gf180mcu_fd_sc_mcu7t5v0__dffq_1
*I *1632:ZN O *D gf180mcu_fd_sc_mcu7t5v0__nor2_1
*CAP
1 *1727:D 0.000222899
2 *1632:ZN 0.000222899
3 *1727:D *1631:B1 0
4 *1727:D *1631:B2 9.62572e-05
5 *1727:D *1632:A2 3.38648e-05
6 *1727:D *454:8 3.0934e-05
7 *1727:D *454:25 5.07443e-05
*RES
1 *1632:ZN *1727:D 19.748 
*END

*D_NET *101 0.00301199
*CONN
*I *1728:D I *D gf180mcu_fd_sc_mcu7t5v0__dffq_1
*I *1634:ZN O *D gf180mcu_fd_sc_mcu7t5v0__nor2_1
*CAP
1 *1728:D 0.000473852
2 *1634:ZN 0.000473852
3 *1728:D *1633:A1 3.48261e-05
4 *1728:D *1633:A2 7.83779e-05
5 *1728:D *1633:B1 0
6 *1728:D *1634:A2 0.000246185
7 *1728:D *1729:CLK 0.000451288
8 *1728:D *1774:I 2.72748e-05
9 *1728:D *1849:I 0.000279801
10 *1728:D *395:31 0.000206325
11 *1728:D *396:12 9.60894e-06
12 *1728:D *417:14 0.000246139
13 *1728:D *435:8 1.97747e-05
14 *1728:D *454:57 2.9378e-06
15 *1728:D *458:19 2.01461e-05
16 *1728:D *458:34 0.000167459
17 *1728:D *467:65 0.000229423
18 *1728:D *467:80 4.47127e-05
*RES
1 *1634:ZN *1728:D 23.7 
*END

*D_NET *102 0.00372065
*CONN
*I *1729:D I *D gf180mcu_fd_sc_mcu7t5v0__dffq_1
*I *1636:ZN O *D gf180mcu_fd_sc_mcu7t5v0__nor2_1
*CAP
1 *1729:D 0.000718712
2 *1636:ZN 0.000718712
3 *1729:D *1636:A1 0.000475727
4 *1729:D *1637:A1 3.91889e-05
5 *1729:D *1637:B1 1.6003e-05
6 *1729:D *1639:A1 0.000317455
7 *1729:D *1639:B2 2.74753e-05
8 *1729:D *1640:A2 1.32333e-05
9 *1729:D *1730:D 0.000155108
10 *1729:D *1848:I 0.000149579
11 *1729:D *396:21 0.000135062
12 *1729:D *396:23 3.35674e-05
13 *1729:D *396:58 0.000233061
14 *1729:D *417:14 2.60089e-05
15 *1729:D *430:25 0.000197929
16 *1729:D *436:10 2.45791e-05
17 *1729:D *437:10 0.000103757
18 *1729:D *467:80 0.000140658
19 *1729:D *483:12 2.96621e-05
20 DAT_O[3] *1729:D 9.67157e-05
21 DAT_O[5] *1729:D 0
22 DAT_O[6] *1729:D 6.84521e-05
*RES
1 *1636:ZN *1729:D 26.284 
*END

*D_NET *103 0.00239517
*CONN
*I *1730:D I *D gf180mcu_fd_sc_mcu7t5v0__dffq_1
*I *1638:ZN O *D gf180mcu_fd_sc_mcu7t5v0__nor2_1
*CAP
1 *1730:D 0.00046215
2 *1638:ZN 0.00046215
3 *1730:D *1539:S 1.5961e-05
4 *1730:D *1637:A1 0.000396912
5 *1730:D *1637:B2 0.000136399
6 *1730:D *1638:A2 2.41188e-05
7 *1730:D *444:37 0.000388757
8 *1730:D *467:80 3.51772e-05
9 *1730:D *467:86 8.83393e-05
10 *1730:D *482:70 0.000230094
11 *1729:D *1730:D 0.000155108
*RES
1 *1638:ZN *1730:D 23.7 
*END

*D_NET *104 0.00134283
*CONN
*I *1731:D I *D gf180mcu_fd_sc_mcu7t5v0__dffq_1
*I *1640:ZN O *D gf180mcu_fd_sc_mcu7t5v0__nor2_1
*CAP
1 *1731:D 0.00038075
2 *1640:ZN 0.00038075
3 *1731:D *1639:A1 0
4 *1731:D *1639:B2 9.45209e-05
5 *1731:D *1640:A2 0.000102056
6 *1731:D *1641:A2 1.18942e-05
7 *1731:D *1641:B1 0.000158342
8 *1731:D *1642:A2 0
9 *1731:D *1645:B 6.49038e-05
10 *1731:D *457:19 0.000140973
11 *1731:D *483:12 8.64281e-06
*RES
1 *1640:ZN *1731:D 21.724 
*END

*D_NET *105 0.0015365
*CONN
*I *1732:D I *D gf180mcu_fd_sc_mcu7t5v0__dffq_1
*I *1642:ZN O *D gf180mcu_fd_sc_mcu7t5v0__nor2_1
*CAP
1 *1732:D 0.000553216
2 *1642:ZN 0.000553216
3 *1732:D *1646:A1 9.26705e-05
4 *1732:D *1646:A2 0.000155976
5 *1732:D *1734:D 0.000181421
6 *1732:D *1734:CLK 0
7 *1732:D *1769:I 0
8 *1732:D *1853:I 0
9 WE_O *1732:D 0
*RES
1 *1642:ZN *1732:D 21.572 
*END

*D_NET *106 0.000965563
*CONN
*I *1733:D I *D gf180mcu_fd_sc_mcu7t5v0__dffq_1
*I *1644:ZN O *D gf180mcu_fd_sc_mcu7t5v0__nor2_1
*CAP
1 *1733:D 0.000156216
2 *1644:ZN 0.000156216
3 *1733:D *1643:A1 0.000142809
4 *1733:D *1644:A2 0.000380229
5 *1733:D *370:16 0.000117203
6 *1733:D *371:12 0
7 *1724:D *1733:D 1.28891e-05
*RES
1 *1644:ZN *1733:D 19.748 
*END

*D_NET *107 0.000927057
*CONN
*I *1734:D I *D gf180mcu_fd_sc_mcu7t5v0__dffq_1
*I *1646:ZN O *D gf180mcu_fd_sc_mcu7t5v0__nor2_1
*CAP
1 *1734:D 0.000310586
2 *1646:ZN 0.000310586
3 *1734:D *1646:A1 6.50663e-05
4 *1734:D *1734:CLK 5.93977e-05
5 *1734:D *396:31 0
6 *1732:D *1734:D 0.000181421
*RES
1 *1646:ZN *1734:D 11.356 
*END

*D_NET *108 0.00144221
*CONN
*I *1735:D I *D gf180mcu_fd_sc_mcu7t5v0__dffq_1
*I *1650:ZN O *D gf180mcu_fd_sc_mcu7t5v0__aoi21_1
*CAP
1 *1735:D 0.000101623
2 *1650:ZN 0.000101623
3 *1735:D *1423:I1 0.000326528
4 *1735:D *1447:A1 0.000476657
5 *1735:D *169:27 3.07734e-05
6 *1735:D *338:39 2.6126e-05
7 *1735:D *389:13 0.00015539
8 *1735:D *477:22 0.000223494
*RES
1 *1650:ZN *1735:D 20.356 
*END

*D_NET *109 0.00147842
*CONN
*I *1736:D I *D gf180mcu_fd_sc_mcu7t5v0__dffq_1
*I *1652:ZN O *D gf180mcu_fd_sc_mcu7t5v0__oai211_1
*CAP
1 *1736:D 0.000388486
2 *1652:ZN 0.000388486
3 *1736:D *1427:I1 0
4 *1736:D *1447:A1 3.08902e-05
5 *1736:D *1652:B 2.23385e-05
6 *1736:D *121:12 0.000337278
7 *1736:D *339:29 0.000307966
8 *1736:D *445:10 2.97354e-06
9 *1736:D *477:10 0
10 *1736:D *477:44 0
*RES
1 *1652:ZN *1736:D 21.04 
*END

*D_NET *110 0.00197029
*CONN
*I *1737:D I *D gf180mcu_fd_sc_mcu7t5v0__dffq_1
*I *1655:ZN O *D gf180mcu_fd_sc_mcu7t5v0__nor2_1
*CAP
1 *1737:D 0.000256229
2 *1655:ZN 0.000256229
3 *1737:D *1654:A2 0.000451288
4 *1737:D *1655:A1 4.15401e-05
5 *1737:D *1655:A2 0.000134113
6 *1737:D *272:23 0.000236296
7 *1737:D *338:52 2.22758e-05
8 *1737:D *338:69 2.32826e-05
9 *1737:D *339:57 0
10 *1737:D *464:86 0.000340241
11 *1737:D *464:96 0.000208791
*RES
1 *1655:ZN *1737:D 21.192 
*END

*D_NET *111 0.00072516
*CONN
*I *1738:D I *D gf180mcu_fd_sc_mcu7t5v0__dffq_1
*I *1658:ZN O *D gf180mcu_fd_sc_mcu7t5v0__nand3_1
*CAP
1 *1738:D 0.000183486
2 *1658:ZN 0.000183486
3 *1738:D *1428:B2 0.000255722
4 *1738:D *1657:A1 0
5 *1738:D *1658:A3 3.5621e-05
6 *1738:D *1682:B2 6.68441e-05
7 *1738:D *1737:CLK 0
*RES
1 *1658:ZN *1738:D 19.672 
*END

*D_NET *112 0.00148283
*CONN
*I *1739:D I *D gf180mcu_fd_sc_mcu7t5v0__dffq_1
*I *1660:ZN O *D gf180mcu_fd_sc_mcu7t5v0__aoi21_1
*CAP
1 *1739:D 9.90628e-05
2 *1660:ZN 9.90628e-05
3 *1739:D *1428:B2 8.06117e-05
4 *1739:D *1659:A2 1.03271e-05
5 *1739:D *1660:A1 0.000576057
6 *1739:D *272:23 0.000308952
7 *1739:D *484:41 0.000308754
*RES
1 *1660:ZN *1739:D 20.432 
*END

*D_NET *113 0.00188012
*CONN
*I *1740:D I *D gf180mcu_fd_sc_mcu7t5v0__dffq_1
*I *1663:ZN O *D gf180mcu_fd_sc_mcu7t5v0__nand3_1
*CAP
1 *1740:D 0.00037587
2 *1663:ZN 0.00037587
3 *1740:D *1424:B2 2.25107e-05
4 *1740:D *1428:B2 0.000111039
5 *1740:D *1662:A1 0.000129958
6 *1740:D *1663:A1 1.02578e-05
7 *1740:D *1664:A2 0.000147313
8 *1740:D *1667:A1 0.000142809
9 *1740:D *1667:A2 0.00032652
10 *1740:D *1668:A1 0.000141627
11 *1740:D *1668:A2 8.03447e-05
12 *1740:D *1669:A3 0
13 *1740:D *380:25 0
14 *1740:D *451:45 0
15 *1740:D *464:73 1.59984e-05
*RES
1 *1663:ZN *1740:D 21.192 
*END

*D_NET *114 0.000277015
*CONN
*I *1741:D I *D gf180mcu_fd_sc_mcu7t5v0__dffq_1
*I *1666:ZN O *D gf180mcu_fd_sc_mcu7t5v0__nor2_1
*CAP
1 *1741:D 0.00013078
2 *1666:ZN 0.00013078
3 *1741:D *1518:A2 0
4 *1741:D *1664:A1 1.54542e-05
*RES
1 *1666:ZN *1741:D 9.684 
*END

*D_NET *115 0.00116495
*CONN
*I *1742:D I *D gf180mcu_fd_sc_mcu7t5v0__dffq_1
*I *1669:ZN O *D gf180mcu_fd_sc_mcu7t5v0__nand3_1
*CAP
1 *1742:D 0.000289029
2 *1669:ZN 0.000289029
3 *1742:D *1664:A1 0
4 *1742:D *1741:CLK 3.86561e-05
5 *1742:D *1742:CLK 2.63817e-05
6 *1742:D *394:24 0.000432306
7 *1742:D *394:57 2.40328e-06
8 *1742:D *467:86 8.71413e-05
*RES
1 *1669:ZN *1742:D 20.584 
*END

*D_NET *116 0.00140536
*CONN
*I *1743:D I *D gf180mcu_fd_sc_mcu7t5v0__dffq_1
*I *1673:Z O *D gf180mcu_fd_sc_mcu7t5v0__mux2_2
*CAP
1 *1743:D 0.00046225
2 *1673:Z 0.00046225
3 *1743:D *279:14 0
4 *1743:D *399:23 1.02578e-05
5 *1743:D *414:10 2.5879e-05
6 *1743:D *414:14 8.56396e-05
7 *1743:D *414:70 0.000359088
*RES
1 *1673:Z *1743:D 21.952 
*END

*D_NET *117 0.00123065
*CONN
*I *1744:D I *D gf180mcu_fd_sc_mcu7t5v0__dffq_1
*I *1677:Z O *D gf180mcu_fd_sc_mcu7t5v0__mux2_2
*CAP
1 *1744:D 0.000335754
2 *1677:Z 0.000335754
3 *1744:D *269:42 4.24995e-05
4 *1744:D *279:14 8.91093e-05
5 *1744:D *413:64 0.000427531
*RES
1 *1677:Z *1744:D 21.192 
*END

*D_NET *118 0.0018762
*CONN
*I *1745:D I *D gf180mcu_fd_sc_mcu7t5v0__dffq_1
*I *1681:Z O *D gf180mcu_fd_sc_mcu7t5v0__mux2_2
*CAP
1 *1745:D 0.000323474
2 *1681:Z 0.000323474
3 *1745:D *1509:S0 4.29817e-05
4 *1745:D *1511:I3 0.000386421
5 *1745:D *1511:S0 4.31978e-05
6 *1745:D *1513:A2 0.000441055
7 *1745:D *1673:I0 1.5015e-05
8 *1745:D *1677:S 0.000186941
9 *1745:D *1681:S 2.95445e-05
10 *1745:D *389:23 8.40958e-05
*RES
1 *1681:Z *1745:D 21.42 
*END

*D_NET *119 0.00132845
*CONN
*I *1746:D I *D gf180mcu_fd_sc_mcu7t5v0__dffq_1
*I *1685:Z O *D gf180mcu_fd_sc_mcu7t5v0__mux2_2
*CAP
1 *1746:D 0.00015034
2 *1685:Z 0.00015034
3 *1746:D *1677:I1 0.000632728
4 *1746:D *1681:I1 0.000258692
5 *1746:D *1685:I0 9.52854e-05
6 *1746:D *169:27 4.1061e-05
7 *1746:D *492:12 0
*RES
1 *1685:Z *1746:D 20.28 
*END

*D_NET *120 0.00601081
*CONN
*I *1660:A1 I *D gf180mcu_fd_sc_mcu7t5v0__aoi21_1
*I *1462:A1 I *D gf180mcu_fd_sc_mcu7t5v0__oai22_1
*I *1359:ZN O *D gf180mcu_fd_sc_mcu7t5v0__clkinv_1
*CAP
1 *1660:A1 0.000407853
2 *1462:A1 0.00201688
3 *1359:ZN 3.76646e-05
4 *120:10 0.0024624
5 *1462:A1 *1418:A1 0.000359527
6 *1660:A1 *1659:A2 2.49648e-05
7 *1660:A1 *272:23 2.57174e-05
8 *1660:A1 *477:44 4.06314e-05
9 *120:10 *477:44 4.73783e-05
10 *120:10 *478:14 1.17331e-05
11 *1739:D *1660:A1 0.000576057
12 *10:12 *1462:A1 0
*RES
1 *1359:ZN *120:10 13.88 
2 *120:10 *1462:A1 24.976 
3 *120:10 *1660:A1 16.692 
*END

*D_NET *121 0.0112884
*CONN
*I *1652:A1 I *D gf180mcu_fd_sc_mcu7t5v0__oai211_1
*I *1447:A1 I *D gf180mcu_fd_sc_mcu7t5v0__oai221_1
*I *1360:ZN O *D gf180mcu_fd_sc_mcu7t5v0__clkinv_1
*CAP
1 *1652:A1 0
2 *1447:A1 0.00157381
3 *1360:ZN 0.000273481
4 *121:12 0.00184729
5 *1447:A1 *1398:A1 2.96621e-05
6 *1447:A1 *1399:A2 0.000194469
7 *1447:A1 *1399:B 2.79476e-05
8 *1447:A1 *1442:A1 0.000292404
9 *1447:A1 *1447:C 7.81495e-05
10 *1447:A1 *1649:B 0.000510095
11 *1447:A1 *1650:A1 0.000201676
12 *1447:A1 *1650:B 1.09653e-05
13 *1447:A1 *1652:B 3.08902e-05
14 *1447:A1 *152:37 0.00041564
15 *1447:A1 *338:20 0.00224539
16 *1447:A1 *338:39 7.35075e-05
17 *1447:A1 *339:22 0.00137992
18 *1447:A1 *339:29 1.5015e-05
19 *1447:A1 *365:28 2.16282e-05
20 *1447:A1 *365:36 0.000121389
21 *1447:A1 *365:48 0.000113741
22 *1447:A1 *452:8 9.26705e-05
23 *1447:A1 *452:14 0.000371061
24 *1447:A1 *452:55 0.000259918
25 *1447:A1 *477:22 3.08816e-05
26 *121:12 *1427:I1 0
27 *121:12 *1652:B 0.00023197
28 *121:12 *477:44 0
29 *1735:D *1447:A1 0.000476657
30 *1736:D *1447:A1 3.08902e-05
31 *1736:D *121:12 0.000337278
*RES
1 *1360:ZN *121:12 15.628 
2 *121:12 *1447:A1 24.26 
3 *121:12 *1652:A1 4.5 
*END

*D_NET *122 0.00357464
*CONN
*I *1442:A1 I *D gf180mcu_fd_sc_mcu7t5v0__oai211_1
*I *1650:A1 I *D gf180mcu_fd_sc_mcu7t5v0__aoi21_1
*I *1361:ZN O *D gf180mcu_fd_sc_mcu7t5v0__clkinv_1
*CAP
1 *1442:A1 0.000534875
2 *1650:A1 0.000127033
3 *1361:ZN 0
4 *122:4 0.000661908
5 *1442:A1 *1422:B2 0.000327795
6 *1442:A1 *1438:A2 9.74197e-05
7 *1442:A1 *1650:B 0
8 *1442:A1 *150:43 0.000218731
9 *1442:A1 *165:41 6.05381e-05
10 *1442:A1 *365:12 6.5907e-05
11 *1442:A1 *452:14 0.000430575
12 *1650:A1 *1361:I 0.000187632
13 *1650:A1 *1422:B2 5.55793e-05
14 *1650:A1 *1650:B 1.5015e-05
15 *1447:A1 *1442:A1 0.000292404
16 *1447:A1 *1650:A1 0.000201676
17 *1751:D *1442:A1 0.000297547
*RES
1 *1361:ZN *122:4 4.5 
2 *122:4 *1650:A1 6.02 
3 *122:4 *1442:A1 19.58 
*END

*D_NET *123 0.000720879
*CONN
*I *1497:A1 I *D gf180mcu_fd_sc_mcu7t5v0__nor4_1
*I *1505:A1 I *D gf180mcu_fd_sc_mcu7t5v0__nand2_1
*I *1362:ZN O *D gf180mcu_fd_sc_mcu7t5v0__clkinv_1
*CAP
1 *1497:A1 0.000186011
2 *1505:A1 7.08804e-05
3 *1362:ZN 0
4 *123:4 0.000256892
5 *1497:A1 *1362:I 8.55242e-05
6 *1497:A1 *1505:A2 2.30518e-05
7 *1497:A1 *237:8 2.59005e-05
8 *1497:A1 *245:14 1.02823e-05
9 *1505:A1 *1362:I 1.72912e-05
10 *1505:A1 *1505:A2 4.50449e-05
*RES
1 *1362:ZN *123:4 4.5 
2 *123:4 *1505:A1 5.184 
3 *123:4 *1497:A1 5.868 
*END

*D_NET *124 0.00743218
*CONN
*I *1550:A2 I *D gf180mcu_fd_sc_mcu7t5v0__nand4_1
*I *1498:A2 I *D gf180mcu_fd_sc_mcu7t5v0__nand4_1
*I *1588:A1 I *D gf180mcu_fd_sc_mcu7t5v0__nor3_1
*I *1493:A2 I *D gf180mcu_fd_sc_mcu7t5v0__and4_1
*I *1494:A2 I *D gf180mcu_fd_sc_mcu7t5v0__nand4_1
*I *1510:A1 I *D gf180mcu_fd_sc_mcu7t5v0__nand2_1
*I *1363:ZN O *D gf180mcu_fd_sc_mcu7t5v0__clkinv_1
*CAP
1 *1550:A2 0
2 *1498:A2 0
3 *1588:A1 0.000359925
4 *1493:A2 1.08147e-05
5 *1494:A2 5.24245e-05
6 *1510:A1 0.000138958
7 *1363:ZN 8.15672e-05
8 *124:55 0.000480909
9 *124:27 0.000112498
10 *124:25 0.000225137
11 *124:23 0.000223591
12 *124:6 0.000389222
13 *1493:A2 *1494:A3 7.83779e-05
14 *1493:A2 *238:18 7.83779e-05
15 *1494:A2 *1493:A4 0.000193942
16 *1494:A2 *1494:A3 0.000186796
17 *1494:A2 *1527:A2 3.80391e-05
18 *1494:A2 *407:53 8.15645e-05
19 *1494:A2 *416:35 1.11891e-05
20 *1494:A2 *416:52 1.11891e-05
21 *1510:A1 *1513:A2 0.000576041
22 *1510:A1 *1527:A2 0.000151957
23 *1510:A1 *407:53 5.84574e-05
24 *1588:A1 *1498:A1 0.000104577
25 *1588:A1 *1583:A2 8.55242e-05
26 *1588:A1 *1589:A2 4.58601e-06
27 *1588:A1 *125:8 1.46159e-05
28 *1588:A1 *125:14 7.12534e-05
29 *1588:A1 *126:27 4.03922e-06
30 *1588:A1 *126:40 2.69281e-06
31 *1588:A1 *303:26 5.40519e-05
32 *1588:A1 *416:27 0
33 *1588:A1 *416:92 0
34 *124:6 *1552:A2 0.000107848
35 *124:6 *237:8 0.000116355
36 *124:23 *1527:A2 0.000230969
37 *124:23 *1552:A2 4.69752e-05
38 *124:23 *237:8 4.52251e-05
39 *124:23 *407:53 0.000768906
40 *124:25 *1527:A2 6.91851e-05
41 *124:25 *1550:A4 4.47565e-05
42 *124:25 *407:53 0.000369462
43 *124:27 *1527:A2 8.64697e-06
44 *124:27 *1550:A4 5.59457e-05
45 *124:27 *407:53 0.000190317
46 *124:55 *1498:A1 8.54511e-05
47 *124:55 *1527:A2 0
48 *124:55 *1556:S 0.000709344
49 *124:55 *125:8 4.57747e-05
50 *124:55 *238:18 0.000654701
*RES
1 *1363:ZN *124:6 5.488 
2 *124:6 *1510:A1 15.096 
3 *124:6 *124:23 7.084 
4 *124:23 *124:25 0.988 
5 *124:25 *124:27 0.532 
6 *124:27 *1494:A2 9.912 
7 *124:27 *1493:A2 9.228 
8 *124:25 *124:55 11.584 
9 *124:55 *1588:A1 11.432 
10 *124:55 *1498:A2 9 
11 *124:23 *1550:A2 9 
*END

*D_NET *125 0.00250895
*CONN
*I *1498:A3 I *D gf180mcu_fd_sc_mcu7t5v0__nand4_1
*I *1588:A2 I *D gf180mcu_fd_sc_mcu7t5v0__nor3_1
*I *1583:A1 I *D gf180mcu_fd_sc_mcu7t5v0__nor2_1
*I *1364:ZN O *D gf180mcu_fd_sc_mcu7t5v0__clkinv_1
*CAP
1 *1498:A3 7.90638e-05
2 *1588:A2 0
3 *1583:A1 7.83582e-05
4 *1364:ZN 9.71762e-05
5 *125:14 0.000175198
6 *125:8 0.00027308
7 *1498:A3 *1493:A4 0
8 *1498:A3 *1498:A4 8.18373e-05
9 *1498:A3 *1584:A1 0
10 *1498:A3 *232:21 8.18373e-05
11 *1583:A1 *1583:A2 0.000297602
12 *1583:A1 *1584:A1 1.8797e-05
13 *1583:A1 *1588:A3 3.08902e-05
14 *1583:A1 *270:32 1.5015e-05
15 *1583:A1 *303:26 0.000142496
16 *1583:A1 *307:10 4.10312e-05
17 *125:8 *1497:A4 0.000471624
18 *125:14 *1497:A4 0.000251804
19 *125:14 *1583:A2 5.4634e-05
20 *125:14 *1588:A3 8.55242e-05
21 *125:14 *126:40 8.15645e-05
22 *125:14 *303:26 1.97747e-05
23 *1588:A1 *125:8 1.46159e-05
24 *1588:A1 *125:14 7.12534e-05
25 *124:55 *125:8 4.57747e-05
*RES
1 *1364:ZN *125:8 10.292 
2 *125:8 *125:14 5.716 
3 *125:14 *1583:A1 5.792 
4 *125:14 *1588:A2 4.5 
5 *125:8 *1498:A3 9.76 
*END

*D_NET *126 0.00647989
*CONN
*I *1497:A4 I *D gf180mcu_fd_sc_mcu7t5v0__nor4_1
*I *1588:A3 I *D gf180mcu_fd_sc_mcu7t5v0__nor3_1
*I *1583:A2 I *D gf180mcu_fd_sc_mcu7t5v0__nor2_1
*I *1580:A1 I *D gf180mcu_fd_sc_mcu7t5v0__aoi21_1
*I *1365:ZN O *D gf180mcu_fd_sc_mcu7t5v0__clkinv_1
*CAP
1 *1497:A4 0.000160379
2 *1588:A3 5.43763e-06
3 *1583:A2 0.000111089
4 *1580:A1 0.000535332
5 *1365:ZN 0.000179597
6 *126:40 0.000195512
7 *126:27 0.000417693
8 *126:10 0.000991838
9 *1497:A4 *1492:A1 0.000324241
10 *1497:A4 *1497:A3 0.000171927
11 *1497:A4 *1590:A2 0.000192394
12 *1497:A4 *245:14 0.000161672
13 *1580:A1 *1590:A2 4.10444e-05
14 *1580:A1 *1592:B 4.23111e-05
15 *1580:A1 *1593:A1 0.000115382
16 *1580:A1 *1593:B 6.65154e-06
17 *1580:A1 *1594:A2 9.26705e-05
18 *1580:A1 *1855:I 8.55242e-05
19 *1583:A2 *1589:A2 2.67469e-05
20 *1583:A2 *303:26 3.26422e-05
21 *1588:A3 *303:26 8.55242e-05
22 *126:10 *1590:A1 2.6126e-05
23 *126:10 *1590:A2 3.38043e-05
24 *126:10 *1591:A2 7.02212e-06
25 *126:10 *1593:B 2.37091e-05
26 *126:10 *413:40 0.000179116
27 *126:27 *1590:A2 0.000106908
28 *126:27 *1590:B 0.000557818
29 *126:27 *311:8 0.000151957
30 *126:40 *1590:A2 5.19228e-05
31 *1583:A1 *1583:A2 0.000297602
32 *1583:A1 *1588:A3 3.08902e-05
33 *1588:A1 *1583:A2 8.55242e-05
34 *1588:A1 *126:27 4.03922e-06
35 *1588:A1 *126:40 2.69281e-06
36 *125:8 *1497:A4 0.000471624
37 *125:14 *1497:A4 0.000251804
38 *125:14 *1583:A2 5.4634e-05
39 *125:14 *1588:A3 8.55242e-05
40 *125:14 *126:40 8.15645e-05
*RES
1 *1365:ZN *126:10 10.368 
2 *126:10 *1580:A1 12.04 
3 *126:10 *126:27 2.508 
4 *126:27 *1583:A2 10.216 
5 *126:27 *126:40 0.38 
6 *126:40 *1588:A3 9.228 
7 *126:40 *1497:A4 12.04 
*END

*D_NET *127 0.00144607
*CONN
*I *1396:A1 I *D gf180mcu_fd_sc_mcu7t5v0__nand2_1
*I *1560:A1 I *D gf180mcu_fd_sc_mcu7t5v0__aoi21_1
*I *1366:ZN O *D gf180mcu_fd_sc_mcu7t5v0__clkinv_1
*CAP
1 *1396:A1 0
2 *1560:A1 5.78386e-05
3 *1366:ZN 0.000176116
4 *127:10 0.000233954
5 *1560:A1 *1396:A2 0.000340241
6 *1560:A1 *1556:I0 2.47642e-05
7 *1560:A1 *1558:B 0
8 *1560:A1 *1560:A2 0
9 *1560:A1 *1560:B 2.9378e-06
10 *1560:A1 *270:40 0.000279004
11 *127:10 *1366:I 1.5015e-05
12 *127:10 *1558:B 5.29091e-05
13 *127:10 *1560:B 3.83835e-06
14 *127:10 *1703:CLK 0.000214408
15 *127:10 *390:18 4.50449e-05
16 *1698:D *127:10 0
*RES
1 *1366:ZN *127:10 6.4 
2 *127:10 *1560:A1 14.716 
3 *127:10 *1396:A1 4.5 
*END

*D_NET *128 0.000633419
*CONN
*I *1558:A1 I *D gf180mcu_fd_sc_mcu7t5v0__aoi21_1
*I *1367:ZN O *D gf180mcu_fd_sc_mcu7t5v0__clkinv_1
*CAP
1 *1558:A1 0.000287135
2 *1367:ZN 0.000287135
3 *1558:A1 *1558:A2 5.91493e-05
*RES
1 *1367:ZN *1558:A1 10.824 
*END

*D_NET *129 0.00204985
*CONN
*I *1608:A1 I *D gf180mcu_fd_sc_mcu7t5v0__nand2_1
*I *1609:A1 I *D gf180mcu_fd_sc_mcu7t5v0__aoi21_1
*I *1368:ZN O *D gf180mcu_fd_sc_mcu7t5v0__clkinv_1
*CAP
1 *1608:A1 6.14383e-05
2 *1609:A1 0.000424575
3 *1368:ZN 0
4 *129:4 0.000486013
5 *1608:A1 *1412:A2 1.81888e-05
6 *1608:A1 *462:16 0.000255722
7 *1609:A1 *1643:A2 0.000589368
8 *1609:A1 *148:12 1.4379e-05
9 *1609:A1 *462:10 1.54907e-05
10 *1609:A1 *462:42 4.58242e-05
11 *1609:A1 *462:57 0.000138853
*RES
1 *1368:ZN *129:4 4.5 
2 *129:4 *1609:A1 17.072 
3 *129:4 *1608:A1 5.184 
*END

*D_NET *130 0.00118222
*CONN
*I *1482:A1 I *D gf180mcu_fd_sc_mcu7t5v0__oai32_1
*I *1481:A1 I *D gf180mcu_fd_sc_mcu7t5v0__nor2_1
*I *1369:ZN O *D gf180mcu_fd_sc_mcu7t5v0__clkinv_1
*CAP
1 *1482:A1 0.00015898
2 *1481:A1 0.000177302
3 *1369:ZN 7.35684e-05
4 *130:6 0.000409851
5 *1481:A1 *465:66 6.16135e-05
6 *1481:A1 *499:10 0
7 *1482:A1 *1478:A1 0
8 *1482:A1 *465:66 0.000204231
9 *130:6 *1369:I 9.66692e-05
*RES
1 *1369:ZN *130:6 5.184 
2 *130:6 *1481:A1 5.716 
3 *130:6 *1482:A1 5.64 
*END

*D_NET *131 0.00193066
*CONN
*I *1480:A1 I *D gf180mcu_fd_sc_mcu7t5v0__oai33_1
*I *1478:A1 I *D gf180mcu_fd_sc_mcu7t5v0__nor2_1
*I *1370:ZN O *D gf180mcu_fd_sc_mcu7t5v0__clkinv_1
*CAP
1 *1480:A1 0.000321032
2 *1478:A1 0.000372183
3 *1370:ZN 5.49088e-05
4 *131:8 0.000748124
5 *1478:A1 *1370:I 3.00299e-05
6 *1478:A1 *1482:B1 0
7 *1478:A1 *465:54 0
8 *1478:A1 *465:66 4.47747e-05
9 *1480:A1 *1370:I 0
10 *1480:A1 *1482:B1 0.000272623
11 *131:8 *1370:I 8.69862e-05
12 *1482:A1 *1478:A1 0
13 *1760:D *1478:A1 0
*RES
1 *1370:ZN *131:8 4.956 
2 *131:8 *1478:A1 6.856 
3 *131:8 *1480:A1 6.324 
*END

*D_NET *132 0.00303512
*CONN
*I *1386:A1 I *D gf180mcu_fd_sc_mcu7t5v0__nor2_1
*I *1387:A1 I *D gf180mcu_fd_sc_mcu7t5v0__and2_1
*I *1606:A1 I *D gf180mcu_fd_sc_mcu7t5v0__nor2_1
*I *1371:ZN O *D gf180mcu_fd_sc_mcu7t5v0__clkinv_1
*CAP
1 *1386:A1 0
2 *1387:A1 0
3 *1606:A1 0.000365658
4 *1371:ZN 0.000483775
5 *132:16 0.000587548
6 *132:10 0.000705666
7 *1606:A1 *1606:A2 2.22657e-05
8 *1606:A1 *401:20 0
9 *1606:A1 *401:31 4.90495e-05
10 *132:16 *1387:A2 0.000611244
11 *132:16 *1767:CLK 2.23477e-05
12 *132:16 *401:12 0.000151957
13 *132:16 *401:20 0
14 *1767:D *132:16 3.56141e-05
*RES
1 *1371:ZN *132:10 15.704 
2 *132:10 *132:16 6.78 
3 *132:16 *1606:A1 10.976 
4 *132:16 *1387:A1 9 
5 *132:10 *1386:A1 4.5 
*END

*D_NET *133 0.00151242
*CONN
*I *1561:A1 I *D gf180mcu_fd_sc_mcu7t5v0__oai211_1
*I *1504:A2 I *D gf180mcu_fd_sc_mcu7t5v0__nor2_1
*I *1372:ZN O *D gf180mcu_fd_sc_mcu7t5v0__clkinv_1
*CAP
1 *1561:A1 8.22735e-05
2 *1504:A2 6.46578e-05
3 *1372:ZN 0.000155674
4 *133:8 0.000302606
5 *1504:A2 *238:18 0.00011955
6 *1504:A2 *245:50 0.00026286
7 *1504:A2 *245:54 0.000144303
8 *1504:A2 *487:22 5.76373e-06
9 *1504:A2 *487:32 3.45824e-05
10 *1561:A1 *1567:A2 1.02578e-05
11 *1561:A1 *245:54 0.000140412
12 *1561:A1 *245:67 4.57884e-05
13 *1561:A1 *487:22 4.55848e-05
14 *133:8 *487:22 9.81031e-05
*RES
1 *1372:ZN *133:8 5.412 
2 *133:8 *1504:A2 5.944 
3 *133:8 *1561:A1 5.564 
*END

*D_NET *134 0.00255242
*CONN
*I *1500:A2 I *D gf180mcu_fd_sc_mcu7t5v0__nor2_1
*I *1542:A1 I *D gf180mcu_fd_sc_mcu7t5v0__oai21_1
*I *1564:A1 I *D gf180mcu_fd_sc_mcu7t5v0__oai21_1
*I *1373:ZN O *D gf180mcu_fd_sc_mcu7t5v0__clkinv_1
*CAP
1 *1500:A2 9.01807e-05
2 *1542:A1 7.32886e-05
3 *1564:A1 9.79868e-05
4 *1373:ZN 0.000177096
5 *134:14 0.000318002
6 *134:8 0.000414003
7 *1500:A2 *1548:A3 0.000147305
8 *1500:A2 *236:56 0.000178871
9 *1500:A2 *236:74 0
10 *1500:A2 *459:14 0.000104535
11 *1500:A2 *487:60 0
12 *1542:A1 *1542:A2 3.28468e-05
13 *1542:A1 *1564:B 1.02578e-05
14 *1542:A1 *275:8 0.000134048
15 *1564:A1 *1542:A2 0.000174701
16 *134:8 *1543:A1 7.7608e-05
17 *134:8 *1548:A1 2.14818e-05
18 *134:8 *240:8 0
19 *134:14 *1542:A2 5.76749e-06
20 *134:14 *1543:A1 2.4706e-05
21 *134:14 *1545:A3 0.000333388
22 *134:14 *236:44 8.59214e-05
23 *134:14 *240:8 0
24 *134:14 *275:8 5.04286e-05
*RES
1 *1373:ZN *134:8 10.14 
2 *134:8 *134:14 6.172 
3 *134:14 *1564:A1 5.26 
4 *134:14 *1542:A1 5.108 
5 *134:8 *1500:A2 10.216 
*END

*D_NET *135 0.00508068
*CONN
*I *1502:A1 I *D gf180mcu_fd_sc_mcu7t5v0__nor2_1
*I *1544:A1 I *D gf180mcu_fd_sc_mcu7t5v0__nor3_1
*I *1525:A1 I *D gf180mcu_fd_sc_mcu7t5v0__nand2_1
*I *1495:A1 I *D gf180mcu_fd_sc_mcu7t5v0__nor2_1
*I *1374:ZN O *D gf180mcu_fd_sc_mcu7t5v0__clkinv_1
*CAP
1 *1502:A1 0.000158843
2 *1544:A1 0
3 *1525:A1 4.81664e-05
4 *1495:A1 0.000211995
5 *1374:ZN 0
6 *135:32 0.000379591
7 *135:8 0.000334373
8 *135:6 0.000294959
9 *1495:A1 *1534:I0 0.000126964
10 *1495:A1 *1570:B 1.85388e-05
11 *1495:A1 *1575:A2 1.72912e-05
12 *1495:A1 *244:47 5.37083e-05
13 *1495:A1 *412:18 0.000154756
14 *1502:A1 *1566:A2 0.000353868
15 *1502:A1 *1567:C 4.50449e-05
16 *1502:A1 *244:47 0.000254643
17 *1502:A1 *269:19 0.000123763
18 *1502:A1 *487:22 1.22881e-05
19 *1525:A1 *1523:A2 0.000369763
20 *1525:A1 *412:16 2.05156e-05
21 *1525:A1 *412:18 0.000131651
22 *135:8 *1534:I0 9.90652e-05
23 *135:8 *244:47 4.43093e-05
24 *135:32 *1533:A2 0.000261061
25 *135:32 *1534:I0 0.000266124
26 *135:32 *1567:B 0.000315086
27 *135:32 *239:14 0.000460427
28 *135:32 *244:47 0.000145265
29 *135:32 *271:10 0.000378617
*RES
1 *1374:ZN *135:6 9 
2 *135:6 *135:8 0.684 
3 *135:8 *1495:A1 10.824 
4 *135:8 *1525:A1 9.988 
5 *135:6 *135:32 8.376 
6 *135:32 *1544:A1 4.5 
7 *135:32 *1502:A1 15.78 
*END

*D_NET *136 0.00599437
*CONN
*I *1524:A2 I *D gf180mcu_fd_sc_mcu7t5v0__nor2_1
*I *1495:A2 I *D gf180mcu_fd_sc_mcu7t5v0__nor2_1
*I *1570:A1 I *D gf180mcu_fd_sc_mcu7t5v0__aoi211_1
*I *1590:A1 I *D gf180mcu_fd_sc_mcu7t5v0__aoi21_1
*I *1375:ZN O *D gf180mcu_fd_sc_mcu7t5v0__clkinv_1
*CAP
1 *1524:A2 2.41141e-05
2 *1495:A2 6.79313e-05
3 *1570:A1 9.75998e-05
4 *1590:A1 0.000415856
5 *1375:ZN 0
6 *136:26 0.000211353
7 *136:13 0.000700813
8 *136:4 0.000899762
9 *1495:A2 *1507:A2 0.000165769
10 *1495:A2 *1569:B 7.3227e-05
11 *1495:A2 *1570:B 0.000107522
12 *1495:A2 *264:22 6.817e-05
13 *1524:A2 *1507:B2 1.78691e-06
14 *1524:A2 *264:22 7.3227e-05
15 *1570:A1 *1548:A4 0.000409229
16 *1570:A1 *1570:C 0.000119349
17 *1570:A1 *236:21 0.000278795
18 *1570:A1 *277:14 0.000158809
19 *1590:A1 *1375:I 2.6126e-05
20 *1590:A1 *1579:A2 0
21 *1590:A1 *1579:B 1.10583e-05
22 *1590:A1 *1591:A2 0
23 *1590:A1 *1593:A1 5.01876e-05
24 *1590:A1 *412:32 7.45328e-07
25 *1590:A1 *416:27 0.000379274
26 *136:13 *1375:I 5.94067e-05
27 *136:13 *1496:A1 4.58601e-06
28 *136:13 *1496:A2 2.80796e-05
29 *136:13 *1526:B 6.84574e-06
30 *136:13 *1527:A1 0
31 *136:13 *1527:B 0.000237491
32 *136:13 *1569:B 2.96621e-05
33 *136:13 *1579:B 2.57058e-06
34 *136:13 *264:37 0.000995318
35 *136:13 *412:24 3.99044e-06
36 *136:13 *412:26 4.28179e-05
37 *136:13 *412:32 4.76331e-05
38 *136:26 *1496:A1 2.21417e-05
39 *136:26 *1507:B2 1.33342e-06
40 *136:26 *1569:B 7.75108e-05
41 *136:26 *230:33 0
42 *136:26 *264:22 6.81573e-05
43 *126:10 *1590:A1 2.6126e-05
*RES
1 *1375:ZN *136:4 4.5 
2 *136:4 *1590:A1 7.312 
3 *136:4 *136:13 4.484 
4 *136:13 *1570:A1 15.096 
5 *136:13 *136:26 0.836 
6 *136:26 *1495:A2 14.26 
7 *136:26 *1524:A2 4.728 
*END

*D_NET *137 0.00037501
*CONN
*I *1489:A3 I *D gf180mcu_fd_sc_mcu7t5v0__nand3_1
*I *1376:ZN O *D gf180mcu_fd_sc_mcu7t5v0__clkinv_1
*CAP
1 *1489:A3 0.000139585
2 *1376:ZN 0.000139585
3 *1489:A3 *1376:I 0
4 *1489:A3 *1607:A2 0
5 *1489:A3 *467:98 9.58397e-05
*RES
1 *1376:ZN *1489:A3 10.064 
*END

*D_NET *138 0.00533977
*CONN
*I *1403:A1 I *D gf180mcu_fd_sc_mcu7t5v0__nand2_1
*I *1626:A2 I *D gf180mcu_fd_sc_mcu7t5v0__nor3_1
*I *1410:A1 I *D gf180mcu_fd_sc_mcu7t5v0__nand2_1
*I *1439:A1 I *D gf180mcu_fd_sc_mcu7t5v0__nand4_1
*I *1476:A1 I *D gf180mcu_fd_sc_mcu7t5v0__nand3_1
*I *1377:ZN O *D gf180mcu_fd_sc_mcu7t5v0__clkinv_1
*CAP
1 *1403:A1 0.000172333
2 *1626:A2 0.000195429
3 *1410:A1 0
4 *1439:A1 0
5 *1476:A1 9.36964e-05
6 *1377:ZN 0
7 *138:47 0.000595282
8 *138:34 0.000478278
9 *138:21 0.000448106
10 *138:4 0.000291045
11 *1403:A1 *1422:B2 9.52854e-05
12 *1403:A1 *446:12 4.29636e-06
13 *1403:A1 *463:125 0.000705383
14 *1476:A1 *1377:I 1.97747e-05
15 *1476:A1 *1476:A2 2.57058e-06
16 *1476:A1 *1477:A2 0
17 *1476:A1 *188:18 0.000162981
18 *1476:A1 *389:29 4.97352e-05
19 *1476:A1 *463:103 7.95976e-05
20 *1476:A1 *500:66 9.88736e-06
21 *1476:A1 *502:50 9.17202e-06
22 *1626:A2 *1681:I0 2.88187e-05
23 *1626:A2 *446:12 2.61316e-05
24 *1626:A2 *463:113 4.50449e-05
25 *1626:A2 *491:6 2.17248e-05
26 *138:21 *162:29 3.26598e-05
27 *138:21 *165:41 3.41017e-05
28 *138:21 *188:18 0.000250376
29 *138:21 *188:31 0.000394625
30 *138:34 *1435:A1 0.000203794
31 *138:34 *1438:A2 0
32 *138:34 *1685:S 0
33 *138:34 *165:41 5.35754e-05
34 *138:34 *187:25 0
35 *138:34 *188:31 0.000299332
36 *138:34 *463:113 2.05156e-05
37 *138:47 *1411:A2 2.57058e-06
38 *138:47 *1685:S 1.53658e-05
39 *138:47 *463:113 8.43066e-05
40 *138:47 *463:125 0.00041397
*RES
1 *1377:ZN *138:4 4.5 
2 *138:4 *1476:A1 14.564 
3 *138:4 *138:21 6.096 
4 *138:21 *1439:A1 9 
5 *138:21 *138:34 6.78 
6 *138:34 *1410:A1 4.5 
7 *138:34 *138:47 7.008 
8 *138:47 *1626:A2 10.748 
9 *138:47 *1403:A1 11.052 
*END

*D_NET *139 0.00278419
*CONN
*I *1476:A2 I *D gf180mcu_fd_sc_mcu7t5v0__nand3_1
*I *1439:A2 I *D gf180mcu_fd_sc_mcu7t5v0__nand4_1
*I *1402:A2 I *D gf180mcu_fd_sc_mcu7t5v0__nor2_1
*I *1378:ZN O *D gf180mcu_fd_sc_mcu7t5v0__clkinv_1
*CAP
1 *1476:A2 6.51778e-05
2 *1439:A2 9.10909e-05
3 *1402:A2 0
4 *1378:ZN 4.69377e-05
5 *139:12 0.000201184
6 *139:8 0.000222209
7 *1439:A2 *1402:A1 3.38774e-05
8 *1439:A2 *1802:I 0.000238204
9 *1439:A2 *147:23 0.000108617
10 *1439:A2 *160:14 0.000168624
11 *1439:A2 *463:103 5.44937e-05
12 *1476:A2 *1477:A2 0.000185138
13 *1476:A2 *463:103 9.22116e-06
14 *1476:A2 *500:66 0
15 *139:8 *147:23 0.000172453
16 *139:8 *188:18 0.000378601
17 *139:12 *147:23 0.000251465
18 *139:12 *162:29 8.84331e-05
19 *139:12 *188:18 0.000152452
20 *139:12 *463:103 5.27305e-05
21 *139:12 *500:66 0.000260709
22 *1476:A1 *1476:A2 2.57058e-06
*RES
1 *1378:ZN *139:8 9.988 
2 *139:8 *139:12 1.824 
3 *139:12 *1402:A2 9 
4 *139:12 *1439:A2 10.368 
5 *139:8 *1476:A2 9.532 
*END

*D_NET *140 0.00892383
*CONN
*I *1804:I I *D gf180mcu_fd_sc_mcu7t5v0__dlyb_1
*I *1669:A1 I *D gf180mcu_fd_sc_mcu7t5v0__nand3_1
*I *1665:B I *D gf180mcu_fd_sc_mcu7t5v0__oai21_1
*I *1379:ZN O *D gf180mcu_fd_sc_mcu7t5v0__clkinv_1
*CAP
1 *1804:I 0.000120082
2 *1669:A1 0.000595359
3 *1665:B 4.25854e-05
4 *1379:ZN 0.000353567
5 *140:20 0.001708
6 *140:12 0.00154371
7 *1665:B *1518:A2 4.27813e-05
8 *1665:B *379:10 1.0115e-05
9 *1669:A1 *1518:A2 4.51089e-05
10 *1669:A1 *1664:A1 0
11 *1669:A1 *1664:A2 0
12 *1669:A1 *1666:A1 0.000206852
13 *1669:A1 *1669:A3 1.72912e-05
14 *1669:A1 *1741:CLK 3.62154e-05
15 *1669:A1 *467:86 0.000139718
16 *1804:I *1707:CLK 4.18499e-05
17 *1804:I *1766:CLK 0
18 *1804:I *1810:I 3.10758e-05
19 *140:12 *1707:CLK 8.16104e-05
20 *140:12 *1781:I 0
21 *140:12 *1810:I 8.59438e-05
22 *140:12 *400:59 0
23 *140:12 *467:86 0.00107739
24 *140:20 *1518:A2 0.000229002
25 *140:20 *1596:I0 0.000324233
26 *140:20 *1596:I1 7.96395e-05
27 *140:20 *1707:CLK 2.64666e-05
28 *140:20 *1712:CLK 5.17797e-05
29 *140:20 *387:12 0.000771193
30 *140:20 *403:21 6.15351e-05
31 *140:20 *403:23 0.000128185
32 *140:20 *467:86 3.00084e-05
33 *1705:D *140:20 0.000146817
34 *1706:D *140:12 0.000285856
35 *1711:D *140:20 0.000535844
36 *1712:D *140:20 7.40175e-05
*RES
1 *1379:ZN *140:12 17.452 
2 *140:12 *140:20 15.216 
3 *140:20 *1665:B 9.38 
4 *140:20 *1669:A1 13.56 
5 *140:12 *1804:I 5.336 
*END

*D_NET *141 0.00137886
*CONN
*I *1389:A1 I *D gf180mcu_fd_sc_mcu7t5v0__nand2_1
*I *1388:A1 I *D gf180mcu_fd_sc_mcu7t5v0__and2_1
*I *1480:B2 I *D gf180mcu_fd_sc_mcu7t5v0__oai33_1
*I *1553:A1 I *D gf180mcu_fd_sc_mcu7t5v0__aoi21_1
*I *1380:ZN O *D gf180mcu_fd_sc_mcu7t5v0__clkinv_1
*CAP
1 *1389:A1 3.34897e-05
2 *1388:A1 2.88537e-05
3 *1480:B2 0.000119142
4 *1553:A1 0.000228564
5 *1380:ZN 0
6 *141:19 0.000207831
7 *141:17 0.000208926
8 *141:4 0.000344165
9 *1389:A1 *476:34 3.64183e-05
10 *1480:B2 *1480:B3 8.73421e-05
11 *1553:A1 *1553:A2 1.5015e-05
12 *1553:A1 *1553:B 1.5015e-05
13 *141:19 *1480:B3 1.02578e-05
14 *141:19 *476:34 4.38369e-05
*RES
1 *1380:ZN *141:4 4.5 
2 *141:4 *1553:A1 6.172 
3 *141:4 *141:17 0.76 
4 *141:17 *141:19 0.532 
5 *141:19 *1480:B2 5.336 
6 *141:19 *1388:A1 4.728 
7 *141:17 *1389:A1 4.88 
*END

*D_NET *142 0.00135721
*CONN
*I *1441:A1 I *D gf180mcu_fd_sc_mcu7t5v0__nand2_1
*I *1413:A1 I *D gf180mcu_fd_sc_mcu7t5v0__oai21_1
*I *1392:A1 I *D gf180mcu_fd_sc_mcu7t5v0__or3_1
*I *1381:ZN O *D gf180mcu_fd_sc_mcu7t5v0__clkinv_1
*CAP
1 *1441:A1 5.62618e-05
2 *1413:A1 0
3 *1392:A1 0.00012306
4 *1381:ZN 5.55356e-05
5 *142:21 0.00010286
6 *142:10 0.000225194
7 *1392:A1 *1452:A1 8.06016e-05
8 *1392:A1 *171:8 0
9 *1392:A1 *194:18 8.30769e-05
10 *1441:A1 *171:8 8.07935e-05
11 *1441:A1 *194:18 3.78203e-05
12 *142:10 *152:10 0.000172284
13 *142:10 *152:14 0.000151957
14 *142:10 *365:89 8.08298e-05
15 *142:21 *1452:A1 4.17057e-05
16 *142:21 *171:8 1.5015e-05
17 *142:21 *194:18 5.02133e-05
*RES
1 *1381:ZN *142:10 14.336 
2 *142:10 *1392:A1 5.564 
3 *142:10 *142:21 0.532 
4 *142:21 *1413:A1 4.5 
5 *142:21 *1441:A1 5.032 
*END

*D_NET *143 0.00293437
*CONN
*I *1450:A1 I *D gf180mcu_fd_sc_mcu7t5v0__nand2_1
*I *1393:A2 I *D gf180mcu_fd_sc_mcu7t5v0__and4_1
*I *1394:A2 I *D gf180mcu_fd_sc_mcu7t5v0__nand4_1
*I *1448:A1 I *D gf180mcu_fd_sc_mcu7t5v0__nand3_1
*I *1382:ZN O *D gf180mcu_fd_sc_mcu7t5v0__clkinv_1
*CAP
1 *1450:A1 0.000108024
2 *1393:A2 6.43785e-05
3 *1394:A2 0
4 *1448:A1 4.79409e-05
5 *1382:ZN 3.50343e-05
6 *143:21 0.000166668
7 *143:8 0.000248466
8 *143:6 0.000241294
9 *1393:A2 *1393:A1 1.97747e-05
10 *1393:A2 *1393:A3 0.000175625
11 *1393:A2 *152:10 0.000308699
12 *1393:A2 *366:69 2.23385e-05
13 *1393:A2 *368:20 1.5015e-05
14 *1448:A1 *191:46 0.000155851
15 *1448:A1 *465:44 0.000387765
16 *1450:A1 *1368:I 3.2929e-05
17 *1450:A1 *1443:A2 0.000105033
18 *1450:A1 *1450:A2 2.6126e-05
19 *1450:A1 *197:25 0.000258057
20 *1450:A1 *367:40 1.12959e-05
21 *143:6 *1443:A2 0
22 *143:8 *1368:I 8.01569e-05
23 *143:8 *1443:A2 0.00015507
24 *143:21 *1368:I 5.8992e-05
25 *143:21 *1443:A2 3.48205e-05
26 *143:21 *366:69 1.5015e-05
27 *143:21 *366:71 0.000114958
28 *143:21 *368:20 4.50449e-05
*RES
1 *1382:ZN *143:6 4.728 
2 *143:6 *143:8 0.988 
3 *143:8 *1448:A1 14.488 
4 *143:8 *143:21 0.988 
5 *143:21 *1394:A2 4.5 
6 *143:21 *1393:A2 5.64 
7 *143:6 *1450:A1 5.868 
*END

*D_NET *144 0.000241395
*CONN
*I *1465:A1 I *D gf180mcu_fd_sc_mcu7t5v0__nor3_1
*I *1383:ZN O *D gf180mcu_fd_sc_mcu7t5v0__clkinv_1
*CAP
1 *1465:A1 6.51414e-05
2 *1383:ZN 6.51414e-05
3 *1465:A1 *214:8 0.000105105
4 *1465:A1 *370:32 6.00687e-06
*RES
1 *1383:ZN *1465:A1 9.684 
*END

*D_NET *145 0.00118052
*CONN
*I *1473:A1 I *D gf180mcu_fd_sc_mcu7t5v0__oai32_1
*I *1384:ZN O *D gf180mcu_fd_sc_mcu7t5v0__clkinv_1
*CAP
1 *1473:A1 1.87829e-05
2 *1384:ZN 1.87829e-05
3 *1473:A1 *1384:I 0.000269848
4 *1473:A1 *1471:A1 0.00056691
5 *1473:A1 *372:29 0.0003062
*RES
1 *1384:ZN *1473:A1 19.444 
*END

*D_NET *146 0.00706262
*CONN
*I *1412:B I *D gf180mcu_fd_sc_mcu7t5v0__aoi21_1
*I *1397:A1 I *D gf180mcu_fd_sc_mcu7t5v0__nand2_1
*I *1388:Z O *D gf180mcu_fd_sc_mcu7t5v0__and2_1
*CAP
1 *1412:B 0.00182805
2 *1397:A1 0.0002043
3 *1388:Z 0.00023157
4 *146:10 0.00226392
5 *1397:A1 *1397:A2 0.000668356
6 *1397:A1 *1480:A3 5.87561e-06
7 *1397:A1 *398:8 0
8 *1397:A1 *398:52 0
9 *1412:B *1408:B1 4.91296e-05
10 *1412:B *1409:B 0.000261992
11 *1412:B *1432:A2 6.87409e-05
12 *1412:B *1610:A1 6.26869e-05
13 *1412:B *1648:A2 4.32304e-05
14 *1412:B *147:23 0
15 *1412:B *149:16 0.000200695
16 *1412:B *152:10 6.26869e-05
17 *1412:B *152:20 9.87423e-05
18 *1412:B *158:10 0.000112039
19 *1412:B *158:28 2.5815e-05
20 *1412:B *158:41 0.000145125
21 *1412:B *164:8 0.000157311
22 *1412:B *167:14 7.65291e-05
23 *1412:B *365:28 0.00011179
24 *1412:B *365:89 3.49363e-05
25 *1412:B *365:106 1.04077e-05
26 *1412:B *462:10 0
27 *1412:B *502:31 3.41363e-05
28 *1412:B *502:50 8.64766e-06
29 *146:10 *1380:I 0.000160563
30 *146:10 *147:10 0
31 *146:10 *164:8 1.28891e-05
32 *146:10 *476:34 3.64107e-05
33 *146:10 *503:12 8.60362e-05
*RES
1 *1388:Z *146:10 10.672 
2 *146:10 *1397:A1 10.9 
3 *146:10 *1412:B 21.616 
*END

*D_NET *147 0.00720618
*CONN
*I *1413:B I *D gf180mcu_fd_sc_mcu7t5v0__oai21_1
*I *1399:A1 I *D gf180mcu_fd_sc_mcu7t5v0__aoi211_1
*I *1434:A1 I *D gf180mcu_fd_sc_mcu7t5v0__nor2_1
*I *1389:ZN O *D gf180mcu_fd_sc_mcu7t5v0__nand2_1
*CAP
1 *1413:B 0.000247494
2 *1399:A1 1.53294e-05
3 *1434:A1 0
4 *1389:ZN 0.000399711
5 *147:23 0.000993061
6 *147:10 0.00112995
7 *1399:A1 *338:20 3.73627e-05
8 *1399:A1 *339:22 3.73627e-05
9 *1413:B *1399:A2 0.000193157
10 *1413:B *149:16 4.03922e-06
11 *1413:B *152:14 0.000247168
12 *1413:B *160:14 0.000138168
13 *1413:B *194:18 7.83779e-05
14 *1413:B *338:20 1.04779e-05
15 *1413:B *365:16 7.83779e-05
16 *1413:B *365:28 4.80812e-05
17 *1413:B *365:89 2.20475e-05
18 *147:10 *1389:A2 2.22657e-05
19 *147:10 *1406:A2 1.24299e-05
20 *147:10 *1553:A2 0
21 *147:10 *1779:I 0
22 *147:10 *154:10 0.000832438
23 *147:10 *164:8 2.94576e-05
24 *147:10 *188:18 5.62475e-05
25 *147:10 *389:29 0
26 *147:10 *476:30 4.03922e-06
27 *147:10 *476:34 8.55242e-05
28 *147:10 *503:12 0
29 *147:23 *1378:I 0.000458141
30 *147:23 *1432:A2 2.10727e-05
31 *147:23 *1440:A2 0.000460436
32 *147:23 *149:16 1.2427e-05
33 *147:23 *160:14 0.000219616
34 *147:23 *164:8 1.75634e-05
35 *147:23 *188:18 0.000102094
36 *147:23 *463:69 0.000374373
37 *147:23 *500:66 0.000276717
38 *147:23 *502:50 8.64281e-06
39 *1412:B *147:23 0
40 *1439:A2 *147:23 0.000108617
41 *139:8 *147:23 0.000172453
42 *139:12 *147:23 0.000251465
43 *146:10 *147:10 0
*RES
1 *1389:ZN *147:10 12.648 
2 *147:10 *1434:A1 9 
3 *147:10 *147:23 7.676 
4 *147:23 *1399:A1 9.228 
5 *147:23 *1413:B 11.584 
*END

*D_NET *148 0.00416576
*CONN
*I *1393:A4 I *D gf180mcu_fd_sc_mcu7t5v0__and4_1
*I *1391:A3 I *D gf180mcu_fd_sc_mcu7t5v0__nand3_1
*I *1394:A4 I *D gf180mcu_fd_sc_mcu7t5v0__nand4_1
*I *1390:ZN O *D gf180mcu_fd_sc_mcu7t5v0__nor4_1
*CAP
1 *1393:A4 0
2 *1391:A3 0.000263679
3 *1394:A4 8.00028e-05
4 *1390:ZN 0.000407864
5 *148:14 0.00038525
6 *148:12 0.000449432
7 *1391:A3 *1412:A2 1.5377e-05
8 *1391:A3 *1454:A2 1.91917e-06
9 *1391:A3 *1455:A1 9.60584e-06
10 *1394:A4 *1368:I 5.23776e-05
11 *1394:A4 *1454:A2 8.55327e-05
12 *1394:A4 *1610:A1 0.000177498
13 *148:12 *1368:I 0
14 *148:12 *1412:A2 0.000379274
15 *148:12 *1414:A2 9.26705e-05
16 *148:12 *1460:A1 0.000342528
17 *148:12 *1610:A1 0.0001513
18 *148:12 *1621:A1 2.39679e-05
19 *148:12 *1643:A2 4.79904e-05
20 *148:12 *1773:I 0.000260611
21 *148:14 *1412:A2 3.08902e-05
22 *148:14 *1610:A1 0.000173933
23 *148:14 *462:16 0
24 *1609:A1 *148:12 1.4379e-05
25 *1722:D *148:12 0.000719681
*RES
1 *1390:ZN *148:12 18.364 
2 *148:12 *148:14 0.532 
3 *148:14 *1394:A4 5.564 
4 *148:14 *1391:A3 6.324 
5 *148:12 *1393:A4 4.5 
*END

*D_NET *149 0.00620613
*CONN
*I *1392:A3 I *D gf180mcu_fd_sc_mcu7t5v0__or3_1
*I *1398:A3 I *D gf180mcu_fd_sc_mcu7t5v0__nor4_1
*I *1432:A2 I *D gf180mcu_fd_sc_mcu7t5v0__oai21_1
*I *1391:ZN O *D gf180mcu_fd_sc_mcu7t5v0__nand3_1
*CAP
1 *1392:A3 0
2 *1398:A3 0
3 *1432:A2 0.000372868
4 *1391:ZN 0.000202194
5 *149:16 0.000641086
6 *149:12 0.000470411
7 *1432:A2 *1398:A4 0.000129065
8 *1432:A2 *1647:A4 0.000246965
9 *1432:A2 *155:25 6.73926e-05
10 *1432:A2 *155:34 4.50449e-05
11 *1432:A2 *187:25 0.000215331
12 *1432:A2 *339:22 0.000140853
13 *1432:A2 *366:37 3.32172e-05
14 *149:12 *1392:A2 0.000311351
15 *149:12 *1610:A1 0.000135047
16 *149:12 *1612:A1 1.36149e-05
17 *149:12 *194:18 0.000717308
18 *149:12 *366:54 0.000151949
19 *149:12 *366:67 0.000444428
20 *149:12 *368:20 2.67896e-05
21 *149:12 *462:10 0.00100561
22 *149:16 *1399:A2 4.29636e-06
23 *149:16 *338:20 8.78761e-05
24 *149:16 *365:28 0.00040968
25 *149:16 *365:89 2.67803e-05
26 *1412:B *1432:A2 6.87409e-05
27 *1412:B *149:16 0.000200695
28 *1413:B *149:16 4.03922e-06
29 *147:23 *1432:A2 2.10727e-05
30 *147:23 *149:16 1.2427e-05
*RES
1 *1391:ZN *149:12 18.06 
2 *149:12 *149:16 7.312 
3 *149:16 *1432:A2 12.876 
4 *149:16 *1398:A3 9 
5 *149:12 *1392:A3 4.5 
*END

*D_NET *150 0.00850495
*CONN
*I *1415:A1 I *D gf180mcu_fd_sc_mcu7t5v0__nand2_1
*I *1414:A1 I *D gf180mcu_fd_sc_mcu7t5v0__and2_1
*I *1395:A1 I *D gf180mcu_fd_sc_mcu7t5v0__nand2_1
*I *1392:Z O *D gf180mcu_fd_sc_mcu7t5v0__or3_1
*CAP
1 *1415:A1 0.000405407
2 *1414:A1 0
3 *1395:A1 5.99637e-05
4 *1392:Z 7.26127e-05
5 *150:43 0.00133688
6 *150:6 0.00106405
7 *1415:A1 *1415:A2 6.17803e-05
8 *1415:A1 *1420:A1 6.14317e-05
9 *1415:A1 *1420:B1 3.33183e-05
10 *1415:A1 *1420:B2 2.17474e-05
11 *1415:A1 *1422:A2 0.000198005
12 *1415:A1 *1422:B1 0.000195801
13 *1415:A1 *1452:A1 1.0973e-05
14 *1415:A1 *1676:A1 0.00018511
15 *1415:A1 *1684:A1 0
16 *1415:A1 *1830:I 0.000134622
17 *150:6 *152:20 0.000299217
18 *150:6 *194:18 1.45716e-05
19 *150:6 *365:16 0.000154516
20 *150:6 *452:55 2.89664e-05
21 *150:43 *1414:A2 2.96621e-05
22 *150:43 *1420:A2 2.03665e-05
23 *150:43 *1422:B2 0.000223246
24 *150:43 *1438:A2 0.00012749
25 *150:43 *1442:C 0.000674579
26 *150:43 *1452:A1 0.00041486
27 *150:43 *1670:B1 0.000246202
28 *150:43 *1672:A2 1.21463e-05
29 *150:43 *1672:B1 0
30 *150:43 *1673:I1 0.000211189
31 *150:43 *1677:I1 6.76333e-05
32 *150:43 *1680:A1 4.04846e-05
33 *150:43 *1680:A2 0.000652778
34 *150:43 *1685:I1 0.000324241
35 *150:43 *161:29 0.000164161
36 *150:43 *171:8 8.81341e-06
37 *150:43 *365:16 9.32446e-05
38 *150:43 *405:21 0.000317381
39 *150:43 *452:14 2.57058e-06
40 *150:43 *452:55 2.57971e-05
41 *1442:A1 *150:43 0.000218731
42 *1751:D *150:43 0.000290392
*RES
1 *1392:Z *150:6 5.64 
2 *150:6 *1395:A1 4.88 
3 *150:6 *150:43 29.02 
4 *150:43 *1414:A1 4.5 
5 *150:43 *1415:A1 17.3 
*END

*D_NET *151 0.000695164
*CONN
*I *1412:A2 I *D gf180mcu_fd_sc_mcu7t5v0__aoi21_1
*I *1393:Z O *D gf180mcu_fd_sc_mcu7t5v0__and4_1
*CAP
1 *1412:A2 0.000125717
2 *1393:Z 0.000125717
3 *1412:A2 *462:16 0
4 *1391:A3 *1412:A2 1.5377e-05
5 *1608:A1 *1412:A2 1.81888e-05
6 *148:12 *1412:A2 0.000379274
7 *148:14 *1412:A2 3.08902e-05
*RES
1 *1393:Z *1412:A2 10.216 
*END

*D_NET *152 0.00672974
*CONN
*I *1413:A2 I *D gf180mcu_fd_sc_mcu7t5v0__oai21_1
*I *1395:A2 I *D gf180mcu_fd_sc_mcu7t5v0__nand2_1
*I *1432:B I *D gf180mcu_fd_sc_mcu7t5v0__oai21_1
*I *1647:A2 I *D gf180mcu_fd_sc_mcu7t5v0__nor4_1
*I *1648:A2 I *D gf180mcu_fd_sc_mcu7t5v0__or4_1
*I *1394:ZN O *D gf180mcu_fd_sc_mcu7t5v0__nand4_1
*CAP
1 *1413:A2 0
2 *1395:A2 0
3 *1432:B 4.80758e-05
4 *1647:A2 1.59696e-05
5 *1648:A2 7.21098e-05
6 *1394:ZN 0.000289086
7 *152:37 0.000146746
8 *152:20 0.000526705
9 *152:14 0.000498693
10 *152:10 0.000415884
11 *1432:B *155:25 1.76898e-05
12 *1432:B *155:34 1.02578e-05
13 *1432:B *365:48 0.000310356
14 *1432:B *366:37 0.000104176
15 *1647:A2 *366:37 8.8425e-05
16 *1647:A2 *465:44 1.46098e-05
17 *1648:A2 *462:10 3.81981e-05
18 *152:10 *1381:I 0.000196417
19 *152:10 *1393:A1 0.000246919
20 *152:10 *1393:A3 2.05156e-05
21 *152:10 *1414:A2 3.2633e-05
22 *152:10 *1610:A1 4.18118e-05
23 *152:10 *160:14 9.5126e-05
24 *152:10 *365:89 9.75543e-06
25 *152:10 *365:106 4.75552e-05
26 *152:10 *404:16 0.000197048
27 *152:14 *160:14 0.000171312
28 *152:14 *365:89 4.05276e-05
29 *152:20 *1399:A2 8.04285e-05
30 *152:20 *194:18 9.76485e-05
31 *152:20 *452:55 0.000192755
32 *152:20 *462:10 8.48177e-05
33 *152:37 *338:20 0.000158809
34 *152:37 *365:36 2.23385e-05
35 *152:37 *365:42 0.000317926
36 *152:37 *365:48 4.58601e-06
37 *152:37 *366:37 2.71882e-05
38 *152:37 *366:54 0.000235808
39 *152:37 *465:44 1.12113e-05
40 *1393:A2 *152:10 0.000308699
41 *1412:B *1648:A2 4.32304e-05
42 *1412:B *152:10 6.26869e-05
43 *1412:B *152:20 9.87423e-05
44 *1413:B *152:14 0.000247168
45 *1447:A1 *152:37 0.00041564
46 *142:10 *152:10 0.000172284
47 *142:10 *152:14 0.000151957
48 *150:6 *152:20 0.000299217
*RES
1 *1394:ZN *152:10 12.8 
2 *152:10 *152:14 6.096 
3 *152:14 *152:20 7.996 
4 *152:20 *1648:A2 9.532 
5 *152:20 *152:37 10.824 
6 *152:37 *1647:A2 9.228 
7 *152:37 *1432:B 9.836 
8 *152:14 *1395:A2 4.5 
9 *152:10 *1413:A2 9 
*END

*D_NET *153 0.00121695
*CONN
*I *1399:A2 I *D gf180mcu_fd_sc_mcu7t5v0__aoi211_1
*I *1395:ZN O *D gf180mcu_fd_sc_mcu7t5v0__nand2_1
*CAP
1 *1399:A2 9.29027e-05
2 *1395:ZN 9.29027e-05
3 *1399:A2 *338:20 0.000264137
4 *1399:A2 *365:28 0.000261998
5 *1399:A2 *452:55 3.2657e-05
6 *1413:B *1399:A2 0.000193157
7 *1447:A1 *1399:A2 0.000194469
8 *149:16 *1399:A2 4.29636e-06
9 *152:20 *1399:A2 8.04285e-05
*RES
1 *1395:ZN *1399:A2 19.9 
*END

*D_NET *154 0.00589583
*CONN
*I *1434:A2 I *D gf180mcu_fd_sc_mcu7t5v0__nor2_1
*I *1397:A2 I *D gf180mcu_fd_sc_mcu7t5v0__nand2_1
*I *1396:ZN O *D gf180mcu_fd_sc_mcu7t5v0__nand2_1
*CAP
1 *1434:A2 0
2 *1397:A2 0.000440548
3 *1396:ZN 0.000877119
4 *154:10 0.00131767
5 *1397:A2 *1480:A3 4.58601e-06
6 *1397:A2 *1480:B3 0
7 *1397:A2 *1743:CLK 0
8 *1397:A2 *1779:I 8.99289e-05
9 *1397:A2 *398:52 0
10 *1397:A2 *503:12 0.000171927
11 *154:10 *1556:I0 0.00114091
12 *154:10 *1556:I1 0
13 *154:10 *270:40 0.000158878
14 *154:10 *389:29 2.90201e-05
15 *154:10 *389:31 0.000164456
16 *154:10 *476:19 0
17 *154:10 *476:30 0
18 *1397:A1 *1397:A2 0.000668356
19 *147:10 *154:10 0.000832438
*RES
1 *1396:ZN *154:10 22.24 
2 *154:10 *1397:A2 8.452 
3 *154:10 *1434:A2 4.5 
*END

*D_NET *155 0.00698649
*CONN
*I *1648:A3 I *D gf180mcu_fd_sc_mcu7t5v0__or4_1
*I *1398:A4 I *D gf180mcu_fd_sc_mcu7t5v0__nor4_1
*I *1647:A3 I *D gf180mcu_fd_sc_mcu7t5v0__nor4_1
*I *1482:B2 I *D gf180mcu_fd_sc_mcu7t5v0__oai32_1
*I *1397:ZN O *D gf180mcu_fd_sc_mcu7t5v0__nand2_1
*CAP
1 *1648:A3 6.33993e-05
2 *1398:A4 0.000134442
3 *1647:A3 0
4 *1482:B2 0.000436651
5 *1397:ZN 0
6 *155:34 0.000282009
7 *155:25 0.000547929
8 *155:4 0.000900412
9 *1398:A4 *1398:A2 0.000190464
10 *1398:A4 *1647:A4 7.04898e-05
11 *1482:B2 *1480:A3 1.54542e-05
12 *1482:B2 *1480:B1 0
13 *1482:B2 *1482:A3 2.23598e-06
14 *1482:B2 *223:10 0.000399191
15 *1482:B2 *224:8 0
16 *1482:B2 *398:8 3.36925e-05
17 *1482:B2 *465:52 1.45899e-05
18 *1648:A3 *1398:A2 0.000134636
19 *155:25 *1479:A3 0.000188496
20 *155:25 *1835:I 7.94242e-05
21 *155:25 *163:10 0.000373581
22 *155:25 *223:10 0.000116256
23 *155:25 *366:37 0.000105566
24 *155:25 *462:10 0.000127353
25 *155:25 *465:44 0.000947256
26 *155:25 *465:46 0.000346848
27 *155:25 *465:48 0.000605532
28 *155:25 *465:52 0.000390043
29 *155:34 *1398:A2 1.67041e-05
30 *155:34 *1647:A4 8.64207e-05
31 *155:34 *365:42 9.68873e-06
32 *1432:A2 *1398:A4 0.000129065
33 *1432:A2 *155:25 6.73926e-05
34 *1432:A2 *155:34 4.50449e-05
35 *1432:B *155:25 1.76898e-05
36 *1432:B *155:34 1.02578e-05
37 *1759:D *1482:B2 8.92063e-06
38 *1760:D *1482:B2 8.9355e-05
*RES
1 *1397:ZN *155:4 4.5 
2 *155:4 *1482:B2 16.54 
3 *155:4 *155:25 16.448 
4 *155:25 *1647:A3 4.5 
5 *155:25 *155:34 0.76 
6 *155:34 *1398:A4 6.248 
7 *155:34 *1648:A3 5.108 
*END

*D_NET *156 0.000818971
*CONN
*I *1399:B I *D gf180mcu_fd_sc_mcu7t5v0__aoi211_1
*I *1398:ZN O *D gf180mcu_fd_sc_mcu7t5v0__nor4_1
*CAP
1 *1399:B 0.000174063
2 *1398:ZN 0.000174063
3 *1399:B *1398:A1 5.4634e-05
4 *1399:B *1398:A2 0.000147305
5 *1399:B *338:20 0.000117398
6 *1399:B *339:22 3.08902e-05
7 *1399:B *365:36 9.26705e-05
8 *1447:A1 *1399:B 2.79476e-05
*RES
1 *1398:ZN *1399:B 10.596 
*END

*D_NET *157 0.00110469
*CONN
*I *1411:A1 I *D gf180mcu_fd_sc_mcu7t5v0__nor2_1
*I *1399:ZN O *D gf180mcu_fd_sc_mcu7t5v0__aoi211_1
*CAP
1 *1411:A1 0.000278447
2 *1399:ZN 0.000278447
3 *1411:A1 *1399:C 4.61352e-05
4 *1411:A1 *1438:A2 6.57407e-05
5 *1411:A1 *1440:A1 0.000164604
6 *1411:A1 *1440:A2 3.28005e-05
7 *1411:A1 *1440:B 0.000113809
8 *1411:A1 *187:25 1.95806e-05
9 *1411:A1 *189:6 2.03965e-05
10 *1411:A1 *339:22 8.47261e-05
*RES
1 *1399:ZN *1411:A1 11.508 
*END

*D_NET *158 0.00408233
*CONN
*I *1648:A4 I *D gf180mcu_fd_sc_mcu7t5v0__or4_1
*I *1647:A4 I *D gf180mcu_fd_sc_mcu7t5v0__nor4_1
*I *1437:A1 I *D gf180mcu_fd_sc_mcu7t5v0__oai211_1
*I *1408:B2 I *D gf180mcu_fd_sc_mcu7t5v0__oai22_1
*I *1479:A2 I *D gf180mcu_fd_sc_mcu7t5v0__or3_1
*I *1400:Z O *D gf180mcu_fd_sc_mcu7t5v0__or2_1
*CAP
1 *1648:A4 0
2 *1647:A4 6.94501e-05
3 *1437:A1 3.35285e-05
4 *1408:B2 6.6925e-05
5 *1479:A2 7.82681e-05
6 *1400:Z 0
7 *158:41 0.000318698
8 *158:28 0.00046238
9 *158:10 0.000476157
10 *158:6 0.000510568
11 *1408:B2 *1477:A2 0.000215928
12 *1408:B2 *500:51 2.05156e-05
13 *1408:B2 *502:31 0.000193231
14 *1437:A1 *1433:A2 8.55327e-05
15 *1437:A1 *1437:C 1.76898e-05
16 *1437:A1 *187:25 0
17 *1437:A1 *191:14 2.6126e-05
18 *1479:A2 *1477:A2 0.00011955
19 *1479:A2 *502:31 0.000111858
20 *158:10 *1409:C 1.46159e-05
21 *158:10 *463:57 4.03922e-06
22 *158:10 *465:44 0
23 *158:10 *465:46 0
24 *158:10 *465:48 0
25 *158:28 *1409:A2 4.21373e-06
26 *158:28 *167:14 0.000378617
27 *158:28 *465:44 0
28 *158:41 *462:10 0.000187584
29 *158:41 *465:44 0
30 *1398:A4 *1647:A4 7.04898e-05
31 *1412:B *158:10 0.000112039
32 *1412:B *158:28 2.5815e-05
33 *1412:B *158:41 0.000145125
34 *1432:A2 *1647:A4 0.000246965
35 *155:34 *1647:A4 8.64207e-05
*RES
1 *1400:Z *158:6 9 
2 *158:6 *158:10 6.248 
3 *158:10 *1479:A2 5.412 
4 *158:10 *1408:B2 5.792 
5 *158:6 *158:28 1.444 
6 *158:28 *1437:A1 9.38 
7 *158:28 *158:41 6.552 
8 *158:41 *1647:A4 5.412 
9 *158:41 *1648:A4 4.5 
*END

*D_NET *159 0.00332679
*CONN
*I *1437:C I *D gf180mcu_fd_sc_mcu7t5v0__oai211_1
*I *1433:A1 I *D gf180mcu_fd_sc_mcu7t5v0__nand3_1
*I *1484:A2 I *D gf180mcu_fd_sc_mcu7t5v0__aoi211_1
*I *1401:ZN O *D gf180mcu_fd_sc_mcu7t5v0__nand2_1
*CAP
1 *1437:C 0.000170242
2 *1433:A1 0
3 *1484:A2 0.000433322
4 *1401:ZN 0.000574164
5 *159:28 0.000311084
6 *1437:C *1409:A2 2.9378e-06
7 *1437:C *1433:A2 0.00048227
8 *1437:C *1435:A1 0.000483795
9 *1437:C *1802:I 4.51025e-05
10 *1437:C *1835:I 7.3227e-05
11 *1437:C *163:10 0
12 *1437:C *191:14 5.76749e-06
13 *1484:A2 *1409:A1 4.69368e-05
14 *1484:A2 *1484:A1 2.54609e-05
15 *1484:A2 *1802:I 9.84114e-05
16 *1484:A2 *460:8 0.00018927
17 *1484:A2 *502:14 9.96119e-05
18 *159:28 *1446:A3 2.17963e-05
19 *159:28 *1802:I 0.000211005
20 *159:28 *187:10 2.89386e-05
21 *159:28 *191:14 5.76063e-06
22 *1437:A1 *1437:C 1.76898e-05
*RES
1 *1401:ZN *1484:A2 11.888 
2 *1401:ZN *159:28 5.792 
3 *159:28 *1433:A1 4.5 
4 *159:28 *1437:C 7.008 
*END

*D_NET *160 0.0176611
*CONN
*I *1683:A3 I *D gf180mcu_fd_sc_mcu7t5v0__nand3_1
*I *1429:A3 I *D gf180mcu_fd_sc_mcu7t5v0__nand3_1
*I *1425:A3 I *D gf180mcu_fd_sc_mcu7t5v0__nand3_1
*I *1417:A3 I *D gf180mcu_fd_sc_mcu7t5v0__nand3_1
*I *1679:A3 I *D gf180mcu_fd_sc_mcu7t5v0__nand3_1
*I *1675:A3 I *D gf180mcu_fd_sc_mcu7t5v0__nand3_1
*I *1402:ZN O *D gf180mcu_fd_sc_mcu7t5v0__nor2_1
*CAP
1 *1683:A3 0.000190194
2 *1429:A3 0
3 *1425:A3 0.000218859
4 *1417:A3 0
5 *1679:A3 0
6 *1675:A3 5.65026e-05
7 *1402:ZN 0.00204387
8 *160:72 0.000279339
9 *160:51 0.000404002
10 *160:42 0.000881487
11 *160:29 0.000838535
12 *160:14 0.00215341
13 *1425:A3 *1627:A1 8.55242e-05
14 *1425:A3 *1630:A2 8.55242e-05
15 *1425:A3 *327:14 0.000441425
16 *1425:A3 *327:31 0.000189674
17 *1425:A3 *453:119 0.000120304
18 *1425:A3 *467:46 4.00744e-05
19 *1675:A3 *1643:B 0.000349837
20 *1675:A3 *1671:A2 0.000351308
21 *1675:A3 *392:44 0.00013063
22 *1675:A3 *466:97 0.00013063
23 *1683:A3 *1425:A2 0.000105022
24 *1683:A3 *1429:A2 2.25184e-05
25 *1683:A3 *1683:A1 1.9924e-05
26 *1683:A3 *1725:CLK 0
27 *160:14 *1399:C 0.000934495
28 *160:14 *1402:A1 8.69862e-05
29 *160:14 *1440:A2 0.000142727
30 *160:14 *1441:A2 3.50686e-05
31 *160:14 *1442:B 9.02358e-05
32 *160:14 *1458:A1 1.95391e-05
33 *160:14 *1467:A2 0.000197898
34 *160:14 *1467:A4 4.1487e-05
35 *160:14 *1468:B 0.000673547
36 *160:14 *1471:A1 0
37 *160:14 *1473:B2 0
38 *160:14 *1622:A1 0.000105671
39 *160:14 *1624:B2 9.26705e-05
40 *160:14 *1643:B 2.19137e-05
41 *160:14 *1675:A2 0.000180191
42 *160:14 *1724:CLK 3.54279e-05
43 *160:14 *1773:I 0
44 *160:14 *1802:I 4.98138e-05
45 *160:14 *1842:I 0.000196417
46 *160:14 *1857:I 7.82111e-05
47 *160:14 *189:17 0
48 *160:14 *189:32 0
49 *160:14 *190:8 0.000125442
50 *160:14 *191:56 0.000237111
51 *160:14 *194:8 0.000123063
52 *160:14 *365:106 0
53 *160:14 *372:12 7.21171e-05
54 *160:14 *392:44 1.53689e-05
55 *160:14 *404:10 5.30223e-05
56 *160:14 *404:16 3.99967e-05
57 *160:14 *453:100 0.000772874
58 *160:14 *453:119 7.32209e-05
59 *160:14 *456:12 7.21615e-05
60 *160:14 *463:103 0.000316364
61 *160:29 *1473:B2 0
62 *160:29 *1675:A2 1.4689e-05
63 *160:29 *1679:A2 2.22657e-05
64 *160:42 *1417:A2 0.000301553
65 *160:42 *1421:A2 4.2318e-06
66 *160:42 *1644:A1 0.000162726
67 *160:42 *1644:A2 3.82104e-05
68 *160:42 *1675:A1 1.97747e-05
69 *160:42 *1675:A2 2.9378e-06
70 *160:42 *1680:A2 2.02175e-05
71 *160:42 *1725:CLK 0.000504097
72 *160:42 *392:48 2.30624e-05
73 *160:42 *417:28 0
74 *160:42 *466:97 2.09793e-05
75 *160:51 *1418:A2 9.22116e-06
76 *160:51 *1725:CLK 0.000292098
77 *160:51 *417:20 0
78 *160:72 *1425:A2 2.57058e-06
79 *160:72 *1429:A2 0.000249413
80 *160:72 *1807:I 0.000426701
81 *160:72 *467:14 2.30219e-05
82 *1413:B *160:14 0.000138168
83 *1439:A2 *160:14 0.000168624
84 *1723:D *160:14 0.000288839
85 *1726:D *160:72 0.00042002
86 *147:23 *160:14 0.000219616
87 *152:10 *160:14 9.5126e-05
88 *152:14 *160:14 0.000171312
*RES
1 *1402:ZN *160:14 33.488 
2 *160:14 *1675:A3 14.868 
3 *160:14 *160:29 0.38 
4 *160:29 *1679:A3 4.5 
5 *160:29 *160:42 6.08 
6 *160:42 *1417:A3 4.5 
7 *160:42 *160:51 5.336 
8 *160:51 *1425:A3 20.736 
9 *160:51 *160:72 6.324 
10 *160:72 *1429:A3 4.5 
11 *160:72 *1683:A3 6.02 
*END

*D_NET *161 0.0107107
*CONN
*I *1428:C I *D gf180mcu_fd_sc_mcu7t5v0__oai221_1
*I *1682:C I *D gf180mcu_fd_sc_mcu7t5v0__oai221_1
*I *1674:C I *D gf180mcu_fd_sc_mcu7t5v0__oai221_1
*I *1416:C I *D gf180mcu_fd_sc_mcu7t5v0__oai221_1
*I *1424:C I *D gf180mcu_fd_sc_mcu7t5v0__oai221_1
*I *1678:C I *D gf180mcu_fd_sc_mcu7t5v0__oai221_1
*I *1422:A1 I *D gf180mcu_fd_sc_mcu7t5v0__aoi22_1
*I *1672:A1 I *D gf180mcu_fd_sc_mcu7t5v0__aoi22_1
*I *1403:ZN O *D gf180mcu_fd_sc_mcu7t5v0__nand2_1
*CAP
1 *1428:C 0
2 *1682:C 0.000302959
3 *1674:C 0
4 *1416:C 0.000102617
5 *1424:C 0
6 *1678:C 0
7 *1422:A1 0
8 *1672:A1 0
9 *1403:ZN 0.000378788
10 *161:84 0.000579919
11 *161:59 0.00023932
12 *161:55 0.000276165
13 *161:48 0.000139462
14 *161:46 0.00100805
15 *161:29 0.000903207
16 *161:14 0.000550908
17 *1416:C *1424:A1 2.95445e-05
18 *1416:C *455:53 0.00048737
19 *1416:C *455:57 0.000190571
20 *1416:C *478:14 0.00014389
21 *1682:C *1452:A1 0
22 *1682:C *1682:B1 7.92843e-05
23 *1682:C *455:12 0.000120843
24 *1682:C *455:31 0.000114041
25 *1682:C *455:40 0.000289725
26 *161:14 *1422:B2 0.000108749
27 *161:14 *1469:A2 0
28 *161:14 *1672:B1 0.000140658
29 *161:14 *1673:I1 7.3227e-05
30 *161:14 *1677:I1 7.3227e-05
31 *161:14 *1681:I1 0
32 *161:14 *338:20 0.000134622
33 *161:14 *339:22 0.000141187
34 *161:29 *1670:B2 0.00024691
35 *161:29 *1672:A2 8.05328e-06
36 *161:29 *1672:B1 5.38563e-06
37 *161:29 *1676:A1 0.000303397
38 *161:29 *1677:I1 0.000525664
39 *161:46 *1420:A2 9.03301e-06
40 *161:46 *1423:I1 0.000253231
41 *161:46 *1670:B2 5.22519e-05
42 *161:46 *1676:A1 7.83779e-05
43 *161:46 *1685:I1 0.000142801
44 *161:46 *405:21 0.000135048
45 *161:55 *1653:A1 1.20079e-05
46 *161:55 *1674:B2 2.17248e-05
47 *161:55 *1678:A2 5.75052e-05
48 *161:55 *1678:B1 3.95704e-05
49 *161:55 *1678:B2 0
50 *161:55 *173:12 0.000425168
51 *161:55 *338:52 0
52 *161:59 *1360:I 4.21332e-05
53 *161:59 *173:16 1.81333e-05
54 *161:59 *173:30 1.20889e-05
55 *161:59 *455:57 0.000569196
56 *161:59 *478:14 7.67087e-05
57 *161:84 *1419:I1 0.000531448
58 *161:84 *1426:A2 0.0002451
59 *161:84 *1427:I1 8.22059e-05
60 *161:84 *173:41 0
61 *1770:I *1682:C 4.50449e-05
62 *150:43 *161:29 0.000164161
*RES
1 *1403:ZN *161:14 16.312 
2 *161:14 *1672:A1 4.5 
3 *161:14 *161:29 11.66 
4 *161:29 *1422:A1 4.5 
5 *161:29 *161:46 18.288 
6 *161:46 *161:48 4.5 
7 *161:48 *1678:C 4.5 
8 *161:48 *161:55 1.596 
9 *161:55 *161:59 6.248 
10 *161:59 *1424:C 9 
11 *161:59 *1416:C 10.9 
12 *161:55 *1674:C 4.5 
13 *161:46 *161:84 7.616 
14 *161:84 *1682:C 7.312 
15 *161:84 *1428:C 4.5 
*END

*D_NET *162 0.010686
*CONN
*I *1469:A2 I *D gf180mcu_fd_sc_mcu7t5v0__nand2_1
*I *1407:A2 I *D gf180mcu_fd_sc_mcu7t5v0__nor2_1
*I *1408:A2 I *D gf180mcu_fd_sc_mcu7t5v0__oai22_1
*I *1404:ZN O *D gf180mcu_fd_sc_mcu7t5v0__xnor2_1
*CAP
1 *1469:A2 0.00148172
2 *1407:A2 0
3 *1408:A2 9.55812e-05
4 *1404:ZN 0
5 *162:29 0.00195857
6 *162:4 0.000572439
7 *1408:A2 *463:69 0.00025761
8 *1408:A2 *500:51 8.80064e-05
9 *1408:A2 *502:50 1.90621e-05
10 *1469:A2 *1422:B2 0.000130519
11 *1469:A2 *1462:B1 0.000279004
12 *1469:A2 *1469:A1 3.08902e-05
13 *1469:A2 *1626:A1 0
14 *1469:A2 *1672:B1 0
15 *1469:A2 *1673:I1 0.00259344
16 *1469:A2 *1673:S 6.61128e-05
17 *1469:A2 *1676:A2 0.000106079
18 *1469:A2 *1796:I 2.84711e-05
19 *1469:A2 *369:14 2.68099e-05
20 *1469:A2 *389:23 0
21 *1469:A2 *389:105 3.59666e-05
22 *1469:A2 *405:19 1.57754e-05
23 *1469:A2 *446:12 0.00115309
24 *1469:A2 *452:14 0.000442385
25 *1469:A2 *452:27 0.000104681
26 *1469:A2 *463:125 7.59218e-05
27 *1469:A2 *468:38 0.00044835
28 *1469:A2 *502:50 3.08902e-05
29 *162:29 *188:18 7.8226e-05
30 *162:29 *389:23 0
31 *162:29 *389:29 0
32 *162:29 *463:103 0.000170197
33 *162:29 *500:51 7.43203e-06
34 *162:29 *500:66 4.94368e-05
35 *162:29 *502:50 0.000218265
36 *1755:D *1469:A2 0
37 *138:21 *162:29 3.26598e-05
38 *139:12 *162:29 8.84331e-05
39 *161:14 *1469:A2 0
*RES
1 *1404:ZN *162:4 4.5 
2 *162:4 *1408:A2 5.488 
3 *162:4 *162:29 21.42 
4 *162:29 *1407:A2 4.5 
5 *162:29 *1469:A2 29.84 
*END

*D_NET *163 0.0065086
*CONN
*I *1835:I I *D gf180mcu_fd_sc_mcu7t5v0__buf_2
*I *1435:A1 I *D gf180mcu_fd_sc_mcu7t5v0__nand2_1
*I *1409:A2 I *D gf180mcu_fd_sc_mcu7t5v0__aoi211_1
*I *1405:Z O *D gf180mcu_fd_sc_mcu7t5v0__xor2_1
*CAP
1 *1835:I 3.91557e-05
2 *1435:A1 0.000608491
3 *1409:A2 6.65622e-05
4 *1405:Z 9.85315e-05
5 *163:16 0.000750211
6 *163:10 0.000212845
7 *1409:A2 *1409:A1 9.61205e-06
8 *1409:A2 *465:44 0.000140696
9 *1435:A1 *1409:C 0
10 *1435:A1 *1433:A2 3.07734e-05
11 *1435:A1 *1435:A2 0.000830151
12 *1435:A1 *1437:A2 0.000190521
13 *1435:A1 *1438:A2 0.000168421
14 *1435:A1 *1673:I1 0
15 *1435:A1 *1802:I 0.000708703
16 *1435:A1 *165:41 1.46914e-05
17 *1435:A1 *188:31 7.27459e-05
18 *1435:A1 *327:14 0.000135573
19 *1435:A1 *456:25 8.84331e-05
20 *1435:A1 *463:113 0.000635409
21 *1835:I *1409:A1 0
22 *1835:I *1479:A3 1.99058e-05
23 *163:10 *1409:A1 8.37794e-05
24 *163:10 *1479:A3 0.000104697
25 *163:10 *1802:I 8.76868e-05
26 *163:16 *1802:I 0.000190029
27 *1437:C *1409:A2 2.9378e-06
28 *1437:C *1435:A1 0.000483795
29 *1437:C *1835:I 7.3227e-05
30 *1437:C *163:10 0
31 *138:34 *1435:A1 0.000203794
32 *155:25 *1835:I 7.94242e-05
33 *155:25 *163:10 0.000373581
34 *158:28 *1409:A2 4.21373e-06
*RES
1 *1405:Z *163:10 10.52 
2 *163:10 *163:16 9.532 
3 *163:16 *1409:A2 9.532 
4 *163:16 *1435:A1 26.512 
5 *163:10 *1835:I 9.456 
*END

*D_NET *164 0.00216681
*CONN
*I *1408:B1 I *D gf180mcu_fd_sc_mcu7t5v0__oai22_1
*I *1476:A3 I *D gf180mcu_fd_sc_mcu7t5v0__nand3_1
*I *1406:Z O *D gf180mcu_fd_sc_mcu7t5v0__xor2_1
*CAP
1 *1408:B1 8.4778e-05
2 *1476:A3 0.00019243
3 *1406:Z 0.000244726
4 *164:8 0.000521934
5 *1408:B1 *1378:I 2.75234e-05
6 *1408:B1 *463:69 4.02664e-05
7 *1408:B1 *502:31 3.17618e-05
8 *1476:A3 *1477:A2 0.000592214
9 *1476:A3 *1743:CLK 0.000110784
10 *164:8 *1378:I 5.40431e-05
11 *1412:B *1408:B1 4.91296e-05
12 *1412:B *164:8 0.000157311
13 *146:10 *164:8 1.28891e-05
14 *147:10 *164:8 2.94576e-05
15 *147:23 *164:8 1.75634e-05
*RES
1 *1406:Z *164:8 11.052 
2 *164:8 *1476:A3 11.052 
3 *164:8 *1408:B1 9.836 
*END

*D_NET *165 0.0169841
*CONN
*I *1643:B I *D gf180mcu_fd_sc_mcu7t5v0__aoi21_1
*I *1624:A2 I *D gf180mcu_fd_sc_mcu7t5v0__aoi22_1
*I *1802:I I *D gf180mcu_fd_sc_mcu7t5v0__dlyb_1
*I *1407:ZN O *D gf180mcu_fd_sc_mcu7t5v0__nor2_1
*CAP
1 *1643:B 0.00042645
2 *1624:A2 0.000109283
3 *1802:I 0.00103763
4 *1407:ZN 0
5 *165:41 0.00167667
6 *165:4 0.00217858
7 *1624:A2 *1472:A1 2.46304e-05
8 *1624:A2 *372:12 3.9868e-05
9 *1624:A2 *372:14 5.75052e-05
10 *1643:B *1473:B2 4.84522e-05
11 *1643:B *1671:A2 0.00016965
12 *1643:B *1679:A2 4.17826e-05
13 *1643:B *1798:I 3.91978e-05
14 *1643:B *327:14 8.64281e-06
15 *1643:B *371:12 0.000142209
16 *1643:B *372:12 0.00034701
17 *1643:B *392:44 1.2018e-05
18 *1643:B *392:48 4.32846e-06
19 *1643:B *466:97 9.72694e-05
20 *1802:I *1401:A2 3.68392e-05
21 *1802:I *1405:A2 0
22 *1802:I *1409:A1 0
23 *1802:I *1446:A3 0
24 *1802:I *1479:A3 4.07251e-05
25 *1802:I *1626:A1 0
26 *1802:I *1831:I 7.03539e-05
27 *1802:I *167:8 9.6504e-05
28 *1802:I *456:12 0.000194746
29 *1802:I *456:25 0.000317503
30 *1802:I *463:113 7.9995e-05
31 *1802:I *502:14 2.6126e-05
32 *165:41 *1435:A2 0.000386379
33 *165:41 *1438:A2 9.79547e-05
34 *165:41 *1459:A1 0.000117634
35 *165:41 *1473:A2 0.000199823
36 *165:41 *1857:I 0
37 *165:41 *188:31 3.50638e-06
38 *165:41 *189:17 0.00187626
39 *165:41 *189:32 0
40 *165:41 *194:8 3.72633e-05
41 *165:41 *327:14 0.00262564
42 *165:41 *372:29 0.000163243
43 *165:41 *389:115 0.000150178
44 *165:41 *456:25 0.000213186
45 *165:41 *468:38 3.46737e-05
46 *1435:A1 *1802:I 0.000708703
47 *1435:A1 *165:41 1.46914e-05
48 *1437:C *1802:I 4.51025e-05
49 *1439:A2 *1802:I 0.000238204
50 *1442:A1 *165:41 6.05381e-05
51 *1484:A2 *1802:I 9.84114e-05
52 *1675:A3 *1643:B 0.000349837
53 *1724:D *1643:B 0.000540471
54 *1751:D *165:41 0.000988886
55 *1758:D *1624:A2 4.39913e-05
56 *1758:D *1643:B 1.74362e-05
57 *138:21 *165:41 3.41017e-05
58 *138:34 *165:41 5.35754e-05
59 *159:28 *1802:I 0.000211005
60 *160:14 *1643:B 2.19137e-05
61 *160:14 *1802:I 4.98138e-05
62 *163:10 *1802:I 8.76868e-05
63 *163:16 *1802:I 0.000190029
*RES
1 *1407:ZN *165:4 4.5 
2 *165:4 *1802:I 31.848 
3 *165:4 *165:41 25.036 
4 *165:41 *1624:A2 5.412 
5 *165:41 *1643:B 18.592 
*END

*D_NET *166 0.0011535
*CONN
*I *1409:B I *D gf180mcu_fd_sc_mcu7t5v0__aoi211_1
*I *1408:ZN O *D gf180mcu_fd_sc_mcu7t5v0__oai22_1
*CAP
1 *1409:B 0.000168626
2 *1408:ZN 0.000168626
3 *1409:B *1831:I 7.03255e-05
4 *1409:B *167:8 8.45062e-05
5 *1409:B *463:57 0.000139333
6 *1409:B *463:69 0.000133135
7 *1409:B *502:50 0.000126956
8 *1412:B *1409:B 0.000261992
*RES
1 *1408:ZN *1409:B 20.28 
*END

*D_NET *167 0.00286597
*CONN
*I *1831:I I *D gf180mcu_fd_sc_mcu7t5v0__clkbuf_1
*I *1433:A2 I *D gf180mcu_fd_sc_mcu7t5v0__nand3_1
*I *1437:B I *D gf180mcu_fd_sc_mcu7t5v0__oai211_1
*I *1409:ZN O *D gf180mcu_fd_sc_mcu7t5v0__aoi211_1
*CAP
1 *1831:I 0.000133903
2 *1433:A2 0.000172982
3 *1437:B 0
4 *1409:ZN 0.000141515
5 *167:14 0.000244865
6 *167:8 0.0003473
7 *1433:A2 *191:14 6.72004e-05
8 *1433:A2 *462:10 6.92278e-05
9 *1433:A2 *465:44 0.000101603
10 *1831:I *456:12 0.000185224
11 *1831:I *463:69 1.34535e-05
12 *1831:I *502:50 4.58601e-06
13 *167:8 *1409:C 2.9378e-06
14 *167:8 *463:57 5.76373e-06
15 *1409:B *1831:I 7.03255e-05
16 *1409:B *167:8 8.45062e-05
17 *1412:B *167:14 7.65291e-05
18 *1435:A1 *1433:A2 3.07734e-05
19 *1437:A1 *1433:A2 8.55327e-05
20 *1437:C *1433:A2 0.00048227
21 *1802:I *1831:I 7.03539e-05
22 *1802:I *167:8 9.6504e-05
23 *158:28 *167:14 0.000378617
*RES
1 *1409:ZN *167:8 5.716 
2 *167:8 *167:14 9.988 
3 *167:14 *1437:B 4.5 
4 *167:14 *1433:A2 6.856 
5 *167:8 *1831:I 5.868 
*END

*D_NET *168 0.000197021
*CONN
*I *1411:A2 I *D gf180mcu_fd_sc_mcu7t5v0__nor2_1
*I *1410:ZN O *D gf180mcu_fd_sc_mcu7t5v0__nand2_1
*CAP
1 *1411:A2 9.72255e-05
2 *1410:ZN 9.72255e-05
3 *138:47 *1411:A2 2.57058e-06
*RES
1 *1410:ZN *1411:A2 9.684 
*END

*D_NET *169 0.00464583
*CONN
*I *1431:S I *D gf180mcu_fd_sc_mcu7t5v0__mux2_2
*I *1825:I I *D gf180mcu_fd_sc_mcu7t5v0__buf_2
*I *1826:I I *D gf180mcu_fd_sc_mcu7t5v0__buf_2
*I *1685:S I *D gf180mcu_fd_sc_mcu7t5v0__mux2_2
*I *1411:ZN O *D gf180mcu_fd_sc_mcu7t5v0__nor2_1
*CAP
1 *1431:S 3.28034e-05
2 *1825:I 0.000414038
3 *1826:I 0.000135386
4 *1685:S 0.000533053
5 *1411:ZN 0.000533053
6 *169:27 0.000848027
7 *169:16 0.000536572
8 *1685:S *1438:A2 8.69862e-05
9 *1685:S *1511:I0 0
10 *1685:S *339:22 0
11 *1685:S *446:12 0.000540471
12 *1685:S *463:125 6.36953e-05
13 *1825:I *1431:I0 2.22657e-05
14 *1825:I *477:22 5.40301e-05
15 *1825:I *496:6 0.000252852
16 *1826:I *1685:I1 2.22758e-05
17 *1826:I *339:22 6.82773e-05
18 *169:27 *1431:I0 1.02578e-05
19 *169:27 *1685:I1 5.72419e-05
20 *169:27 *1735:CLK 0.000119866
21 *169:27 *339:22 6.25174e-05
22 *169:27 *477:22 3.44171e-05
23 *1735:D *169:27 3.07734e-05
24 *1746:D *169:27 4.1061e-05
25 *1750:D *1825:I 0.00013054
26 *138:34 *1685:S 0
27 *138:47 *1685:S 1.53658e-05
*RES
1 *1411:ZN *1685:S 13.028 
2 *1685:S *169:16 4.5 
3 *169:16 *1826:I 6.02 
4 *169:16 *169:27 2.964 
5 *169:27 *1825:I 7.92 
6 *169:27 *1431:S 4.728 
*END

*D_NET *170 0.0052654
*CONN
*I *1830:I I *D gf180mcu_fd_sc_mcu7t5v0__buf_2
*I *1414:A2 I *D gf180mcu_fd_sc_mcu7t5v0__and2_1
*I *1412:ZN O *D gf180mcu_fd_sc_mcu7t5v0__aoi21_1
*CAP
1 *1830:I 0.000142433
2 *1414:A2 0.00118658
3 *1412:ZN 0.00104414
4 *1414:A2 *1452:A1 0.000601781
5 *1414:A2 *1610:A1 0.000154451
6 *1414:A2 *1755:CLK 0.000912053
7 *1414:A2 *1773:I 5.22822e-05
8 *1414:A2 *1786:I 3.02841e-05
9 *1414:A2 *365:106 0.000210547
10 *1414:A2 *389:105 0
11 *1414:A2 *389:115 0.000300952
12 *1414:A2 *404:16 0
13 *1414:A2 *404:34 0.000257232
14 *1414:A2 *462:16 0
15 *1830:I *1452:A1 8.30769e-05
16 *1830:I *1684:A1 0
17 *1415:A1 *1830:I 0.000134622
18 *148:12 *1414:A2 9.26705e-05
19 *150:43 *1414:A2 2.96621e-05
20 *152:10 *1414:A2 3.2633e-05
*RES
1 *1412:ZN *1414:A2 19.108 
2 *1414:A2 *1830:I 10.368 
*END

*D_NET *171 0.00407781
*CONN
*I *1420:A2 I *D gf180mcu_fd_sc_mcu7t5v0__aoi22_1
*I *1670:A2 I *D gf180mcu_fd_sc_mcu7t5v0__aoi22_1
*I *1413:ZN O *D gf180mcu_fd_sc_mcu7t5v0__oai21_1
*CAP
1 *1420:A2 0.000316076
2 *1670:A2 0
3 *1413:ZN 0.000833388
4 *171:8 0.00114946
5 *1420:A2 *1423:I1 8.8055e-05
6 *1420:A2 *1670:A1 0.000127484
7 *1420:A2 *1670:B1 5.5493e-05
8 *1420:A2 *1676:A1 6.5808e-05
9 *171:8 *1438:A1 0
10 *171:8 *1442:C 0
11 *171:8 *1452:A1 0.000756532
12 *171:8 *1672:A2 0.000372137
13 *171:8 *1673:I1 1.59307e-05
14 *171:8 *1676:A1 8.64348e-05
15 *171:8 *1676:A2 6.73834e-05
16 *171:8 *194:18 9.59897e-06
17 *171:8 *365:16 0
18 *1392:A1 *171:8 0
19 *1441:A1 *171:8 8.07935e-05
20 *142:21 *171:8 1.5015e-05
21 *150:43 *1420:A2 2.03665e-05
22 *150:43 *171:8 8.81341e-06
23 *161:46 *1420:A2 9.03301e-06
*RES
1 *1413:ZN *171:8 10.884 
2 *171:8 *1670:A2 4.5 
3 *171:8 *1420:A2 24.78 
*END

*D_NET *172 0.00148992
*CONN
*I *1420:B1 I *D gf180mcu_fd_sc_mcu7t5v0__aoi22_1
*I *1670:B1 I *D gf180mcu_fd_sc_mcu7t5v0__aoi22_1
*I *1414:Z O *D gf180mcu_fd_sc_mcu7t5v0__and2_1
*CAP
1 *1420:B1 8.14707e-05
2 *1670:B1 0.000179363
3 *1414:Z 3.28034e-05
4 *172:6 0.000293637
5 *1420:B1 *1420:B2 3.08902e-05
6 *1420:B1 *1422:A2 1.07304e-05
7 *1420:B1 *1452:A1 0.000125838
8 *1670:B1 *1422:A2 1.53696e-05
9 *1670:B1 *1452:A1 6.95885e-05
10 *1670:B1 *1670:A1 6.31034e-05
11 *1670:B1 *1676:A1 1.65795e-06
12 *1670:B1 *1680:A2 0.000181264
13 *1670:B1 *1685:I1 6.91851e-05
14 *1415:A1 *1420:B1 3.33183e-05
15 *1420:A2 *1670:B1 5.5493e-05
16 *150:43 *1670:B1 0.000246202
*RES
1 *1414:Z *172:6 4.728 
2 *172:6 *1670:B1 15.628 
3 *172:6 *1420:B1 5.336 
*END

*D_NET *173 0.00596774
*CONN
*I *1416:B1 I *D gf180mcu_fd_sc_mcu7t5v0__oai221_1
*I *1428:B1 I *D gf180mcu_fd_sc_mcu7t5v0__oai221_1
*I *1682:B1 I *D gf180mcu_fd_sc_mcu7t5v0__oai221_1
*I *1424:B1 I *D gf180mcu_fd_sc_mcu7t5v0__oai221_1
*I *1674:B1 I *D gf180mcu_fd_sc_mcu7t5v0__oai221_1
*I *1678:B1 I *D gf180mcu_fd_sc_mcu7t5v0__oai221_1
*I *1415:ZN O *D gf180mcu_fd_sc_mcu7t5v0__nand2_1
*CAP
1 *1416:B1 2.73362e-05
2 *1428:B1 0
3 *1682:B1 0.000170028
4 *1424:B1 0
5 *1674:B1 0
6 *1678:B1 8.08367e-05
7 *1415:ZN 0.000202001
8 *173:47 0.000284486
9 *173:41 0.000367073
10 *173:30 0.000300445
11 *173:16 0.000160855
12 *173:12 0.000357186
13 *1678:B1 *1678:B2 3.30388e-05
14 *1682:B1 *1428:B2 3.00299e-05
15 *1682:B1 *1682:B2 0.000699879
16 *1682:B1 *455:40 5.88975e-06
17 *173:12 *1676:A1 0.000101143
18 *173:12 *1678:A2 0.000308746
19 *173:12 *1680:A1 0.000723314
20 *173:12 *338:52 0
21 *173:12 *389:7 8.94355e-05
22 *173:12 *479:26 2.79476e-05
23 *173:16 *1360:I 0
24 *173:16 *1427:I1 0.000113362
25 *173:30 *1427:I1 0.000204347
26 *173:30 *455:57 0.000213186
27 *173:41 *1424:A1 0.000206325
28 *173:41 *1426:A2 9.13064e-05
29 *173:41 *455:53 6.0726e-05
30 *173:41 *455:57 0.000156492
31 *173:47 *1428:B2 0.000182172
32 *173:47 *1682:B2 3.3239e-05
33 *173:47 *455:40 1.91917e-06
34 *173:47 *455:47 7.30761e-05
35 *173:47 *455:53 4.26303e-05
36 *1682:C *1682:B1 7.92843e-05
37 *1770:I *1682:B1 4.50449e-05
38 *161:55 *1678:B1 3.95704e-05
39 *161:55 *173:12 0.000425168
40 *161:59 *173:16 1.81333e-05
41 *161:59 *173:30 1.20889e-05
42 *161:84 *173:41 0
*RES
1 *1415:ZN *173:12 12.268 
2 *173:12 *173:16 5.184 
3 *173:16 *1678:B1 5.032 
4 *173:16 *1674:B1 4.5 
5 *173:12 *173:30 1.292 
6 *173:30 *1424:B1 9 
7 *173:30 *173:41 6.248 
8 *173:41 *173:47 1.444 
9 *173:47 *1682:B1 6.628 
10 *173:47 *1428:B1 4.5 
11 *173:41 *1416:B1 4.728 
*END

*D_NET *174 0.000932565
*CONN
*I *1418:A1 I *D gf180mcu_fd_sc_mcu7t5v0__nand2_1
*I *1416:ZN O *D gf180mcu_fd_sc_mcu7t5v0__oai221_1
*CAP
1 *1418:A1 0.000226442
2 *1416:ZN 0.000226442
3 *1418:A1 *1430:A1 2.48687e-05
4 *1418:A1 *479:20 9.52854e-05
5 *1462:A1 *1418:A1 0.000359527
*RES
1 *1416:ZN *1418:A1 29.128 
*END

*D_NET *175 0.00355134
*CONN
*I *1418:A2 I *D gf180mcu_fd_sc_mcu7t5v0__nand2_1
*I *1417:ZN O *D gf180mcu_fd_sc_mcu7t5v0__nand3_1
*CAP
1 *1418:A2 0.000598696
2 *1417:ZN 0.000598696
3 *1418:A2 *1426:A2 0
4 *1418:A2 *1430:A2 1.90059e-05
5 *1418:A2 *1628:A1 0.000208426
6 *1418:A2 *1628:A2 3.89716e-05
7 *1418:A2 *1630:A2 4.58601e-06
8 *1418:A2 *1725:CLK 4.02289e-06
9 *1418:A2 *1776:I 0
10 *1418:A2 *1807:I 0.000260522
11 *1418:A2 *417:20 1.3458e-05
12 *1418:A2 *467:18 3.35674e-05
13 *1418:A2 *479:20 0.00137441
14 *1725:D *1418:A2 0.000387757
15 *160:51 *1418:A2 9.22116e-06
*RES
1 *1417:ZN *1418:A2 24.384 
*END

*D_NET *176 0.00541942
*CONN
*I *1419:I1 I *D gf180mcu_fd_sc_mcu7t5v0__mux2_2
*I *1418:ZN O *D gf180mcu_fd_sc_mcu7t5v0__nand2_1
*CAP
1 *1419:I1 0.00162247
2 *1418:ZN 0.00162247
3 *1419:I1 *1419:I0 9.36227e-06
4 *1419:I1 *1423:S 3.93428e-05
5 *1419:I1 *1426:A2 2.72985e-05
6 *1419:I1 *1427:I1 0
7 *1419:I1 *1430:A1 3.83136e-05
8 *1419:I1 *1431:I1 0.000194455
9 *1419:I1 *1509:I0 0
10 *1419:I1 *1750:CLK 0.000263029
11 *1419:I1 *445:16 0.000197159
12 *1419:I1 *455:40 8.2456e-05
13 *1419:I1 *479:20 0.00037849
14 *1419:I1 *479:26 0.00020602
15 *1747:D *1419:I1 0
16 *1750:D *1419:I1 0.000207099
17 *161:84 *1419:I1 0.000531448
*RES
1 *1418:ZN *1419:I1 31.3 
*END

*D_NET *177 0.000905755
*CONN
*I *1422:A2 I *D gf180mcu_fd_sc_mcu7t5v0__aoi22_1
*I *1420:ZN O *D gf180mcu_fd_sc_mcu7t5v0__aoi22_1
*CAP
1 *1422:A2 0.000147234
2 *1420:ZN 0.000147234
3 *1422:A2 *1415:A2 2.8125e-06
4 *1422:A2 *1420:A1 6.57222e-06
5 *1422:A2 *1422:B1 8.04367e-06
6 *1422:A2 *1676:A1 0.000369754
7 *1422:A2 *389:87 0
8 *1415:A1 *1422:A2 0.000198005
9 *1420:B1 *1422:A2 1.07304e-05
10 *1670:B1 *1422:A2 1.53696e-05
*RES
1 *1420:ZN *1422:A2 19.52 
*END

*D_NET *178 0.00584134
*CONN
*I *1422:B1 I *D gf180mcu_fd_sc_mcu7t5v0__aoi22_1
*I *1421:ZN O *D gf180mcu_fd_sc_mcu7t5v0__nand2_1
*CAP
1 *1422:B1 0.000860325
2 *1421:ZN 0.000860325
3 *1422:B1 *1420:A1 0
4 *1422:B1 *1473:B2 0.000127692
5 *1422:B1 *1649:A1 0
6 *1422:B1 *1670:B2 7.83779e-05
7 *1422:B1 *1680:A1 8.55327e-05
8 *1422:B1 *1684:A2 0.000366513
9 *1422:B1 *370:16 3.24312e-05
10 *1422:B1 *405:21 0.0014898
11 *1422:B1 *405:41 0.000610015
12 *1422:B1 *405:56 0.000625851
13 *1422:B1 *417:22 2.80879e-05
14 *1422:B1 *417:28 0.000268158
15 *1415:A1 *1422:B1 0.000195801
16 *1422:A2 *1422:B1 8.04367e-06
17 *1757:D *1422:B1 0.000204383
*RES
1 *1421:ZN *1422:B1 28.868 
*END

*D_NET *179 0.00674278
*CONN
*I *1423:I1 I *D gf180mcu_fd_sc_mcu7t5v0__mux2_2
*I *1422:ZN O *D gf180mcu_fd_sc_mcu7t5v0__aoi22_1
*CAP
1 *1423:I1 0.00122256
2 *1422:ZN 0.00122256
3 *1423:I1 *1423:I0 0.000164306
4 *1423:I1 *1423:S 2.57058e-06
5 *1423:I1 *1431:I1 1.58892e-05
6 *1423:I1 *1509:I0 0.000160785
7 *1423:I1 *1510:A2 0.00159471
8 *1423:I1 *1649:A1 0.000427398
9 *1423:I1 *1649:B 0.000172906
10 *1423:I1 *1670:B2 8.55327e-05
11 *1423:I1 *1676:A1 8.55327e-05
12 *1423:I1 *389:13 0.000447437
13 *1423:I1 *389:23 0.000288463
14 *1423:I1 *389:87 2.42531e-05
15 *1423:I1 *399:47 2.89664e-05
16 *1423:I1 *494:10 9.46793e-05
17 *1420:A2 *1423:I1 8.8055e-05
18 *1735:D *1423:I1 0.000326528
19 *1748:D *1423:I1 3.64183e-05
20 *161:46 *1423:I1 0.000253231
*RES
1 *1422:ZN *1423:I1 40.68 
*END

*D_NET *180 0.00100322
*CONN
*I *1426:A1 I *D gf180mcu_fd_sc_mcu7t5v0__nand2_1
*I *1424:ZN O *D gf180mcu_fd_sc_mcu7t5v0__oai221_1
*CAP
1 *1426:A1 0.000184769
2 *1424:ZN 0.000184769
3 *1426:A1 *1420:B2 0.000394647
4 *1426:A1 *1682:B2 0.000239034
*RES
1 *1424:ZN *1426:A1 11.052 
*END

*D_NET *181 0.00405378
*CONN
*I *1426:A2 I *D gf180mcu_fd_sc_mcu7t5v0__nand2_1
*I *1425:ZN O *D gf180mcu_fd_sc_mcu7t5v0__nand3_1
*CAP
1 *1426:A2 0.000842204
2 *1425:ZN 0.000842204
3 *1426:A2 *1424:A1 1.67499e-05
4 *1426:A2 *1430:A1 0.000178
5 *1426:A2 *1473:B2 0.00071864
6 *1426:A2 *1627:B2 4.50449e-05
7 *1426:A2 *1628:A2 0.000150565
8 *1426:A2 *417:20 3.07734e-05
9 *1426:A2 *479:10 6.12449e-05
10 *1426:A2 *479:14 0.00070767
11 *1426:A2 *479:20 9.69812e-05
12 *1418:A2 *1426:A2 0
13 *1419:I1 *1426:A2 2.72985e-05
14 *161:84 *1426:A2 0.0002451
15 *173:41 *1426:A2 9.13064e-05
*RES
1 *1425:ZN *1426:A2 26.892 
*END

*D_NET *182 0.00423696
*CONN
*I *1427:I1 I *D gf180mcu_fd_sc_mcu7t5v0__mux2_2
*I *1426:ZN O *D gf180mcu_fd_sc_mcu7t5v0__nand2_1
*CAP
1 *1427:I1 0.00143373
2 *1426:ZN 0.00143373
3 *1427:I1 *1420:B2 0.000203975
4 *1427:I1 *1427:S 0.000164594
5 *1427:I1 *1676:A1 4.19077e-05
6 *1427:I1 *1783:I 0
7 *1427:I1 *445:10 0.000140935
8 *1427:I1 *445:16 0.00014396
9 *1427:I1 *495:10 8.60362e-05
10 *1419:I1 *1427:I1 0
11 *1736:D *1427:I1 0
12 *1749:D *1427:I1 0
13 *1750:D *1427:I1 0.000188189
14 *121:12 *1427:I1 0
15 *161:84 *1427:I1 8.22059e-05
16 *173:16 *1427:I1 0.000113362
17 *173:30 *1427:I1 0.000204347
*RES
1 *1426:ZN *1427:I1 28.26 
*END

*D_NET *183 0.000494804
*CONN
*I *1430:A1 I *D gf180mcu_fd_sc_mcu7t5v0__nand2_1
*I *1428:ZN O *D gf180mcu_fd_sc_mcu7t5v0__oai221_1
*CAP
1 *1430:A1 0.000106221
2 *1428:ZN 0.000106221
3 *1430:A1 *479:20 4.11798e-05
4 *1418:A1 *1430:A1 2.48687e-05
5 *1419:I1 *1430:A1 3.83136e-05
6 *1426:A2 *1430:A1 0.000178
*RES
1 *1428:ZN *1430:A1 18.988 
*END

*D_NET *184 0.00481774
*CONN
*I *1430:A2 I *D gf180mcu_fd_sc_mcu7t5v0__nand2_1
*I *1429:ZN O *D gf180mcu_fd_sc_mcu7t5v0__nand3_1
*CAP
1 *1430:A2 0.000364901
2 *1429:ZN 0.000364901
3 *1430:A2 *1431:I1 3.49696e-05
4 *1430:A2 *1469:A1 0.000653985
5 *1430:A2 *1776:I 0.00115289
6 *1430:A2 *1807:I 0.00222709
7 *1430:A2 *455:40 0
8 *1418:A2 *1430:A2 1.90059e-05
*RES
1 *1429:ZN *1430:A2 25.98 
*END

*D_NET *185 0.00374559
*CONN
*I *1431:I1 I *D gf180mcu_fd_sc_mcu7t5v0__mux2_2
*I *1430:ZN O *D gf180mcu_fd_sc_mcu7t5v0__nand2_1
*CAP
1 *1431:I1 0.00105068
2 *1430:ZN 0.00105068
3 *1431:I1 *1416:A2 1.37841e-05
4 *1431:I1 *1509:I0 0.000126956
5 *1431:I1 *1649:B 0.000209318
6 *1431:I1 *1680:A1 0.000142809
7 *1431:I1 *389:87 0.000703343
8 *1431:I1 *455:40 0.000105823
9 *1431:I1 *479:20 6.12293e-05
10 *1431:I1 *479:26 3.56568e-05
11 *1419:I1 *1431:I1 0.000194455
12 *1423:I1 *1431:I1 1.58892e-05
13 *1430:A2 *1431:I1 3.49696e-05
*RES
1 *1430:ZN *1431:I1 27.044 
*END

*D_NET *186 0.00356657
*CONN
*I *1433:A3 I *D gf180mcu_fd_sc_mcu7t5v0__nand3_1
*I *1479:A3 I *D gf180mcu_fd_sc_mcu7t5v0__or3_1
*I *1432:ZN O *D gf180mcu_fd_sc_mcu7t5v0__oai21_1
*CAP
1 *1433:A3 0
2 *1479:A3 0.000570737
3 *1432:ZN 1.22363e-05
4 *186:8 0.000582973
5 *1479:A3 *1401:A2 0
6 *1479:A3 *1405:A2 0
7 *1479:A3 *1477:A2 0.000367372
8 *1479:A3 *187:10 8.84331e-05
9 *1479:A3 *465:44 9.52854e-05
10 *1479:A3 *502:31 7.58017e-05
11 *186:8 *1448:A2 0.000342528
12 *186:8 *187:10 0.000365142
13 *186:8 *465:44 0.000712243
14 *1802:I *1479:A3 4.07251e-05
15 *1835:I *1479:A3 1.99058e-05
16 *155:25 *1479:A3 0.000188496
17 *163:10 *1479:A3 0.000104697
*RES
1 *1432:ZN *186:8 10.748 
2 *186:8 *1479:A3 13.56 
3 *186:8 *1433:A3 9 
*END

*D_NET *187 0.00957759
*CONN
*I *1448:A2 I *D gf180mcu_fd_sc_mcu7t5v0__nand3_1
*I *1440:A1 I *D gf180mcu_fd_sc_mcu7t5v0__oai21_1
*I *1438:A2 I *D gf180mcu_fd_sc_mcu7t5v0__nand3_1
*I *1446:A2 I *D gf180mcu_fd_sc_mcu7t5v0__nand3_1
*I *1433:ZN O *D gf180mcu_fd_sc_mcu7t5v0__nand3_1
*CAP
1 *1448:A2 9.87337e-05
2 *1440:A1 4.97536e-05
3 *1438:A2 0.000466829
4 *1446:A2 0.000229274
5 *1433:ZN 5.65922e-05
6 *187:25 0.00125343
7 *187:12 0.000966121
8 *187:10 0.000155326
9 *1438:A2 *1442:C 0.00012749
10 *1438:A2 *327:14 0.000532166
11 *1438:A2 *339:22 7.43773e-06
12 *1446:A2 *1446:A3 4.89046e-05
13 *1446:A2 *191:14 5.75752e-06
14 *1446:A2 *366:22 2.23623e-05
15 *1448:A2 *191:27 0.00143693
16 *1448:A2 *191:46 0.000195096
17 *1448:A2 *465:44 0.000656364
18 *187:10 *1446:A3 1.38099e-05
19 *187:10 *191:14 2.19964e-05
20 *187:10 *191:27 0.000316176
21 *187:25 *1437:A2 4.58938e-05
22 *187:25 *1440:A2 0.000292783
23 *187:25 *188:31 1.51584e-05
24 *187:25 *191:14 7.34731e-05
25 *187:25 *339:22 0.000609642
26 *187:25 *366:22 7.45328e-07
27 *187:25 *366:37 2.23598e-06
28 *1411:A1 *1438:A2 6.57407e-05
29 *1411:A1 *1440:A1 0.000164604
30 *1411:A1 *187:25 1.95806e-05
31 *1432:A2 *187:25 0.000215331
32 *1435:A1 *1438:A2 0.000168421
33 *1437:A1 *187:25 0
34 *1442:A1 *1438:A2 9.74197e-05
35 *1479:A3 *187:10 8.84331e-05
36 *1685:S *1438:A2 8.69862e-05
37 *1751:D *1438:A2 8.53637e-06
38 *138:34 *1438:A2 0
39 *138:34 *187:25 0
40 *150:43 *1438:A2 0.00012749
41 *159:28 *187:10 2.89386e-05
42 *165:41 *1438:A2 9.79547e-05
43 *186:8 *1448:A2 0.000342528
44 *186:8 *187:10 0.000365142
*RES
1 *1433:ZN *187:10 10.368 
2 *187:10 *187:12 4.5 
3 *187:12 *1446:A2 5.868 
4 *187:12 *187:25 5.928 
5 *187:25 *1438:A2 18.288 
6 *187:25 *1440:A1 5.26 
7 *187:10 *1448:A2 13.332 
*END

*D_NET *188 0.00605829
*CONN
*I *1440:A2 I *D gf180mcu_fd_sc_mcu7t5v0__oai21_1
*I *1437:A2 I *D gf180mcu_fd_sc_mcu7t5v0__oai211_1
*I *1439:A4 I *D gf180mcu_fd_sc_mcu7t5v0__nand4_1
*I *1434:ZN O *D gf180mcu_fd_sc_mcu7t5v0__nor2_1
*CAP
1 *1440:A2 0.00012844
2 *1437:A2 0.000249086
3 *1439:A4 0
4 *1434:ZN 0.000386754
5 *188:31 0.000602524
6 *188:18 0.000611752
7 *1440:A2 *1399:C 1.7295e-05
8 *188:18 *1402:A1 0.000142809
9 *188:18 *1743:CLK 9.86651e-06
10 *188:18 *1779:I 0
11 *188:18 *389:29 0.00017448
12 *188:18 *463:103 5.35554e-05
13 *188:31 *1402:A1 0.000111039
14 *188:31 *1857:I 0.000324233
15 *188:31 *463:103 0.000114952
16 *1411:A1 *1440:A2 3.28005e-05
17 *1435:A1 *1437:A2 0.000190521
18 *1435:A1 *188:31 7.27459e-05
19 *1476:A1 *188:18 0.000162981
20 *138:21 *188:18 0.000250376
21 *138:21 *188:31 0.000394625
22 *138:34 *188:31 0.000299332
23 *139:8 *188:18 0.000378601
24 *139:12 *188:18 0.000152452
25 *147:10 *188:18 5.62475e-05
26 *147:23 *1440:A2 0.000460436
27 *147:23 *188:18 0.000102094
28 *160:14 *1440:A2 0.000142727
29 *162:29 *188:18 7.8226e-05
30 *165:41 *188:31 3.50638e-06
31 *187:25 *1437:A2 4.58938e-05
32 *187:25 *1440:A2 0.000292783
33 *187:25 *188:31 1.51584e-05
*RES
1 *1434:ZN *188:18 22.408 
2 *188:18 *1439:A4 9 
3 *188:18 *188:31 7.388 
4 *188:31 *1437:A2 6.4 
5 *188:31 *1440:A2 15.476 
*END

*D_NET *189 0.00850953
*CONN
*I *1465:A2 I *D gf180mcu_fd_sc_mcu7t5v0__nor3_1
*I *1473:A2 I *D gf180mcu_fd_sc_mcu7t5v0__oai32_1
*I *1436:I I *D gf180mcu_fd_sc_mcu7t5v0__clkinv_1
*I *1440:B I *D gf180mcu_fd_sc_mcu7t5v0__oai21_1
*I *1435:ZN O *D gf180mcu_fd_sc_mcu7t5v0__nand2_1
*CAP
1 *1465:A2 5.79579e-05
2 *1473:A2 0.000108877
3 *1436:I 0.000112795
4 *1440:B 3.33e-05
5 *1435:ZN 1.63015e-05
6 *189:32 0.000433027
7 *189:17 0.000871667
8 *189:6 0.000542281
9 *1436:I *1459:A2 0.000260565
10 *1436:I *1773:I 0.000170883
11 *1436:I *389:115 0.000104697
12 *1440:B *339:22 0.000251045
13 *1465:A2 *1458:B 7.34268e-05
14 *1465:A2 *1460:B 0.000117876
15 *1465:A2 *1471:A1 0.000360959
16 *1473:A2 *1384:I 0.000333372
17 *1473:A2 *1390:A3 4.58601e-06
18 *1473:A2 *1471:A1 1.47007e-05
19 *1473:A2 *370:32 5.87561e-06
20 *1473:A2 *371:31 7.83779e-05
21 *1473:A2 *372:29 0.00020862
22 *189:6 *339:22 7.3227e-05
23 *189:17 *1441:A2 6.68508e-05
24 *189:17 *194:8 0.000166214
25 *189:17 *365:12 0.000350837
26 *189:17 *389:115 4.38336e-05
27 *189:17 *404:10 0.000204487
28 *189:17 *404:16 0.000279408
29 *189:32 *1458:B 7.25202e-05
30 *189:32 *1459:A1 2.29887e-05
31 *189:32 *1460:B 3.08902e-05
32 *189:32 *1471:A1 0.000209085
33 *189:32 *209:12 0.000266704
34 *189:32 *370:32 1.71936e-06
35 *189:32 *404:10 0.000194848
36 *189:32 *468:38 0.000154438
37 *1411:A1 *1440:B 0.000113809
38 *1411:A1 *189:6 2.03965e-05
39 *160:14 *189:17 0
40 *160:14 *189:32 0
41 *165:41 *1473:A2 0.000199823
42 *165:41 *189:17 0.00187626
43 *165:41 *189:32 0
*RES
1 *1435:ZN *189:6 4.728 
2 *189:6 *1440:B 5.184 
3 *189:6 *189:17 10.96 
4 *189:17 *1436:I 10.596 
5 *189:17 *189:32 7.236 
6 *189:32 *1473:A2 15.324 
7 *189:32 *1465:A2 5.488 
*END

*D_NET *190 0.00268942
*CONN
*I *1458:A1 I *D gf180mcu_fd_sc_mcu7t5v0__aoi211_1
*I *1461:A1 I *D gf180mcu_fd_sc_mcu7t5v0__aoi21_1
*I *1436:ZN O *D gf180mcu_fd_sc_mcu7t5v0__clkinv_1
*CAP
1 *1458:A1 0.000174728
2 *1461:A1 0
3 *1436:ZN 0.000104126
4 *190:8 0.000278854
5 *1458:A1 *1623:A1 0.000576782
6 *1458:A1 *1797:I 2.43737e-05
7 *1458:A1 *191:56 2.36102e-05
8 *1458:A1 *208:31 7.54507e-05
9 *1458:A1 *369:22 0.000251554
10 *1458:A1 *468:38 0.000793956
11 *190:8 *1773:I 3.94333e-05
12 *190:8 *208:31 5.66381e-05
13 *1754:D *1458:A1 0.000144931
14 *160:14 *1458:A1 1.95391e-05
15 *160:14 *190:8 0.000125442
*RES
1 *1436:ZN *190:8 9.988 
2 *190:8 *1461:A1 9 
3 *190:8 *1458:A1 12.192 
*END

*D_NET *191 0.017941
*CONN
*I *1454:B I *D gf180mcu_fd_sc_mcu7t5v0__aoi21_1
*I *1468:B I *D gf180mcu_fd_sc_mcu7t5v0__aoi21_1
*I *1438:A3 I *D gf180mcu_fd_sc_mcu7t5v0__nand3_1
*I *1460:B I *D gf180mcu_fd_sc_mcu7t5v0__aoi21_1
*I *1448:A3 I *D gf180mcu_fd_sc_mcu7t5v0__nand3_1
*I *1446:A3 I *D gf180mcu_fd_sc_mcu7t5v0__nand3_1
*I *1437:ZN O *D gf180mcu_fd_sc_mcu7t5v0__oai211_1
*CAP
1 *1454:B 0
2 *1468:B 4.87491e-05
3 *1438:A3 0.000219142
4 *1460:B 7.71806e-06
5 *1448:A3 1.87654e-05
6 *1446:A3 0.000231834
7 *1437:ZN 0.000348839
8 *191:60 0.000763503
9 *191:56 0.00130627
10 *191:46 0.00143756
11 *191:27 0.00117089
12 *191:14 0.00101612
13 *1438:A3 *1465:A3 0.000298176
14 *1438:A3 *327:14 0.00247206
15 *1438:A3 *452:14 0.00172718
16 *1438:A3 *452:27 0.000227493
17 *1446:A3 *1401:A2 1.09493e-05
18 *1448:A3 *1452:A1 2.96621e-05
19 *1448:A3 *194:18 7.83779e-05
20 *1460:B *1458:B 0.000139247
21 *1468:B *1390:A3 3.73535e-05
22 *1468:B *1390:A4 8.55242e-05
23 *1468:B *369:22 0.000471624
24 *191:14 *462:10 0.000126319
25 *191:14 *465:44 9.39206e-05
26 *191:27 *1445:B 3.78329e-05
27 *191:27 *1447:C 5.35754e-05
28 *191:27 *1453:A1 3.80424e-06
29 *191:46 *1382:I 1.25589e-05
30 *191:46 *1453:A1 7.03255e-06
31 *191:46 *1454:A1 1.5015e-05
32 *191:46 *1455:A1 8.0352e-06
33 *191:46 *1457:A1 3.80424e-06
34 *191:46 *1610:A1 1.35785e-05
35 *191:46 *1610:B2 2.6126e-05
36 *191:46 *1613:A2 0
37 *191:46 *1621:A2 1.5015e-05
38 *191:46 *367:51 4.04924e-06
39 *191:46 *453:34 0.000195096
40 *191:46 *453:46 0.00036911
41 *191:46 *465:25 0.000836935
42 *191:46 *465:44 0.000117977
43 *191:46 *468:38 6.74393e-05
44 *191:56 *1610:A1 2.66534e-05
45 *191:56 *369:22 0.000190317
46 *1433:A2 *191:14 6.72004e-05
47 *1437:A1 *191:14 2.6126e-05
48 *1437:C *191:14 5.76749e-06
49 *1446:A2 *1446:A3 4.89046e-05
50 *1446:A2 *191:14 5.75752e-06
51 *1448:A1 *191:46 0.000155851
52 *1448:A2 *191:27 0.00143693
53 *1448:A2 *191:46 0.000195096
54 *1458:A1 *191:56 2.36102e-05
55 *1465:A2 *1460:B 0.000117876
56 *1718:D *191:46 8.22908e-06
57 *1723:D *1468:B 8.38447e-05
58 *1802:I *1446:A3 0
59 *159:28 *1446:A3 2.17963e-05
60 *159:28 *191:14 5.76063e-06
61 *160:14 *1468:B 0.000673547
62 *160:14 *191:56 0.000237111
63 *187:10 *1446:A3 1.38099e-05
64 *187:10 *191:14 2.19964e-05
65 *187:10 *191:27 0.000316176
66 *187:25 *191:14 7.34731e-05
67 *189:32 *1460:B 3.08902e-05
*RES
1 *1437:ZN *191:14 7.312 
2 *191:14 *1446:A3 6.02 
3 *191:14 *191:27 9.136 
4 *191:27 *1448:A3 9.228 
5 *191:27 *191:46 10.732 
6 *191:46 *191:56 17.756 
7 *191:56 *191:60 6.856 
8 *191:60 *1460:B 13.88 
9 *191:60 *1438:A3 20.34 
10 *191:56 *1468:B 10.976 
11 *191:46 *1454:B 4.5 
*END

*D_NET *192 0.00182683
*CONN
*I *1442:C I *D gf180mcu_fd_sc_mcu7t5v0__oai211_1
*I *1438:ZN O *D gf180mcu_fd_sc_mcu7t5v0__nand3_1
*CAP
1 *1442:C 0.000140734
2 *1438:ZN 0.000140734
3 *1442:C *1438:A1 0.000494209
4 *1442:C *365:16 0.000249089
5 *1438:A2 *1442:C 0.00012749
6 *150:43 *1442:C 0.000674579
7 *171:8 *1442:C 0
*RES
1 *1438:ZN *1442:C 11.508 
*END

*D_NET *193 0.00197022
*CONN
*I *1857:I I *D gf180mcu_fd_sc_mcu7t5v0__buf_2
*I *1439:ZN O *D gf180mcu_fd_sc_mcu7t5v0__nand4_1
*CAP
1 *1857:I 0.00015052
2 *1439:ZN 0.00015052
3 *1857:I *1399:C 0.000960109
4 *1857:I *194:8 0.000220344
5 *1857:I *463:103 8.62813e-05
6 *160:14 *1857:I 7.82111e-05
7 *165:41 *1857:I 0
8 *188:31 *1857:I 0.000324233
*RES
1 *1439:ZN *1857:I 21.116 
*END

*D_NET *194 0.00657035
*CONN
*I *1441:A2 I *D gf180mcu_fd_sc_mcu7t5v0__nand2_1
*I *1453:A1 I *D gf180mcu_fd_sc_mcu7t5v0__aoi21_1
*I *1445:B I *D gf180mcu_fd_sc_mcu7t5v0__oai21_1
*I *1440:ZN O *D gf180mcu_fd_sc_mcu7t5v0__oai21_1
*CAP
1 *1441:A2 5.16193e-05
2 *1453:A1 0.000266881
3 *1445:B 0.000284608
4 *1440:ZN 0.000357983
5 *194:18 0.00135732
6 *194:8 0.00121543
7 *1441:A2 *1442:B 6.12449e-05
8 *1445:B *1452:A2 2.13476e-05
9 *1445:B *1672:B2 0.000106188
10 *1453:A1 *1447:B1 0
11 *1453:A1 *1452:A1 2.6126e-05
12 *1453:A1 *1452:B 2.6126e-05
13 *1453:A1 *1453:A2 1.02578e-05
14 *1453:A1 *1453:B 7.22348e-05
15 *1453:A1 *404:16 7.33011e-05
16 *194:8 *1442:B 0.000307332
17 *194:8 *365:12 9.53857e-05
18 *194:18 *1392:A2 1.2018e-05
19 *194:18 *1452:A1 0.000127736
20 *194:18 *365:16 0.000232746
21 *194:18 *452:55 0
22 *1392:A1 *194:18 8.30769e-05
23 *1413:B *194:18 7.83779e-05
24 *1441:A1 *194:18 3.78203e-05
25 *1448:A3 *194:18 7.83779e-05
26 *1857:I *194:8 0.000220344
27 *142:21 *194:18 5.02133e-05
28 *149:12 *194:18 0.000717308
29 *150:6 *194:18 1.45716e-05
30 *152:20 *194:18 9.76485e-05
31 *160:14 *1441:A2 3.50686e-05
32 *160:14 *194:8 0.000123063
33 *165:41 *194:8 3.72633e-05
34 *171:8 *194:18 9.59897e-06
35 *189:17 *1441:A2 6.68508e-05
36 *189:17 *194:8 0.000166214
37 *191:27 *1445:B 3.78329e-05
38 *191:27 *1453:A1 3.80424e-06
39 *191:46 *1453:A1 7.03255e-06
*RES
1 *1440:ZN *194:8 12.572 
2 *194:8 *194:18 15.764 
3 *194:18 *1445:B 10.9 
4 *194:18 *1453:A1 10.824 
5 *194:8 *1441:A2 9.684 
*END

*D_NET *195 0.000608038
*CONN
*I *1442:B I *D gf180mcu_fd_sc_mcu7t5v0__oai211_1
*I *1441:ZN O *D gf180mcu_fd_sc_mcu7t5v0__nand2_1
*CAP
1 *1442:B 7.46126e-05
2 *1441:ZN 7.46126e-05
3 *1441:A2 *1442:B 6.12449e-05
4 *160:14 *1442:B 9.02358e-05
5 *194:8 *1442:B 0.000307332
*RES
1 *1441:ZN *1442:B 18.988 
*END

*D_NET *196 0.00190059
*CONN
*I *1450:A2 I *D gf180mcu_fd_sc_mcu7t5v0__nand2_1
*I *1444:I I *D gf180mcu_fd_sc_mcu7t5v0__clkinv_1
*I *1443:ZN O *D gf180mcu_fd_sc_mcu7t5v0__nand2_1
*CAP
1 *1450:A2 0.00016918
2 *1444:I 5.00539e-05
3 *1443:ZN 0
4 *196:4 0.000219234
5 *1444:I *1443:A1 0.000260709
6 *1450:A2 *1382:I 3.16765e-06
7 *1450:A2 *1443:A2 0.000123241
8 *1450:A2 *1839:I 0.00045797
9 *1450:A2 *197:25 2.10439e-05
10 *1450:A2 *404:16 0.000518419
11 *1450:A1 *1450:A2 2.6126e-05
12 *1753:D *1444:I 5.14456e-05
*RES
1 *1443:ZN *196:4 4.5 
2 *196:4 *1444:I 14.184 
3 *196:4 *1450:A2 15.628 
*END

*D_NET *197 0.00484728
*CONN
*I *1449:A2 I *D gf180mcu_fd_sc_mcu7t5v0__nand2_1
*I *1457:A3 I *D gf180mcu_fd_sc_mcu7t5v0__and3_1
*I *1447:B1 I *D gf180mcu_fd_sc_mcu7t5v0__oai221_1
*I *1444:ZN O *D gf180mcu_fd_sc_mcu7t5v0__clkinv_1
*CAP
1 *1449:A2 0
2 *1457:A3 0.000120191
3 *1447:B1 0.000138007
4 *1444:ZN 9.04411e-05
5 *197:25 0.000363035
6 *197:8 0.000471292
7 *1447:B1 *1368:I 0.00104589
8 *1447:B1 *1447:A2 0.000123745
9 *1447:B1 *1452:A2 0.000147092
10 *1447:B1 *1672:B2 2.64841e-05
11 *1447:B1 *501:10 0.000261992
12 *1457:A3 *1382:I 8.3622e-05
13 *1457:A3 *1457:A1 0.00011914
14 *1457:A3 *1839:I 8.65967e-06
15 *1457:A3 *367:51 0.000155147
16 *1457:A3 *460:66 0.000251148
17 *197:25 *1368:I 0.000576193
18 *197:25 *1443:A2 6.70604e-05
19 *197:25 *1451:A2 0.000140167
20 *197:25 *1839:I 0.000119807
21 *197:25 *367:31 0.000156927
22 *1450:A1 *197:25 0.000258057
23 *1450:A2 *197:25 2.10439e-05
24 *1453:A1 *1447:B1 0
25 *1718:D *1457:A3 2.303e-05
26 *1752:D *197:8 1.47787e-05
27 *1753:D *197:8 6.43274e-05
*RES
1 *1444:ZN *197:8 9.532 
2 *197:8 *1447:B1 12.268 
3 *197:8 *197:25 7.616 
4 *197:25 *1457:A3 14.792 
5 *197:25 *1449:A2 4.5 
*END

*D_NET *198 0.000586251
*CONN
*I *1447:B2 I *D gf180mcu_fd_sc_mcu7t5v0__oai221_1
*I *1445:ZN O *D gf180mcu_fd_sc_mcu7t5v0__oai21_1
*CAP
1 *1447:B2 7.91298e-05
2 *1445:ZN 7.91298e-05
3 *1447:B2 *1443:A1 0.000314277
4 *1447:B2 *366:6 7.8137e-05
5 *1447:B2 *366:15 5.76373e-06
6 *1447:B2 *366:22 2.98136e-05
*RES
1 *1445:ZN *1447:B2 10.064 
*END

*D_NET *199 0.00106846
*CONN
*I *1447:C I *D gf180mcu_fd_sc_mcu7t5v0__oai221_1
*I *1446:ZN O *D gf180mcu_fd_sc_mcu7t5v0__nand3_1
*CAP
1 *1447:C 0.00022022
2 *1446:ZN 0.00022022
3 *1447:C *1443:A1 0.000372368
4 *1447:C *1672:B2 3.88601e-05
5 *1447:C *365:48 8.50647e-05
6 *1447:A1 *1447:C 7.81495e-05
7 *191:27 *1447:C 5.35754e-05
*RES
1 *1446:ZN *1447:C 19.976 
*END

*D_NET *200 0.000447693
*CONN
*I *1452:B I *D gf180mcu_fd_sc_mcu7t5v0__oai21_1
*I *1448:ZN O *D gf180mcu_fd_sc_mcu7t5v0__nand3_1
*CAP
1 *1452:B 8.75261e-05
2 *1448:ZN 8.75261e-05
3 *1452:B *1452:A1 0.000147316
4 *1452:B *404:16 9.91989e-05
5 *1453:A1 *1452:B 2.6126e-05
*RES
1 *1448:ZN *1452:B 9.988 
*END

*D_NET *201 0.00445308
*CONN
*I *1454:A2 I *D gf180mcu_fd_sc_mcu7t5v0__aoi21_1
*I *1451:A1 I *D gf180mcu_fd_sc_mcu7t5v0__nand2_1
*I *1449:ZN O *D gf180mcu_fd_sc_mcu7t5v0__nand2_1
*CAP
1 *1454:A2 0.000179494
2 *1451:A1 0.000175236
3 *1449:ZN 0
4 *201:4 0.00035473
5 *1451:A1 *1368:I 0.000582344
6 *1451:A1 *1391:A1 2.6126e-05
7 *1451:A1 *1451:A2 0.000134066
8 *1451:A1 *1614:A2 0.00022449
9 *1451:A1 *460:47 0.000339999
10 *1451:A1 *460:66 0.00016754
11 *1454:A2 *1368:I 0.000262797
12 *1454:A2 *1391:A1 0.000700078
13 *1454:A2 *1610:A1 0.000580793
14 *1454:A2 *368:12 0.000341626
15 *1454:A2 *368:14 8.75225e-05
16 *1454:A2 *368:20 0.000208791
17 *1391:A3 *1454:A2 1.91917e-06
18 *1394:A4 *1454:A2 8.55327e-05
*RES
1 *1449:ZN *201:4 4.5 
2 *201:4 *1451:A1 7.312 
3 *201:4 *1454:A2 17.148 
*END

*D_NET *202 0.000753968
*CONN
*I *1451:A2 I *D gf180mcu_fd_sc_mcu7t5v0__nand2_1
*I *1450:ZN O *D gf180mcu_fd_sc_mcu7t5v0__nand2_1
*CAP
1 *1451:A2 0.000121206
2 *1450:ZN 0.000121206
3 *1451:A2 *1368:I 1.7642e-05
4 *1451:A2 *1443:A1 1.44832e-05
5 *1451:A2 *1443:A2 5.78939e-05
6 *1451:A2 *367:31 0.000147305
7 *1451:A1 *1451:A2 0.000134066
8 *197:25 *1451:A2 0.000140167
*RES
1 *1450:ZN *1451:A2 10.292 
*END

*D_NET *203 0.00162907
*CONN
*I *1453:A2 I *D gf180mcu_fd_sc_mcu7t5v0__aoi21_1
*I *1451:ZN O *D gf180mcu_fd_sc_mcu7t5v0__nand2_1
*CAP
1 *1453:A2 0.000117363
2 *1451:ZN 0.000117363
3 *1453:A2 *1443:A1 0.000258423
4 *1453:A2 *404:16 0.000290354
5 *1453:A2 *460:34 0.000550902
6 *1453:A1 *1453:A2 1.02578e-05
7 *1753:D *1453:A2 0.000284411
*RES
1 *1451:ZN *1453:A2 20.28 
*END

*D_NET *204 0.000409091
*CONN
*I *1453:B I *D gf180mcu_fd_sc_mcu7t5v0__aoi21_1
*I *1452:ZN O *D gf180mcu_fd_sc_mcu7t5v0__oai21_1
*CAP
1 *1453:B 4.1892e-05
2 *1452:ZN 4.1892e-05
3 *1453:B *1452:A2 0.000253072
4 *1453:A1 *1453:B 7.22348e-05
*RES
1 *1452:ZN *1453:B 9.684 
*END

*D_NET *205 0.000572856
*CONN
*I *1455:A2 I *D gf180mcu_fd_sc_mcu7t5v0__nor2_1
*I *1454:ZN O *D gf180mcu_fd_sc_mcu7t5v0__aoi21_1
*CAP
1 *1455:A2 6.52178e-05
2 *1454:ZN 6.52178e-05
3 *1455:A2 *1454:A1 0.000135056
4 *1455:A2 *1455:A1 0.000246974
5 *1455:A2 *1458:C 4.50449e-05
6 *1455:A2 *1621:A2 1.53449e-05
*RES
1 *1454:ZN *1455:A2 9.912 
*END

*D_NET *206 0.000224366
*CONN
*I *1458:C I *D gf180mcu_fd_sc_mcu7t5v0__aoi211_1
*I *1455:ZN O *D gf180mcu_fd_sc_mcu7t5v0__nor2_1
*CAP
1 *1458:C 8.44645e-05
2 *1455:ZN 8.44645e-05
3 *1458:C *1460:A1 0
4 *1458:C *1621:A2 1.03922e-05
5 *1455:A2 *1458:C 4.50449e-05
*RES
1 *1455:ZN *1458:C 9.684 
*END

*D_NET *207 0.00746731
*CONN
*I *1458:B I *D gf180mcu_fd_sc_mcu7t5v0__aoi211_1
*I *1456:ZN O *D gf180mcu_fd_sc_mcu7t5v0__nor2_1
*CAP
1 *1458:B 0.000635815
2 *1456:ZN 0.000635815
3 *1458:B *1460:A1 0.00116241
4 *1458:B *1463:A2 0.000277273
5 *1458:B *1464:A2 1.20079e-05
6 *1458:B *1466:A2 0
7 *1458:B *1471:A1 0.000527646
8 *1458:B *1471:A2 0.000147305
9 *1458:B *1471:B2 1.15275e-05
10 *1458:B *1621:A2 0.000466213
11 *1458:B *1689:CLK 0.000144093
12 *1458:B *369:14 2.23477e-05
13 *1458:B *369:16 2.23385e-05
14 *1458:B *452:89 7.59985e-05
15 *1458:B *468:38 0.00304132
16 *1460:B *1458:B 0.000139247
17 *1465:A2 *1458:B 7.34268e-05
18 *189:32 *1458:B 7.25202e-05
*RES
1 *1456:ZN *1458:B 20.324 
*END

*D_NET *208 0.00750424
*CONN
*I *1467:A4 I *D gf180mcu_fd_sc_mcu7t5v0__nand4_1
*I *1461:A2 I *D gf180mcu_fd_sc_mcu7t5v0__aoi21_1
*I *1459:A2 I *D gf180mcu_fd_sc_mcu7t5v0__nand2_1
*I *1458:A2 I *D gf180mcu_fd_sc_mcu7t5v0__aoi211_1
*I *1457:Z O *D gf180mcu_fd_sc_mcu7t5v0__and3_1
*CAP
1 *1467:A4 0.000276145
2 *1461:A2 0
3 *1459:A2 0.000249696
4 *1458:A2 0
5 *1457:Z 0.000477761
6 *208:31 0.000507446
7 *208:23 0.000696713
8 *208:16 0.000640579
9 *1459:A2 *1460:A1 0
10 *1459:A2 *1462:B2 0.000197659
11 *1459:A2 *1773:I 1.44832e-05
12 *1459:A2 *369:16 0
13 *1459:A2 *389:115 4.05323e-05
14 *1467:A4 *1390:A1 0.000206403
15 *1467:A4 *1467:A2 0.000206333
16 *1467:A4 *1471:A1 3.50929e-06
17 *1467:A4 *1623:A1 6.97569e-05
18 *1467:A4 *404:59 0.0001565
19 *1467:A4 *468:38 3.28878e-05
20 *208:16 *1611:A2 8.33302e-05
21 *208:16 *1612:B2 0.000192769
22 *208:16 *1615:A2 7.85437e-06
23 *208:16 *1797:I 0.000321941
24 *208:16 *453:34 0.000201258
25 *208:16 *453:46 5.28542e-05
26 *208:16 *465:12 0.000456973
27 *208:16 *466:10 2.73998e-05
28 *208:16 *466:18 0.00081152
29 *208:23 *1390:A1 6.33102e-05
30 *208:23 *1618:A1 1.67347e-05
31 *208:23 *1623:A1 0.000136932
32 *208:23 *1797:I 0.000290401
33 *208:23 *369:28 5.76373e-06
34 *208:23 *466:18 8.0934e-05
35 *208:31 *1460:A1 1.18344e-05
36 *208:31 *1623:A2 1.11891e-05
37 *208:31 *1773:I 0.000346641
38 *208:31 *369:22 1.40559e-05
39 *1436:I *1459:A2 0.000260565
40 *1458:A1 *208:31 7.54507e-05
41 *1718:D *208:16 0.000144
42 *1723:D *208:31 1.59984e-05
43 *160:14 *1467:A4 4.1487e-05
44 *190:8 *208:31 5.66381e-05
*RES
1 *1457:Z *208:16 18.972 
2 *208:16 *1458:A2 4.5 
3 *208:16 *208:23 1.748 
4 *208:23 *208:31 11.432 
5 *208:31 *1459:A2 7.084 
6 *208:31 *1461:A2 4.5 
7 *208:23 *1467:A4 16.16 
*END

*D_NET *209 0.00189345
*CONN
*I *1465:A3 I *D gf180mcu_fd_sc_mcu7t5v0__nor3_1
*I *1460:A2 I *D gf180mcu_fd_sc_mcu7t5v0__aoi21_1
*I *1459:ZN O *D gf180mcu_fd_sc_mcu7t5v0__nand2_1
*CAP
1 *1465:A3 9.77892e-05
2 *1460:A2 0
3 *1459:ZN 5.98918e-05
4 *209:12 0.000157681
5 *1465:A3 *1462:B2 0.000132786
6 *1465:A3 *210:8 0.000289634
7 *1465:A3 *369:14 1.24603e-05
8 *1465:A3 *369:16 9.88736e-06
9 *1465:A3 *452:27 0.000305938
10 *209:12 *1459:A1 8.30371e-05
11 *209:12 *1462:B2 8.97311e-05
12 *209:12 *369:16 8.97311e-05
13 *1438:A3 *1465:A3 0.000298176
14 *189:32 *209:12 0.000266704
*RES
1 *1459:ZN *209:12 14.716 
2 *209:12 *1460:A2 4.5 
3 *209:12 *1465:A3 15.324 
*END

*D_NET *210 0.00315528
*CONN
*I *1463:A2 I *D gf180mcu_fd_sc_mcu7t5v0__nor2_1
*I *1462:B1 I *D gf180mcu_fd_sc_mcu7t5v0__oai22_1
*I *1460:ZN O *D gf180mcu_fd_sc_mcu7t5v0__aoi21_1
*CAP
1 *1463:A2 0.000145624
2 *1462:B1 4.5297e-05
3 *1460:ZN 6.60224e-05
4 *210:8 0.000256944
5 *1462:B1 *1676:A2 0
6 *1462:B1 *452:27 0.000335667
7 *1463:A2 *1471:A1 0.000645245
8 *1463:A2 *369:14 0.000110254
9 *1463:A2 *452:27 0.000287898
10 *210:8 *369:14 0.000394137
11 *1458:B *1463:A2 0.000277273
12 *1465:A3 *210:8 0.000289634
13 *1469:A2 *1462:B1 0.000279004
14 *1755:D *1462:B1 2.22758e-05
*RES
1 *1460:ZN *210:8 10.14 
2 *210:8 *1462:B1 10.064 
3 *210:8 *1463:A2 11.584 
*END

*D_NET *211 0.0012671
*CONN
*I *1462:B2 I *D gf180mcu_fd_sc_mcu7t5v0__oai22_1
*I *1461:ZN O *D gf180mcu_fd_sc_mcu7t5v0__aoi21_1
*CAP
1 *1462:B2 0.000363039
2 *1461:ZN 0.000363039
3 *1462:B2 *369:16 8.34933e-05
4 *1462:B2 *389:115 0
5 *1462:B2 *404:10 3.73535e-05
6 *1459:A2 *1462:B2 0.000197659
7 *1465:A3 *1462:B2 0.000132786
8 *209:12 *1462:B2 8.97311e-05
*RES
1 *1461:ZN *1462:B2 11.964 
*END

*D_NET *212 0.00125826
*CONN
*I *1466:A1 I *D gf180mcu_fd_sc_mcu7t5v0__nor3_1
*I *1463:ZN O *D gf180mcu_fd_sc_mcu7t5v0__nor2_1
*CAP
1 *1466:A1 0.000157175
2 *1463:ZN 0.000157175
3 *1466:A1 *1466:A3 0
4 *1466:A1 *1471:B2 0.000111858
5 *1466:A1 *1672:B1 0
6 *1466:A1 *1680:A2 0.000569196
7 *1466:A1 *370:16 0.00026286
*RES
1 *1463:ZN *1466:A1 20.128 
*END

*D_NET *213 0.00171034
*CONN
*I *1466:A2 I *D gf180mcu_fd_sc_mcu7t5v0__nor3_1
*I *1464:ZN O *D gf180mcu_fd_sc_mcu7t5v0__nor2_1
*CAP
1 *1466:A2 0.00045796
2 *1464:ZN 0.00045796
3 *1466:A2 *1464:A1 9.03795e-05
4 *1466:A2 *1464:A2 0
5 *1466:A2 *1471:B1 0.00012396
6 *1466:A2 *1471:B2 3.83835e-06
7 *1466:A2 *1473:B2 0
8 *1466:A2 *1684:A2 2.40434e-05
9 *1466:A2 *1756:CLK 0.000181456
10 *1466:A2 *1776:I 0.0001908
11 *1458:B *1466:A2 0
12 *1756:D *1466:A2 0.000179945
*RES
1 *1464:ZN *1466:A2 21.952 
*END

*D_NET *214 0.00216672
*CONN
*I *1470:A2 I *D gf180mcu_fd_sc_mcu7t5v0__nor2_1
*I *1466:A3 I *D gf180mcu_fd_sc_mcu7t5v0__nor3_1
*I *1465:ZN O *D gf180mcu_fd_sc_mcu7t5v0__nor3_1
*CAP
1 *1470:A2 0
2 *1466:A3 0.000174481
3 *1465:ZN 0.000178482
4 *214:8 0.000352962
5 *1466:A3 *1471:B1 0.000317494
6 *1466:A3 *1471:B2 2.17248e-05
7 *1466:A3 *1473:B2 0
8 *1466:A3 *1672:B1 0.000206341
9 *214:8 *1470:A1 3.15134e-05
10 *214:8 *1471:A1 1.53361e-05
11 *214:8 *1471:B2 0.000530905
12 *214:8 *370:26 0.00018513
13 *214:8 *371:31 4.72426e-05
14 *1465:A1 *214:8 0.000105105
15 *1466:A1 *1466:A3 0
*RES
1 *1465:ZN *214:8 6.78 
2 *214:8 *1466:A3 15.172 
3 *214:8 *1470:A2 4.5 
*END

*D_NET *215 0.00121108
*CONN
*I *1468:A2 I *D gf180mcu_fd_sc_mcu7t5v0__aoi21_1
*I *1473:A3 I *D gf180mcu_fd_sc_mcu7t5v0__oai32_1
*I *1467:ZN O *D gf180mcu_fd_sc_mcu7t5v0__nand4_1
*CAP
1 *1468:A2 9.12719e-05
2 *1473:A3 0.000146673
3 *1467:ZN 0.000237945
4 *1468:A2 *1474:A2 0.00019306
5 *1473:A3 *1390:A3 0.000111512
6 *1473:A3 *1390:A4 1.02578e-05
7 *1473:A3 *371:31 0.000144469
8 *1758:D *1468:A2 0.000275895
*RES
1 *1467:ZN *1473:A3 10.216 
2 *1467:ZN *1468:A2 10.14 
*END

*D_NET *216 0.00728469
*CONN
*I *1471:A1 I *D gf180mcu_fd_sc_mcu7t5v0__aoi22_1
*I *1472:A2 I *D gf180mcu_fd_sc_mcu7t5v0__nor2_1
*I *1468:ZN O *D gf180mcu_fd_sc_mcu7t5v0__aoi21_1
*CAP
1 *1471:A1 0.000630905
2 *1472:A2 0
3 *1468:ZN 0.00021445
4 *216:14 0.000845355
5 *1471:A1 *1384:I 3.19219e-05
6 *1471:A1 *1471:B2 3.15412e-05
7 *1471:A1 *1472:A1 2.94989e-05
8 *1471:A1 *1620:A1 5.27305e-05
9 *1471:A1 *369:14 1.7642e-05
10 *1471:A1 *370:16 0.000593132
11 *1471:A1 *370:26 0.000492603
12 *1471:A1 *370:32 6.18547e-05
13 *1471:A1 *370:49 0.000168602
14 *1471:A1 *372:29 0.000187682
15 *1471:A1 *404:59 1.42281e-05
16 *216:14 *1472:A1 2.293e-05
17 *216:14 *1474:A1 0.000413258
18 *216:14 *1474:A2 8.55242e-05
19 *216:14 *1622:A1 1.53689e-05
20 *216:14 *1623:A2 0.000326528
21 *216:14 *1773:I 2.59409e-05
22 *1458:B *1471:A1 0.000527646
23 *1463:A2 *1471:A1 0.000645245
24 *1465:A2 *1471:A1 0.000360959
25 *1467:A4 *1471:A1 3.50929e-06
26 *1473:A1 *1471:A1 0.00056691
27 *1473:A2 *1471:A1 1.47007e-05
28 *1722:D *216:14 0
29 *1758:D *1471:A1 0.00016067
30 *1758:D *216:14 0.000518934
31 *160:14 *1471:A1 0
32 *189:32 *1471:A1 0.000209085
33 *214:8 *1471:A1 1.53361e-05
*RES
1 *1468:ZN *216:14 16.312 
2 *216:14 *1472:A2 4.5 
3 *216:14 *1471:A1 22.24 
*END

*D_NET *217 0.000352624
*CONN
*I *1471:A2 I *D gf180mcu_fd_sc_mcu7t5v0__aoi22_1
*I *1469:ZN O *D gf180mcu_fd_sc_mcu7t5v0__nand2_1
*CAP
1 *1471:A2 6.29917e-05
2 *1469:ZN 6.29917e-05
3 *1471:A2 *1689:CLK 2.6126e-05
4 *1471:A2 *468:38 5.32103e-05
5 *1458:B *1471:A2 0.000147305
*RES
1 *1469:ZN *1471:A2 9.76 
*END

*D_NET *218 0.00142934
*CONN
*I *1471:B1 I *D gf180mcu_fd_sc_mcu7t5v0__aoi22_1
*I *1470:ZN O *D gf180mcu_fd_sc_mcu7t5v0__nor2_1
*CAP
1 *1471:B1 0.000194775
2 *1470:ZN 0.000194775
3 *1471:B1 *1471:B2 0.000159419
4 *1471:B1 *370:16 0.000105536
5 *1466:A2 *1471:B1 0.00012396
6 *1466:A3 *1471:B1 0.000317494
7 *1757:D *1471:B1 0.00033338
*RES
1 *1470:ZN *1471:B1 20.584 
*END

*D_NET *219 0.00175179
*CONN
*I *1474:A1 I *D gf180mcu_fd_sc_mcu7t5v0__nor2_1
*I *1472:ZN O *D gf180mcu_fd_sc_mcu7t5v0__nor2_1
*CAP
1 *1474:A1 0.000308465
2 *1472:ZN 0.000308465
3 *1474:A1 *1622:A1 3.30388e-05
4 *1474:A1 *1622:A2 0.000185903
5 *1474:A1 *453:93 6.80238e-06
6 *1758:D *1474:A1 0.000495855
7 *216:14 *1474:A1 0.000413258
*RES
1 *1472:ZN *1474:A1 12.116 
*END

*D_NET *220 0.00258996
*CONN
*I *1474:A2 I *D gf180mcu_fd_sc_mcu7t5v0__nor2_1
*I *1473:ZN O *D gf180mcu_fd_sc_mcu7t5v0__oai32_1
*CAP
1 *1474:A2 0.000489884
2 *1473:ZN 0.000489884
3 *1474:A2 *1390:A4 9.64273e-05
4 *1474:A2 *1467:A1 0.00013063
5 *1474:A2 *1468:A1 0.000604316
6 *1474:A2 *1622:A2 2.40654e-06
7 *1474:A2 *1758:CLK 0.000121396
8 *1474:A2 *1773:I 6.73834e-05
9 *1474:A2 *371:31 9.17202e-06
10 *1468:A2 *1474:A2 0.00019306
11 *1758:D *1474:A2 0.000299878
12 *216:14 *1474:A2 8.55242e-05
*RES
1 *1473:ZN *1474:A2 14.092 
*END

*D_NET *221 0.00155489
*CONN
*I *1486:A1 I *D gf180mcu_fd_sc_mcu7t5v0__aoi21_1
*I *1477:A1 I *D gf180mcu_fd_sc_mcu7t5v0__nand2_1
*I *1475:ZN O *D gf180mcu_fd_sc_mcu7t5v0__nand2_1
*CAP
1 *1486:A1 0.000170502
2 *1477:A1 0.000278992
3 *1475:ZN 0
4 *221:4 0.000449494
5 *1477:A1 *1477:A2 1.5015e-05
6 *1477:A1 *1485:A3 0.000165035
7 *1477:A1 *465:98 0.000207411
8 *1477:A1 *502:31 0
9 *1486:A1 *1475:A1 3.73627e-05
10 *1486:A1 *1475:A2 5.08139e-05
11 *1486:A1 *1485:A2 8.81341e-06
12 *1486:A1 *1485:A3 4.50449e-05
13 *1486:A1 *1486:A2 6.92681e-05
14 *1486:A1 *1486:B 2.96621e-05
15 *1486:A1 *465:98 2.74772e-05
16 *1486:A1 *500:25 0
*RES
1 *1475:ZN *221:4 4.5 
2 *221:4 *1477:A1 7.008 
3 *221:4 *1486:A1 5.944 
*END

*D_NET *222 0.00281447
*CONN
*I *1477:A2 I *D gf180mcu_fd_sc_mcu7t5v0__nand2_1
*I *1476:ZN O *D gf180mcu_fd_sc_mcu7t5v0__nand3_1
*CAP
1 *1477:A2 0.000567244
2 *1476:ZN 0.000567244
3 *1477:A2 *1743:CLK 4.22854e-06
4 *1477:A2 *389:29 1.48331e-05
5 *1477:A2 *398:8 2.64818e-05
6 *1477:A2 *398:52 3.6664e-05
7 *1477:A2 *463:103 0
8 *1477:A2 *465:98 3.17733e-05
9 *1477:A2 *500:51 4.90614e-05
10 *1477:A2 *502:31 2.17248e-05
11 *1408:B2 *1477:A2 0.000215928
12 *1476:A1 *1477:A2 0
13 *1476:A2 *1477:A2 0.000185138
14 *1476:A3 *1477:A2 0.000592214
15 *1477:A1 *1477:A2 1.5015e-05
16 *1479:A2 *1477:A2 0.00011955
17 *1479:A3 *1477:A2 0.000367372
*RES
1 *1476:ZN *1477:A2 14.7 
*END

*D_NET *223 0.00153857
*CONN
*I *1480:A3 I *D gf180mcu_fd_sc_mcu7t5v0__oai33_1
*I *1482:A3 I *D gf180mcu_fd_sc_mcu7t5v0__oai32_1
*I *1477:ZN O *D gf180mcu_fd_sc_mcu7t5v0__nand2_1
*CAP
1 *1480:A3 0.000146803
2 *1482:A3 4.35576e-05
3 *1477:ZN 0.000212246
4 *223:10 0.000402606
5 *1480:A3 *1480:A2 1.3758e-05
6 *1480:A3 *465:54 7.70742e-05
7 *1482:A3 *465:54 2.22758e-05
8 *1482:A3 *465:66 4.58601e-06
9 *223:10 *465:52 7.20635e-05
10 *1397:A1 *1480:A3 5.87561e-06
11 *1397:A2 *1480:A3 4.58601e-06
12 *1482:B2 *1480:A3 1.54542e-05
13 *1482:B2 *1482:A3 2.23598e-06
14 *1482:B2 *223:10 0.000399191
15 *155:25 *223:10 0.000116256
*RES
1 *1477:ZN *223:10 15.704 
2 *223:10 *1482:A3 4.728 
3 *223:10 *1480:A3 5.488 
*END

*D_NET *224 0.00250803
*CONN
*I *1482:B1 I *D gf180mcu_fd_sc_mcu7t5v0__oai32_1
*I *1480:B1 I *D gf180mcu_fd_sc_mcu7t5v0__oai33_1
*I *1479:Z O *D gf180mcu_fd_sc_mcu7t5v0__or3_1
*CAP
1 *1482:B1 8.60487e-05
2 *1480:B1 5.37673e-05
3 *1479:Z 0.000272626
4 *224:8 0.000412442
5 *1480:B1 *1380:I 0
6 *1480:B1 *1480:B3 4.78829e-05
7 *1482:B1 *1480:A2 2.23385e-05
8 *1482:B1 *465:54 0.000149579
9 *224:8 *1380:I 0
10 *224:8 *465:48 0.000151957
11 *224:8 *465:52 0.000943478
12 *1478:A1 *1482:B1 0
13 *1480:A1 *1482:B1 0.000272623
14 *1482:B2 *1480:B1 0
15 *1482:B2 *224:8 0
16 *1759:D *1480:B1 9.52854e-05
*RES
1 *1479:Z *224:8 11.964 
2 *224:8 *1480:B1 9.532 
3 *224:8 *1482:B1 10.216 
*END

*D_NET *225 0.00231309
*CONN
*I *1484:B I *D gf180mcu_fd_sc_mcu7t5v0__aoi211_1
*I *1483:ZN O *D gf180mcu_fd_sc_mcu7t5v0__nor2_1
*CAP
1 *1484:B 0.000129076
2 *1483:ZN 0.000129076
3 *1484:B *1475:A2 0.000340241
4 *1484:B *1483:A1 0.000431526
5 *1484:B *1483:A2 2.05156e-05
6 *1484:B *1761:CLK 8.62306e-05
7 *1484:B *460:21 0.000419527
8 *1484:B *502:14 0.000178566
9 *1761:D *1484:B 0.000578336
*RES
1 *1483:ZN *1484:B 21.496 
*END

*D_NET *226 0.000361098
*CONN
*I *1486:A2 I *D gf180mcu_fd_sc_mcu7t5v0__aoi21_1
*I *1485:ZN O *D gf180mcu_fd_sc_mcu7t5v0__nand3_1
*CAP
1 *1486:A2 0.000139036
2 *1485:ZN 0.000139036
3 *1486:A2 *1484:A1 0
4 *1486:A2 *1484:C 1.3758e-05
5 *1486:A1 *1486:A2 6.92681e-05
*RES
1 *1485:ZN *1486:A2 9.836 
*END

*D_NET *227 0.00162241
*CONN
*I *1490:A2 I *D gf180mcu_fd_sc_mcu7t5v0__oai21_1
*I *1488:A2 I *D gf180mcu_fd_sc_mcu7t5v0__nor2_1
*I *1487:ZN O *D gf180mcu_fd_sc_mcu7t5v0__nand2_1
*CAP
1 *1490:A2 0
2 *1488:A2 0.000192509
3 *1487:ZN 0.000115053
4 *227:6 0.000307563
5 *1488:A2 *1488:A1 9.88736e-06
6 *1488:A2 *1606:A2 1.75512e-05
7 *1488:A2 *1607:A1 0.000151949
8 *1488:A2 *400:16 0.000121119
9 *1488:A2 *420:82 7.41951e-05
10 *1488:A2 *488:10 8.64281e-06
11 *227:6 *1376:I 0.000171106
12 *227:6 *1487:A2 0.000255722
13 *227:6 *1489:A1 0.00011528
14 *227:6 *420:71 9.88736e-06
15 *227:6 *420:82 7.195e-05
*RES
1 *1487:ZN *227:6 6.096 
2 *227:6 *1488:A2 15.02 
3 *227:6 *1490:A2 4.5 
*END

*D_NET *228 0.00301682
*CONN
*I *1576:A2 I *D gf180mcu_fd_sc_mcu7t5v0__nor3_1
*I *1575:A1 I *D gf180mcu_fd_sc_mcu7t5v0__nor3_1
*I *1488:ZN O *D gf180mcu_fd_sc_mcu7t5v0__nor2_1
*CAP
1 *1576:A2 0.000513569
2 *1575:A1 0.000361799
3 *1488:ZN 0.000150502
4 *228:8 0.00102587
5 *1575:A1 *1529:A1 5.46425e-05
6 *1575:A1 *1529:A2 4.70828e-05
7 *1575:A1 *1577:A1 1.33911e-06
8 *1575:A1 *1577:C 1.21529e-05
9 *1575:A1 *230:14 4.44532e-05
10 *1575:A1 *464:16 1.11891e-05
11 *1575:A1 *464:20 5.47917e-05
12 *1575:A1 *467:92 5.14736e-06
13 *1576:A2 *1576:A1 0.000139333
14 *1576:A2 *1577:A1 6.05076e-05
15 *1576:A2 *1577:C 4.10312e-05
16 *1576:A2 *464:16 0.00020772
17 *1576:A2 *467:92 4.35276e-05
18 *228:8 *1490:B 1.2135e-05
19 *228:8 *1529:A2 0.000147313
20 *228:8 *1606:A2 1.91917e-06
21 *228:8 *1782:I 0
22 *1700:D *1576:A2 8.07935e-05
*RES
1 *1488:ZN *228:8 9.988 
2 *228:8 *1575:A1 11.432 
3 *228:8 *1576:A2 12.952 
*END

*D_NET *229 0.00115988
*CONN
*I *1529:A2 I *D gf180mcu_fd_sc_mcu7t5v0__nand2_1
*I *1490:B I *D gf180mcu_fd_sc_mcu7t5v0__oai21_1
*I *1489:ZN O *D gf180mcu_fd_sc_mcu7t5v0__nand3_1
*CAP
1 *1529:A2 0.000152062
2 *1490:B 6.86326e-05
3 *1489:ZN 0
4 *229:4 0.000220695
5 *1490:B *1489:A1 0.000367372
6 *1490:B *1606:A2 0.000137785
7 *1529:A2 *1489:A1 6.80238e-06
8 *1575:A1 *1529:A2 4.70828e-05
9 *228:8 *1490:B 1.2135e-05
10 *228:8 *1529:A2 0.000147313
*RES
1 *1489:ZN *229:4 4.5 
2 *229:4 *1490:B 5.488 
3 *229:4 *1529:A2 5.716 
*END

*D_NET *230 0.00744269
*CONN
*I *1530:A2 I *D gf180mcu_fd_sc_mcu7t5v0__nor2_1
*I *1491:I I *D gf180mcu_fd_sc_mcu7t5v0__clkinv_1
*I *1526:C I *D gf180mcu_fd_sc_mcu7t5v0__aoi211_1
*I *1531:A2 I *D gf180mcu_fd_sc_mcu7t5v0__or2_1
*I *1490:ZN O *D gf180mcu_fd_sc_mcu7t5v0__oai21_1
*CAP
1 *1530:A2 5.84733e-05
2 *1491:I 0
3 *1526:C 0.000246359
4 *1531:A2 3.98408e-05
5 *1490:ZN 0.000461994
6 *230:33 0.000648494
7 *230:18 0.000666492
8 *230:14 0.000744983
9 *1526:C *1508:B 7.24161e-06
10 *1526:C *1527:A1 0.00092754
11 *1526:C *1528:S 0
12 *1531:A2 *1508:B 2.05156e-05
13 *1531:A2 *1530:A1 0
14 *1531:A2 *244:28 0
15 *1531:A2 *467:102 3.08902e-05
16 *230:14 *1489:A1 8.55242e-05
17 *230:14 *1575:A2 2.22533e-05
18 *230:14 *1575:A3 3.56172e-05
19 *230:14 *412:12 0.000136871
20 *230:14 *420:47 0.00060514
21 *230:14 *420:56 0.000394484
22 *230:14 *464:20 9.50338e-05
23 *230:14 *467:98 0.000402978
24 *230:18 *1530:A1 8.55242e-05
25 *230:18 *1575:A2 3.1459e-05
26 *230:18 *467:98 1.2339e-05
27 *230:18 *467:102 5.91493e-05
28 *230:33 *1496:A1 2.11524e-05
29 *230:33 *1496:A2 3.84145e-06
30 *230:33 *1507:B2 2.49387e-05
31 *230:33 *1507:C 4.98138e-05
32 *230:33 *1508:B 0.00011393
33 *230:33 *1527:A1 0.000254112
34 *230:33 *1546:A1 0.000422006
35 *230:33 *1575:A2 0
36 *230:33 *244:28 0.00035308
37 *230:33 *244:47 0.000184378
38 *230:33 *264:22 0
39 *230:33 *270:16 0.000151785
40 *1575:A1 *230:14 4.44532e-05
41 *136:26 *230:33 0
*RES
1 *1490:ZN *230:14 19.048 
2 *230:14 *230:18 1.672 
3 *230:18 *1531:A2 4.956 
4 *230:18 *230:33 4.636 
5 *230:33 *1526:C 7.16 
6 *230:33 *1491:I 4.5 
7 *230:14 *1530:A2 4.88 
*END

*D_NET *231 0.000264857
*CONN
*I *1508:A1 I *D gf180mcu_fd_sc_mcu7t5v0__aoi21_1
*I *1491:ZN O *D gf180mcu_fd_sc_mcu7t5v0__clkinv_1
*CAP
1 *1508:A1 7.30012e-05
2 *1491:ZN 7.30012e-05
3 *1508:A1 *1570:C 8.8586e-05
4 *1508:A1 *442:8 3.02683e-05
*RES
1 *1491:ZN *1508:A1 18.836 
*END

*D_NET *232 0.00372156
*CONN
*I *1550:A4 I *D gf180mcu_fd_sc_mcu7t5v0__nand4_1
*I *1494:A4 I *D gf180mcu_fd_sc_mcu7t5v0__nand4_1
*I *1493:A4 I *D gf180mcu_fd_sc_mcu7t5v0__and4_1
*I *1584:A1 I *D gf180mcu_fd_sc_mcu7t5v0__or3_1
*I *1492:ZN O *D gf180mcu_fd_sc_mcu7t5v0__nor2_1
*CAP
1 *1550:A4 9.55899e-05
2 *1494:A4 0
3 *1493:A4 0.000106158
4 *1584:A1 0.000179927
5 *1492:ZN 2.2239e-05
6 *232:32 0.000121039
7 *232:21 0.000342206
8 *232:6 0.000412765
9 *1493:A4 *1494:A3 7.50749e-05
10 *1493:A4 *1498:A1 2.6126e-05
11 *1493:A4 *1504:A1 2.6126e-05
12 *1493:A4 *234:14 0.000310356
13 *1493:A4 *238:18 5.08971e-06
14 *1493:A4 *303:26 3.99265e-05
15 *1550:A4 *1494:A3 3.15156e-05
16 *1550:A4 *1527:A2 0.000251562
17 *1550:A4 *1556:S 0.000179742
18 *1550:A4 *238:18 0.000194399
19 *1550:A4 *245:50 0.000179742
20 *1584:A1 *1492:A2 1.93526e-05
21 *1584:A1 *1498:A4 0.000131212
22 *1584:A1 *1556:S 9.60894e-06
23 *1584:A1 *1584:A2 3.97114e-05
24 *1584:A1 *303:26 1.3493e-05
25 *1584:A1 *307:10 3.08902e-05
26 *232:6 *1584:A2 1.15275e-05
27 *232:21 *1492:A1 3.73535e-05
28 *232:21 *1498:A1 0.000192074
29 *232:21 *1498:A4 3.3476e-05
30 *232:21 *1556:S 5.48455e-05
31 *232:21 *238:18 0.000116995
32 *232:21 *303:26 1.53758e-05
33 *232:32 *1494:A3 1.5015e-05
34 *232:32 *238:18 5.76373e-06
35 *1494:A2 *1493:A4 0.000193942
36 *1498:A3 *1493:A4 0
37 *1498:A3 *1584:A1 0
38 *1498:A3 *232:21 8.18373e-05
39 *1583:A1 *1584:A1 1.8797e-05
40 *124:25 *1550:A4 4.47565e-05
41 *124:27 *1550:A4 5.59457e-05
*RES
1 *1492:ZN *232:6 4.728 
2 *232:6 *1584:A1 6.172 
3 *232:6 *232:21 2.204 
4 *232:21 *1493:A4 6.172 
5 *232:21 *232:32 0.228 
6 *232:32 *1494:A4 4.5 
7 *232:32 *1550:A4 15.248 
*END

*D_NET *233 0.018652
*CONN
*I *1559:A2 I *D gf180mcu_fd_sc_mcu7t5v0__nand3_1
*I *1556:I0 I *D gf180mcu_fd_sc_mcu7t5v0__mux2_2
*I *1557:A1 I *D gf180mcu_fd_sc_mcu7t5v0__nand2_1
*I *1565:A1 I *D gf180mcu_fd_sc_mcu7t5v0__nand2_1
*I *1523:A1 I *D gf180mcu_fd_sc_mcu7t5v0__aoi21_1
*I *1546:A1 I *D gf180mcu_fd_sc_mcu7t5v0__nor2_1
*I *1507:B1 I *D gf180mcu_fd_sc_mcu7t5v0__oai221_1
*I *1493:Z O *D gf180mcu_fd_sc_mcu7t5v0__and4_1
*CAP
1 *1559:A2 2.73625e-05
2 *1556:I0 0.000588088
3 *1557:A1 0.000158527
4 *1565:A1 0.00040397
5 *1523:A1 0
6 *1546:A1 0.000263445
7 *1507:B1 0
8 *1493:Z 9.49782e-05
9 *233:78 0.00105021
10 *233:70 0.00141844
11 *233:24 0.00121319
12 *233:12 0.00167143
13 *233:8 0.00150017
14 *1546:A1 *1506:A1 7.08938e-05
15 *1546:A1 *1569:B 0.000108888
16 *1546:A1 *270:16 8.55242e-05
17 *1546:A1 *420:47 8.15645e-05
18 *1556:I0 *1396:A2 0.00066782
19 *1556:I0 *1556:S 2.96621e-05
20 *1556:I0 *1557:A2 0
21 *1556:I0 *1558:B 0
22 *1556:I0 *1778:I 0.000252545
23 *1556:I0 *270:40 2.33477e-05
24 *1556:I0 *389:31 5.39035e-05
25 *1556:I0 *390:8 7.83779e-05
26 *1556:I0 *485:10 3.5608e-06
27 *1557:A1 *1557:A2 0
28 *1559:A2 *1557:A2 3.83835e-06
29 *1559:A2 *1559:A1 7.83779e-05
30 *1559:A2 *264:53 4.58601e-06
31 *1565:A1 *1496:A1 4.21393e-05
32 *1565:A1 *1507:B2 0.000843381
33 *1565:A1 *1523:A2 0.000520155
34 *1565:A1 *1548:A4 1.32435e-05
35 *1565:A1 *1563:A1 5.72808e-05
36 *1565:A1 *234:27 0
37 *1565:A1 *245:67 0.000137785
38 *1565:A1 *270:32 1.30364e-05
39 *1565:A1 *290:10 5.71374e-05
40 *1565:A1 *412:18 8.55327e-05
41 *1565:A1 *412:22 0.00035308
42 *1565:A1 *412:24 8.40333e-05
43 *1565:A1 *412:26 0.000274468
44 *1565:A1 *412:91 4.29636e-06
45 *233:8 *1527:A2 0.000182372
46 *233:8 *1551:A1 4.35513e-05
47 *233:8 *234:14 6.57222e-06
48 *233:12 *234:14 0
49 *233:12 *234:27 0
50 *233:12 *303:26 0
51 *233:12 *412:26 9.88736e-06
52 *233:12 *412:32 0.00037942
53 *233:12 *416:35 0
54 *233:24 *1496:A2 0
55 *233:24 *1507:B2 0.00014935
56 *233:24 *1526:B 0.000728279
57 *233:24 *244:8 0
58 *233:24 *442:8 9.93353e-05
59 *233:70 *1702:CLK 3.51308e-05
60 *233:70 *270:32 0
61 *233:70 *448:10 0.000586224
62 *233:78 *1557:A2 0.000960164
63 *233:78 *1558:A2 2.9378e-06
64 *233:78 *1702:CLK 1.76265e-06
65 *233:78 *1787:I 0.000235079
66 *233:78 *286:17 0.000837407
67 *233:78 *413:12 3.63662e-05
68 *233:78 *448:10 0.000352247
69 *1560:A1 *1556:I0 2.47642e-05
70 *1697:D *1557:A1 0
71 *154:10 *1556:I0 0.00114091
72 *230:33 *1546:A1 0.000422006
*RES
1 *1493:Z *233:8 10.292 
2 *233:8 *233:12 6.856 
3 *233:12 *233:24 23.624 
4 *233:24 *1507:B1 4.5 
5 *233:24 *1546:A1 15.628 
6 *233:12 *1523:A1 4.5 
7 *233:12 *1565:A1 19.352 
8 *233:8 *233:70 15.84 
9 *233:70 *233:78 13.864 
10 *233:78 *1557:A1 9.988 
11 *233:78 *1556:I0 15.232 
12 *233:70 *1559:A2 9.228 
*END

*D_NET *234 0.00725658
*CONN
*I *1561:C I *D gf180mcu_fd_sc_mcu7t5v0__oai211_1
*I *1573:A1 I *D gf180mcu_fd_sc_mcu7t5v0__oai21_1
*I *1547:A1 I *D gf180mcu_fd_sc_mcu7t5v0__nand2_1
*I *1526:A1 I *D gf180mcu_fd_sc_mcu7t5v0__aoi211_1
*I *1494:ZN O *D gf180mcu_fd_sc_mcu7t5v0__nand4_1
*CAP
1 *1561:C 0
2 *1573:A1 0.000216749
3 *1547:A1 0
4 *1526:A1 0.000323879
5 *1494:ZN 0.000207876
6 *234:31 0.000785964
7 *234:27 0.000789099
8 *234:14 0.000751638
9 *1526:A1 *1526:B 7.57066e-05
10 *1526:A1 *244:8 0.000488256
11 *1526:A1 *264:53 7.39173e-05
12 *1573:A1 *1523:A2 9.19324e-05
13 *1573:A1 *1574:A2 9.26705e-05
14 *1573:A1 *295:16 0.000221827
15 *1573:A1 *295:46 1.17776e-05
16 *1573:A1 *411:16 0.000235631
17 *234:14 *1504:A1 0.000122904
18 *234:14 *1527:A2 0
19 *234:14 *1551:A1 0.0001877
20 *234:14 *303:26 0.000569313
21 *234:14 *416:35 2.34305e-05
22 *234:27 *1523:A2 3.10417e-05
23 *234:27 *1562:A1 0.000509981
24 *234:27 *245:50 4.45625e-06
25 *234:27 *245:54 1.44832e-05
26 *234:27 *303:26 0.000113809
27 *234:31 *1523:A2 7.59825e-05
28 *234:31 *1532:A1 0.000133644
29 *234:31 *1562:A1 0.000217708
30 *234:31 *295:16 3.08902e-05
31 *234:31 *303:26 2.22817e-05
32 *234:31 *411:16 0.000178892
33 *234:31 *411:18 0.000162457
34 *234:31 *411:22 0.000173755
35 *1493:A4 *234:14 0.000310356
36 *1565:A1 *234:27 0
37 *233:8 *234:14 6.57222e-06
38 *233:12 *234:14 0
39 *233:12 *234:27 0
*RES
1 *1494:ZN *234:14 16.008 
2 *234:14 *1526:A1 16.464 
3 *234:14 *234:27 2.204 
4 *234:27 *234:31 4.864 
5 *234:31 *1547:A1 4.5 
6 *234:31 *1573:A1 6.856 
7 *234:27 *1561:C 4.5 
*END

*D_NET *235 0.00624998
*CONN
*I *1565:A2 I *D gf180mcu_fd_sc_mcu7t5v0__nand2_1
*I *1562:A1 I *D gf180mcu_fd_sc_mcu7t5v0__nand3_1
*I *1506:A1 I *D gf180mcu_fd_sc_mcu7t5v0__nand2_1
*I *1495:ZN O *D gf180mcu_fd_sc_mcu7t5v0__nor2_1
*CAP
1 *1565:A2 0.000119859
2 *1562:A1 0.000269872
3 *1506:A1 0.000392144
4 *1495:ZN 0
5 *235:17 0.000469627
6 *235:6 0.00047204
7 *1506:A1 *1507:A1 0.000633622
8 *1506:A1 *244:28 9.89981e-05
9 *1506:A1 *270:16 0.000116851
10 *1506:A1 *411:50 0.000386369
11 *1506:A1 *420:47 4.87601e-06
12 *1562:A1 *1504:A1 2.57058e-06
13 *1562:A1 *245:54 4.10312e-05
14 *1562:A1 *303:26 0.0012803
15 *1565:A2 *1507:B2 9.66793e-05
16 *1565:A2 *245:69 3.19947e-05
17 *1565:A2 *270:16 5.59457e-05
18 *235:17 *1507:B2 0.000140539
19 *235:17 *270:16 0.000357604
20 *235:17 *411:50 0.000480472
21 *1546:A1 *1506:A1 7.08938e-05
22 *234:27 *1562:A1 0.000509981
23 *234:31 *1562:A1 0.000217708
*RES
1 *1495:ZN *235:6 9 
2 *235:6 *1506:A1 12.572 
3 *235:6 *235:17 2.052 
4 *235:17 *1562:A1 13.104 
5 *235:17 *1565:A2 9.912 
*END

*D_NET *236 0.0144143
*CONN
*I *1543:A1 I *D gf180mcu_fd_sc_mcu7t5v0__oai21_1
*I *1503:A1 I *D gf180mcu_fd_sc_mcu7t5v0__aoi221_1
*I *1501:A1 I *D gf180mcu_fd_sc_mcu7t5v0__nor2_1
*I *1549:A2 I *D gf180mcu_fd_sc_mcu7t5v0__nand3_1
*I *1551:A2 I *D gf180mcu_fd_sc_mcu7t5v0__oai31_1
*I *1569:B I *D gf180mcu_fd_sc_mcu7t5v0__aoi21_1
*I *1527:A1 I *D gf180mcu_fd_sc_mcu7t5v0__oai21_1
*I *1496:ZN O *D gf180mcu_fd_sc_mcu7t5v0__nand2_1
*CAP
1 *1543:A1 0.000194112
2 *1503:A1 0.000122041
3 *1501:A1 0.000111186
4 *1549:A2 0
5 *1551:A2 0.000104826
6 *1569:B 0.000389807
7 *1527:A1 0.000393378
8 *1496:ZN 0
9 *236:74 0.000429317
10 *236:56 0.00044139
11 *236:46 0.000532655
12 *236:44 0.000747689
13 *236:21 0.0010524
14 *236:4 0.000502394
15 *1501:A1 *1503:B1 2.4706e-05
16 *1501:A1 *1507:B2 0.000145096
17 *1501:A1 *1534:I0 1.31444e-05
18 *1501:A1 *1542:B 5.93437e-05
19 *1501:A1 *1543:B 0
20 *1501:A1 *1548:A2 0
21 *1503:A1 *1502:A2 1.02578e-05
22 *1503:A1 *1507:B2 0.000104176
23 *1503:A1 *1542:B 5.65586e-05
24 *1503:A1 *242:24 5.87561e-06
25 *1503:A1 *412:91 8.02751e-06
26 *1527:A1 *1496:A2 3.30388e-05
27 *1527:A1 *1526:B 0.000149579
28 *1527:A1 *1527:B 9.61205e-06
29 *1527:A1 *1579:B 0.000317494
30 *1527:A1 *1855:I 0
31 *1527:A1 *264:37 7.15945e-05
32 *1543:A1 *1543:B 0.000732334
33 *1543:A1 *1548:A1 0
34 *1543:A1 *407:37 1.16164e-05
35 *1551:A2 *1500:A1 6.95977e-05
36 *1551:A2 *1545:A1 1.44832e-05
37 *1551:A2 *1551:A1 2.03665e-05
38 *1551:A2 *1551:A3 0.000360997
39 *1551:A2 *487:60 0.000368152
40 *1569:B *1507:A2 0.000333325
41 *1569:B *1507:B2 0.000328814
42 *1569:B *1524:A1 7.83779e-05
43 *1569:B *1570:B 8.89269e-05
44 *1569:B *264:22 0.000190692
45 *1569:B *270:16 8.55327e-05
46 *1569:B *412:22 1.03519e-05
47 *1569:B *412:24 1.19438e-05
48 *236:21 *1496:A2 2.16852e-05
49 *236:21 *1548:A4 3.42948e-05
50 *236:21 *1570:C 0.000221134
51 *236:21 *264:22 6.817e-05
52 *236:44 *1496:A2 5.55596e-05
53 *236:44 *1543:B 0.000355995
54 *236:44 *1548:A4 0.000194774
55 *236:44 *1561:A2 6.57222e-06
56 *236:44 *1563:B1 0.000576049
57 *236:44 *1563:C 9.77285e-05
58 *236:44 *1567:A2 8.51286e-05
59 *236:44 *412:76 0.00098667
60 *236:56 *1500:A1 0.000277821
61 *236:56 *1545:A1 1.2994e-05
62 *236:56 *1548:A3 4.91468e-05
63 *236:56 *275:8 4.62379e-05
64 *236:56 *459:14 0.000113333
65 *236:74 *1503:C 9.60518e-06
66 *236:74 *1507:B2 2.96621e-05
67 *236:74 *1542:B 0.000137555
68 *236:74 *1548:A3 2.6126e-05
69 *236:74 *275:8 2.23598e-06
70 *236:74 *459:27 0.000153727
71 *1495:A2 *1569:B 7.3227e-05
72 *1500:A2 *236:56 0.000178871
73 *1500:A2 *236:74 0
74 *1526:C *1527:A1 0.00092754
75 *1546:A1 *1569:B 0.000108888
76 *1570:A1 *236:21 0.000278795
77 *134:8 *1543:A1 7.7608e-05
78 *134:14 *1543:A1 2.4706e-05
79 *134:14 *236:44 8.59214e-05
80 *136:13 *1527:A1 0
81 *136:13 *1569:B 2.96621e-05
82 *136:26 *1569:B 7.75108e-05
83 *230:33 *1527:A1 0.000254112
*RES
1 *1496:ZN *236:4 4.5 
2 *236:4 *1527:A1 9.06 
3 *236:4 *236:21 5.64 
4 *236:21 *1569:B 21.724 
5 *236:21 *236:44 6.156 
6 *236:44 *236:46 4.5 
7 *236:46 *236:56 3.268 
8 *236:56 *1551:A2 6.172 
9 *236:56 *1549:A2 4.5 
10 *236:46 *236:74 1.976 
11 *236:74 *1501:A1 14.64 
12 *236:74 *1503:A1 5.564 
13 *236:44 *1543:A1 10.9 
*END

*D_NET *237 0.00227068
*CONN
*I *1549:A3 I *D gf180mcu_fd_sc_mcu7t5v0__nand3_1
*I *1834:I I *D gf180mcu_fd_sc_mcu7t5v0__clkbuf_1
*I *1497:ZN O *D gf180mcu_fd_sc_mcu7t5v0__nor4_1
*CAP
1 *1549:A3 0
2 *1834:I 0.000184309
3 *1497:ZN 0.000483143
4 *237:8 0.000667452
5 *1834:I *1551:A1 6.64889e-05
6 *1834:I *1551:A3 0.000135941
7 *1834:I *240:8 1.4379e-05
8 *1834:I *407:53 0
9 *1834:I *459:14 7.87465e-05
10 *237:8 *1362:I 3.56086e-05
11 *237:8 *1500:A1 0.00041564
12 *237:8 *1552:A2 1.49066e-06
13 *237:8 *281:6 0
14 *1497:A1 *237:8 2.59005e-05
15 *124:6 *237:8 0.000116355
16 *124:23 *237:8 4.52251e-05
*RES
1 *1497:ZN *237:8 8.148 
2 *237:8 *1834:I 14.792 
3 *237:8 *1549:A3 4.5 
*END

*D_NET *238 0.00522752
*CONN
*I *1542:A2 I *D gf180mcu_fd_sc_mcu7t5v0__oai21_1
*I *1564:A2 I *D gf180mcu_fd_sc_mcu7t5v0__oai21_1
*I *1561:A2 I *D gf180mcu_fd_sc_mcu7t5v0__oai211_1
*I *1498:ZN O *D gf180mcu_fd_sc_mcu7t5v0__nand4_1
*CAP
1 *1542:A2 0.00022549
2 *1564:A2 0
3 *1561:A2 6.03932e-05
4 *1498:ZN 0.00057064
5 *238:18 0.000856523
6 *1542:A2 *1556:S 9.54536e-05
7 *1561:A2 *1562:A3 0
8 *1561:A2 *1563:B2 0.00033338
9 *1561:A2 *1563:C 4.78829e-05
10 *1561:A2 *1567:A2 0.000378617
11 *238:18 *1494:A3 1.73178e-05
12 *238:18 *1498:A1 8.55242e-05
13 *238:18 *1504:A1 9.03134e-05
14 *238:18 *1551:A1 0
15 *238:18 *1556:S 0.000269846
16 *238:18 *1562:A3 0.000474098
17 *238:18 *245:50 6.04926e-05
18 *238:18 *487:32 0.000266784
19 *1493:A2 *238:18 7.83779e-05
20 *1493:A4 *238:18 5.08971e-06
21 *1504:A2 *238:18 0.00011955
22 *1542:A1 *1542:A2 3.28468e-05
23 *1550:A4 *238:18 0.000194399
24 *1564:A1 *1542:A2 0.000174701
25 *124:55 *238:18 0.000654701
26 *134:14 *1542:A2 5.76749e-06
27 *232:21 *238:18 0.000116995
28 *232:32 *238:18 5.76373e-06
29 *236:44 *1561:A2 6.57222e-06
*RES
1 *1498:ZN *238:18 20.264 
2 *238:18 *1561:A2 14.792 
3 *238:18 *1564:A2 4.5 
4 *238:18 *1542:A2 6.096 
*END

*D_NET *239 0.00705944
*CONN
*I *1503:A2 I *D gf180mcu_fd_sc_mcu7t5v0__aoi221_1
*I *1573:B I *D gf180mcu_fd_sc_mcu7t5v0__oai21_1
*I *1578:A1 I *D gf180mcu_fd_sc_mcu7t5v0__aoi211_1
*I *1554:A1 I *D gf180mcu_fd_sc_mcu7t5v0__nand3_1
*I *1499:ZN O *D gf180mcu_fd_sc_mcu7t5v0__nand2_1
*CAP
1 *1503:A2 0
2 *1573:B 0.000189341
3 *1578:A1 0
4 *1554:A1 4.15754e-05
5 *1499:ZN 0.00022645
6 *239:39 0.000394403
7 *239:14 0.000348512
8 *239:10 0.000328324
9 *1554:A1 *1556:S 0.000143029
10 *1554:A1 *487:22 0.000167633
11 *1573:B *1555:A1 0.000133724
12 *1573:B *1555:A2 8.55819e-05
13 *1573:B *1578:B 3.08902e-05
14 *1573:B *285:8 0.00029375
15 *1573:B *411:16 0.000155025
16 *239:10 *1533:A2 6.83457e-05
17 *239:10 *269:36 0
18 *239:10 *381:12 9.52854e-05
19 *239:10 *381:14 0.000408092
20 *239:10 *407:37 0.000297766
21 *239:10 *459:27 0.000186709
22 *239:14 *1533:A2 0.000181689
23 *239:14 *1534:I0 0.000229147
24 *239:14 *1566:A2 0.000197186
25 *239:14 *381:14 0.00034938
26 *239:39 *1533:A2 8.03222e-06
27 *239:39 *1567:A1 0.000118153
28 *239:39 *1567:B 0.000232753
29 *239:39 *1568:A1 4.24903e-05
30 *239:39 *1578:B 0.000422023
31 *239:39 *244:47 0.000569188
32 *239:39 *269:19 1.43729e-05
33 *239:39 *278:8 8.54902e-05
34 *239:39 *285:8 3.08902e-05
35 *239:39 *303:26 0.000307974
36 *239:39 *487:22 0.000215809
37 *135:32 *239:14 0.000460427
*RES
1 *1499:ZN *239:10 12.04 
2 *239:10 *239:14 7.008 
3 *239:14 *1554:A1 5.336 
4 *239:14 *239:39 12.876 
5 *239:39 *1578:A1 4.5 
6 *239:39 *1573:B 7.008 
7 *239:10 *1503:A2 9 
*END

*D_NET *240 0.00388897
*CONN
*I *1512:A1 I *D gf180mcu_fd_sc_mcu7t5v0__nand2_1
*I *1501:A2 I *D gf180mcu_fd_sc_mcu7t5v0__nor2_1
*I *1543:A2 I *D gf180mcu_fd_sc_mcu7t5v0__oai21_1
*I *1500:ZN O *D gf180mcu_fd_sc_mcu7t5v0__nor2_1
*CAP
1 *1512:A1 0.000250428
2 *1501:A2 0.000252442
3 *1543:A2 5.84627e-05
4 *1500:ZN 0.000206122
5 *240:12 0.000474314
6 *240:8 0.000619959
7 *1501:A2 *1548:A1 1.49066e-06
8 *1501:A2 *407:37 0.000202854
9 *1501:A2 *459:27 8.69929e-05
10 *1512:A1 *1512:A2 9.63339e-05
11 *1512:A1 *1548:A1 1.59363e-05
12 *1512:A1 *269:42 0.000858365
13 *1512:A1 *407:53 0.000114424
14 *1512:A1 *459:14 1.29413e-05
15 *1543:A2 *279:14 2.19038e-05
16 *1543:A2 *407:53 2.57058e-06
17 *1543:A2 *459:27 2.57058e-06
18 *240:8 *1548:A1 1.78155e-05
19 *240:8 *459:14 0.00015813
20 *240:12 *269:36 1.29029e-05
21 *240:12 *269:42 7.002e-05
22 *240:12 *279:14 6.43525e-05
23 *240:12 *407:37 4.99956e-05
24 *240:12 *407:53 0.000223261
25 *1834:I *240:8 1.4379e-05
26 *134:8 *240:8 0
27 *134:14 *240:8 0
*RES
1 *1500:ZN *240:8 10.444 
2 *240:8 *240:12 6.4 
3 *240:12 *1543:A2 5.108 
4 *240:12 *1501:A2 6.78 
5 *240:8 *1512:A1 12.116 
*END

*D_NET *241 0.000768964
*CONN
*I *1503:C I *D gf180mcu_fd_sc_mcu7t5v0__aoi221_1
*I *1501:ZN O *D gf180mcu_fd_sc_mcu7t5v0__nor2_1
*CAP
1 *1503:C 0.000154958
2 *1501:ZN 0.000154958
3 *1503:C *1503:B1 0.00013063
4 *1503:C *1507:B2 6.29048e-05
5 *1503:C *242:24 0.00013063
6 *1503:C *459:27 0.000125279
7 *236:74 *1503:C 9.60518e-06
*RES
1 *1501:ZN *1503:C 10.52 
*END

*D_NET *242 0.00371023
*CONN
*I *1503:B1 I *D gf180mcu_fd_sc_mcu7t5v0__aoi221_1
*I *1542:B I *D gf180mcu_fd_sc_mcu7t5v0__oai21_1
*I *1595:A1 I *D gf180mcu_fd_sc_mcu7t5v0__and3_1
*I *1566:A4 I *D gf180mcu_fd_sc_mcu7t5v0__nand4_1
*I *1502:ZN O *D gf180mcu_fd_sc_mcu7t5v0__nor2_1
*CAP
1 *1503:B1 5.44983e-05
2 *1542:B 0.000196333
3 *1595:A1 0
4 *1566:A4 9.2943e-05
5 *1502:ZN 0
6 *242:24 0.000441035
7 *242:6 0.000245069
8 *242:4 0.00034233
9 *1503:B1 *1534:I0 0.000135941
10 *1503:B1 *459:27 4.94368e-05
11 *1542:B *1507:B2 3.26302e-05
12 *1542:B *1534:I0 0.000444436
13 *1542:B *275:8 2.96977e-05
14 *1542:B *412:91 0.000601733
15 *242:6 *1502:A2 1.02578e-05
16 *242:6 *1533:A2 1.94399e-05
17 *242:6 *1566:A2 0
18 *242:6 *244:47 0.000369746
19 *242:24 *1502:A2 2.57971e-05
20 *242:24 *1507:B2 9.88736e-06
21 *242:24 *1533:A1 0
22 *242:24 *1533:A2 3.2657e-05
23 *242:24 *459:27 3.106e-05
24 *1501:A1 *1503:B1 2.4706e-05
25 *1501:A1 *1542:B 5.93437e-05
26 *1503:A1 *1542:B 5.65586e-05
27 *1503:A1 *242:24 5.87561e-06
28 *1503:C *1503:B1 0.00013063
29 *1503:C *242:24 0.00013063
30 *236:74 *1542:B 0.000137555
*RES
1 *1502:ZN *242:4 4.5 
2 *242:4 *242:6 1.292 
3 *242:6 *1566:A4 5.184 
4 *242:6 *1595:A1 4.5 
5 *242:4 *242:24 5.868 
6 *242:24 *1542:B 12.04 
7 *242:24 *1503:B1 9.76 
*END

*D_NET *243 0.00537813
*CONN
*I *1507:B2 I *D gf180mcu_fd_sc_mcu7t5v0__oai221_1
*I *1503:ZN O *D gf180mcu_fd_sc_mcu7t5v0__aoi221_1
*CAP
1 *1507:B2 0.000963968
2 *1503:ZN 0.000963968
3 *1507:B2 *1496:A1 1.34641e-06
4 *1507:B2 *1507:A1 0.000172537
5 *1507:B2 *1507:A2 0.000147162
6 *1507:B2 *1534:I0 6.05166e-05
7 *1507:B2 *1543:B 0
8 *1507:B2 *1548:A4 0
9 *1507:B2 *1554:A2 5.72229e-05
10 *1507:B2 *245:69 1.43729e-05
11 *1507:B2 *411:50 0.000830084
12 *1507:B2 *412:91 0.000195775
13 *1501:A1 *1507:B2 0.000145096
14 *1503:A1 *1507:B2 0.000104176
15 *1503:C *1507:B2 6.29048e-05
16 *1524:A2 *1507:B2 1.78691e-06
17 *1542:B *1507:B2 3.26302e-05
18 *1565:A1 *1507:B2 0.000843381
19 *1565:A2 *1507:B2 9.66793e-05
20 *1569:B *1507:B2 0.000328814
21 *136:26 *1507:B2 1.33342e-06
22 *230:33 *1507:B2 2.49387e-05
23 *233:24 *1507:B2 0.00014935
24 *235:17 *1507:B2 0.000140539
25 *236:74 *1507:B2 2.96621e-05
26 *242:24 *1507:B2 9.88736e-06
*RES
1 *1503:ZN *1507:B2 36.576 
*END

*D_NET *244 0.0153057
*CONN
*I *1592:A1 I *D gf180mcu_fd_sc_mcu7t5v0__oai21_1
*I *1580:A2 I *D gf180mcu_fd_sc_mcu7t5v0__aoi21_1
*I *1506:A2 I *D gf180mcu_fd_sc_mcu7t5v0__nand2_1
*I *1533:A1 I *D gf180mcu_fd_sc_mcu7t5v0__nand2_1
*I *1595:A2 I *D gf180mcu_fd_sc_mcu7t5v0__and3_1
*I *1546:A2 I *D gf180mcu_fd_sc_mcu7t5v0__nor2_1
*I *1504:ZN O *D gf180mcu_fd_sc_mcu7t5v0__nor2_1
*CAP
1 *1592:A1 0
2 *1580:A2 0.000280295
3 *1506:A2 2.01962e-05
4 *1533:A1 0.000187846
5 *1595:A2 0
6 *1546:A2 3.1204e-05
7 *1504:ZN 0.000558961
8 *244:76 0.000411826
9 *244:47 0.00143989
10 *244:28 0.00152169
11 *244:14 0.000754554
12 *244:8 0.00118641
13 *1506:A2 *1572:A2 3.73627e-05
14 *1533:A1 *1533:A2 0.000521456
15 *1533:A1 *1595:A3 2.6126e-05
16 *1546:A2 *1508:B 1.11169e-05
17 *1546:A2 *467:102 0
18 *1580:A2 *1594:A2 0.000344204
19 *1580:A2 *1686:CLK 0
20 *1580:A2 *1855:I 3.62081e-05
21 *1580:A2 *397:30 0
22 *244:8 *1528:I1 0.000109795
23 *244:8 *1551:A1 0.00114628
24 *244:8 *1579:A1 0
25 *244:8 *442:8 0
26 *244:14 *1385:I 0.000340568
27 *244:14 *1508:A2 3.17404e-05
28 *244:14 *1528:I1 7.17888e-05
29 *244:14 *1528:S 4.52293e-05
30 *244:14 *1570:C 3.28763e-06
31 *244:14 *1572:A2 0.000231978
32 *244:14 *1686:CLK 0
33 *244:14 *1855:I 4.13055e-05
34 *244:14 *442:23 8.30183e-05
35 *244:28 *1507:A1 0.00030593
36 *244:28 *1507:A2 1.72953e-05
37 *244:28 *1507:C 0.000485578
38 *244:28 *1508:B 8.94564e-05
39 *244:28 *467:102 0
40 *244:47 *1508:B 0.000201957
41 *244:47 *1533:A2 0.000680106
42 *244:47 *1534:I0 1.41096e-05
43 *244:47 *1547:A2 0.000142809
44 *244:47 *1567:B 4.1487e-05
45 *244:47 *1571:B 2.17641e-05
46 *244:47 *1595:A3 0.000132099
47 *244:47 *265:12 1.66527e-05
48 *244:47 *269:19 9.63957e-05
49 *244:47 *278:8 4.58467e-05
50 *244:47 *295:16 0.000102192
51 *244:47 *420:35 1.75056e-06
52 *244:47 *420:47 1.56877e-05
53 *244:76 *1528:I1 5.40596e-05
54 *244:76 *1855:I 0.000601724
55 *1495:A1 *244:47 5.37083e-05
56 *1502:A1 *244:47 0.000254643
57 *1506:A1 *244:28 9.89981e-05
58 *1526:A1 *244:8 0.000488256
59 *1531:A2 *244:28 0
60 *1686:D *244:14 5.3266e-05
61 *1704:D *1580:A2 0.000149579
62 *135:8 *244:47 4.43093e-05
63 *135:32 *244:47 0.000145265
64 *230:33 *244:28 0.00035308
65 *230:33 *244:47 0.000184378
66 *233:24 *244:8 0
67 *239:39 *244:47 0.000569188
68 *242:6 *244:47 0.000369746
69 *242:24 *1533:A1 0
*RES
1 *1504:ZN *244:8 14.548 
2 *244:8 *244:14 9.516 
3 *244:14 *244:28 12.268 
4 *244:28 *1546:A2 4.728 
5 *244:28 *244:47 20.248 
6 *244:47 *1595:A2 4.5 
7 *244:47 *1533:A1 6.476 
8 *244:14 *1506:A2 4.728 
9 *244:8 *244:76 6.096 
10 *244:76 *1580:A2 7.388 
11 *244:76 *1592:A1 4.5 
*END

*D_NET *245 0.0143692
*CONN
*I *1562:A2 I *D gf180mcu_fd_sc_mcu7t5v0__nand3_1
*I *1554:A2 I *D gf180mcu_fd_sc_mcu7t5v0__nand3_1
*I *1547:A2 I *D gf180mcu_fd_sc_mcu7t5v0__nand2_1
*I *1569:A2 I *D gf180mcu_fd_sc_mcu7t5v0__aoi21_1
*I *1561:B I *D gf180mcu_fd_sc_mcu7t5v0__oai211_1
*I *1584:A2 I *D gf180mcu_fd_sc_mcu7t5v0__or3_1
*I *1590:A2 I *D gf180mcu_fd_sc_mcu7t5v0__aoi21_1
*I *1505:ZN O *D gf180mcu_fd_sc_mcu7t5v0__nand2_1
*CAP
1 *1562:A2 0
2 *1554:A2 4.18961e-05
3 *1547:A2 6.70899e-05
4 *1569:A2 8.55145e-05
5 *1561:B 0
6 *1584:A2 0.000123573
7 *1590:A2 0.000368154
8 *1505:ZN 0
9 *245:69 0.000253436
10 *245:67 0.000454344
11 *245:54 0.000384508
12 *245:50 0.000474226
13 *245:14 0.000708741
14 *245:4 0.000618349
15 *1547:A2 *1523:A2 0.000536064
16 *1547:A2 *265:12 3.80391e-05
17 *1547:A2 *411:16 0.000329336
18 *1547:A2 *411:18 0.000199573
19 *1554:A2 *1534:I0 0.000324233
20 *1569:A2 *1534:I0 0.000495745
21 *1569:A2 *270:16 0.000666758
22 *1584:A2 *1492:A1 8.05328e-06
23 *1584:A2 *1492:A2 8.04285e-05
24 *1584:A2 *1556:S 3.95521e-05
25 *1584:A2 *1584:A3 5.1289e-05
26 *1584:A2 *307:10 1.02578e-05
27 *1584:A2 *413:64 0.000146949
28 *1590:A2 *1492:A1 9.52854e-05
29 *1590:A2 *1590:B 0.000557818
30 *1590:A2 *1593:B 3.07734e-05
31 *1590:A2 *311:8 0.000124769
32 *1590:A2 *413:40 0.000456157
33 *1590:A2 *413:51 0.000113362
34 *1590:A2 *413:64 2.23783e-05
35 *245:14 *1492:A1 0.000142801
36 *245:14 *1497:A3 1.17512e-05
37 *245:14 *1505:A2 3.08902e-05
38 *245:14 *1556:S 0.000828068
39 *245:14 *413:64 5.10924e-05
40 *245:50 *1504:A1 3.08902e-05
41 *245:50 *1505:A2 0.000412478
42 *245:50 *1551:A1 0.000127519
43 *245:50 *1556:S 0.000245839
44 *245:50 *1562:A3 5.13352e-06
45 *245:50 *281:6 5.55495e-05
46 *245:50 *303:26 6.71841e-05
47 *245:50 *487:36 5.22519e-05
48 *245:54 *1504:A1 5.76373e-06
49 *245:54 *1563:C 0.000448201
50 *245:67 *1563:C 0.000149553
51 *245:67 *1567:A2 0.000270278
52 *245:67 *1567:B 0.000193933
53 *245:67 *290:10 0.000203335
54 *245:67 *303:26 5.2789e-05
55 *245:67 *412:91 0.000192419
56 *245:69 *1532:A1 0.00026757
57 *245:69 *1534:I0 0.000228445
58 *245:69 *270:16 0.000461749
59 *1497:A1 *245:14 1.02823e-05
60 *1497:A4 *1590:A2 0.000192394
61 *1497:A4 *245:14 0.000161672
62 *1504:A2 *245:50 0.00026286
63 *1504:A2 *245:54 0.000144303
64 *1507:B2 *1554:A2 5.72229e-05
65 *1507:B2 *245:69 1.43729e-05
66 *1550:A4 *245:50 0.000179742
67 *1561:A1 *245:54 0.000140412
68 *1561:A1 *245:67 4.57884e-05
69 *1562:A1 *245:54 4.10312e-05
70 *1565:A1 *245:67 0.000137785
71 *1565:A2 *245:69 3.19947e-05
72 *1580:A1 *1590:A2 4.10444e-05
73 *1584:A1 *1584:A2 3.97114e-05
74 *126:10 *1590:A2 3.38043e-05
75 *126:27 *1590:A2 0.000106908
76 *126:40 *1590:A2 5.19228e-05
77 *232:6 *1584:A2 1.15275e-05
78 *234:27 *245:50 4.45625e-06
79 *234:27 *245:54 1.44832e-05
80 *238:18 *245:50 6.04926e-05
81 *244:47 *1547:A2 0.000142809
*RES
1 *1505:ZN *245:4 4.5 
2 *245:4 *245:14 7.54 
3 *245:14 *1590:A2 13.712 
4 *245:14 *1584:A2 10.52 
5 *245:4 *245:50 13.332 
6 *245:50 *245:54 1.824 
7 *245:54 *1561:B 4.5 
8 *245:54 *245:67 7.92 
9 *245:67 *245:69 1.9 
10 *245:69 *1569:A2 11.052 
11 *245:69 *1547:A2 19.824 
12 *245:67 *1554:A2 9.836 
13 *245:50 *1562:A2 4.5 
*END

*D_NET *246 0.00119206
*CONN
*I *1507:C I *D gf180mcu_fd_sc_mcu7t5v0__oai221_1
*I *1506:ZN O *D gf180mcu_fd_sc_mcu7t5v0__nand2_1
*CAP
1 *1507:C 0.000150467
2 *1506:ZN 0.000150467
3 *1507:C *1507:A2 0.000140663
4 *1507:C *1508:A2 1.46098e-05
5 *1507:C *1508:B 0.000192419
6 *1507:C *1570:C 0
7 *1507:C *277:14 8.04367e-06
8 *230:33 *1507:C 4.98138e-05
9 *244:28 *1507:C 0.000485578
*RES
1 *1506:ZN *1507:C 19.976 
*END

*D_NET *247 0.000952528
*CONN
*I *1508:A2 I *D gf180mcu_fd_sc_mcu7t5v0__aoi21_1
*I *1507:ZN O *D gf180mcu_fd_sc_mcu7t5v0__oai221_1
*CAP
1 *1508:A2 0.000307286
2 *1507:ZN 0.000307286
3 *1508:A2 *1508:B 2.48822e-05
4 *1508:A2 *1570:C 2.6126e-05
5 *1508:A2 *1572:A2 9.6504e-05
6 *1508:A2 *277:14 0.000144093
7 *1507:C *1508:A2 1.46098e-05
8 *244:14 *1508:A2 3.17404e-05
*RES
1 *1507:ZN *1508:A2 20.28 
*END

*D_NET *248 0.00105039
*CONN
*I *1528:S I *D gf180mcu_fd_sc_mcu7t5v0__mux2_2
*I *1508:ZN O *D gf180mcu_fd_sc_mcu7t5v0__aoi21_1
*CAP
1 *1528:S 0.000235718
2 *1508:ZN 0.000235718
3 *1528:S *1855:I 9.26705e-05
4 *1528:S *442:23 0.000441055
5 *1526:C *1528:S 0
6 *244:14 *1528:S 4.52293e-05
*RES
1 *1508:ZN *1528:S 11.052 
*END

*D_NET *249 0.00345837
*CONN
*I *1510:A2 I *D gf180mcu_fd_sc_mcu7t5v0__nand2_1
*I *1509:Z O *D gf180mcu_fd_sc_mcu7t5v0__mux4_1
*CAP
1 *1510:A2 0.000311396
2 *1509:Z 0.000311396
3 *1510:A2 *1509:S1 2.65778e-05
4 *1510:A2 *1512:A2 1.5015e-05
5 *1510:A2 *1513:A2 0.000698441
6 *1510:A2 *1513:B 8.0352e-06
7 *1510:A2 *269:42 3.73535e-05
8 *1510:A2 *389:23 9.82987e-06
9 *1510:A2 *494:10 3.95622e-05
10 *1423:I1 *1510:A2 0.00159471
11 *1748:D *1510:A2 0.000406051
*RES
1 *1509:Z *1510:A2 23.852 
*END

*D_NET *250 0.000542696
*CONN
*I *1512:A2 I *D gf180mcu_fd_sc_mcu7t5v0__nand2_1
*I *1510:ZN O *D gf180mcu_fd_sc_mcu7t5v0__nand2_1
*CAP
1 *1512:A2 0.000131628
2 *1510:ZN 0.000131628
3 *1512:A2 *1513:B 9.97774e-05
4 *1512:A2 *269:42 2.42995e-05
5 *1512:A2 *279:14 1.31249e-05
6 *1512:A2 *407:53 3.08902e-05
7 *1510:A2 *1512:A2 1.5015e-05
8 *1512:A1 *1512:A2 9.63339e-05
*RES
1 *1510:ZN *1512:A2 10.444 
*END

*D_NET *251 0.00445217
*CONN
*I *1513:A2 I *D gf180mcu_fd_sc_mcu7t5v0__aoi21_1
*I *1511:Z O *D gf180mcu_fd_sc_mcu7t5v0__mux4_1
*CAP
1 *1513:A2 0.000765573
2 *1511:Z 0.000765573
3 *1513:A2 *1509:S0 0.000330269
4 *1513:A2 *389:23 0.000376793
5 *1513:A2 *494:10 8.55242e-05
6 *1510:A1 *1513:A2 0.000576041
7 *1510:A2 *1513:A2 0.000698441
8 *1745:D *1513:A2 0.000441055
9 *1748:D *1513:A2 0.000412903
*RES
1 *1511:Z *1513:A2 27.728 
*END

*D_NET *252 0.000439479
*CONN
*I *1513:B I *D gf180mcu_fd_sc_mcu7t5v0__aoi21_1
*I *1512:ZN O *D gf180mcu_fd_sc_mcu7t5v0__nand2_1
*CAP
1 *1513:B 9.98216e-05
2 *1512:ZN 9.98216e-05
3 *1513:B *279:14 0.000132023
4 *1513:B *407:53 0
5 *1510:A2 *1513:B 8.0352e-06
6 *1512:A2 *1513:B 9.97774e-05
*RES
1 *1512:ZN *1513:B 10.14 
*END

*D_NET *253 0.00417906
*CONN
*I *1527:A2 I *D gf180mcu_fd_sc_mcu7t5v0__oai21_1
*I *1513:ZN O *D gf180mcu_fd_sc_mcu7t5v0__aoi21_1
*CAP
1 *1527:A2 0.00113401
2 *1513:ZN 0.00113401
3 *1527:A2 *1498:A1 0
4 *1527:A2 *1528:I1 6.33531e-06
5 *1527:A2 *1551:A1 0
6 *1527:A2 *1579:A1 0.000288247
7 *1527:A2 *1855:I 0
8 *1527:A2 *407:53 3.03414e-05
9 *1527:A2 *412:32 8.9944e-05
10 *1527:A2 *416:27 0.000495688
11 *1527:A2 *416:35 2.06509e-05
12 *1527:A2 *416:92 4.70915e-05
13 *1494:A2 *1527:A2 3.80391e-05
14 *1510:A1 *1527:A2 0.000151957
15 *1550:A4 *1527:A2 0.000251562
16 *124:23 *1527:A2 0.000230969
17 *124:25 *1527:A2 6.91851e-05
18 *124:27 *1527:A2 8.64697e-06
19 *124:55 *1527:A2 0
20 *233:8 *1527:A2 0.000182372
21 *234:14 *1527:A2 0
*RES
1 *1513:ZN *1527:A2 26.968 
*END

*D_NET *254 0.00118455
*CONN
*I *1522:A1 I *D gf180mcu_fd_sc_mcu7t5v0__nor4_1
*I *1514:Z O *D gf180mcu_fd_sc_mcu7t5v0__xor2_1
*CAP
1 *1522:A1 0.000301306
2 *1514:Z 0.000301306
3 *1522:A1 *1516:A1 0.000256732
4 *1522:A1 *1665:A1 3.13605e-05
5 *1522:A1 *1665:A2 0.000287153
6 *1522:A1 *379:16 6.69323e-06
*RES
1 *1514:Z *1522:A1 11.964 
*END

*D_NET *255 0.000544096
*CONN
*I *1522:A2 I *D gf180mcu_fd_sc_mcu7t5v0__nor4_1
*I *1515:Z O *D gf180mcu_fd_sc_mcu7t5v0__xor2_1
*CAP
1 *1522:A2 4.90354e-05
2 *1515:Z 4.90354e-05
3 *1522:A2 *1516:A1 0.000340241
4 *1522:A2 *1522:A4 8.96783e-05
5 *1522:A2 *464:58 1.61066e-05
*RES
1 *1515:Z *1522:A2 18.988 
*END

*D_NET *256 0.000497409
*CONN
*I *1522:A3 I *D gf180mcu_fd_sc_mcu7t5v0__nor4_1
*I *1516:Z O *D gf180mcu_fd_sc_mcu7t5v0__xor2_1
*CAP
1 *1522:A3 0.000193561
2 *1516:Z 0.000193561
3 *1522:A3 *1424:B2 0
4 *1522:A3 *1516:A1 1.91917e-06
5 *1522:A3 *1665:A2 0.000108369
*RES
1 *1516:Z *1522:A3 10.368 
*END

*D_NET *257 0.000468036
*CONN
*I *1521:A1 I *D gf180mcu_fd_sc_mcu7t5v0__or4_1
*I *1517:Z O *D gf180mcu_fd_sc_mcu7t5v0__xor2_1
*CAP
1 *1521:A1 7.06421e-05
2 *1517:Z 7.06421e-05
3 *1521:A1 *1601:I1 0.000100985
4 *1521:A1 *1783:I 0.000140853
5 *1521:A1 *385:14 8.49129e-05
*RES
1 *1517:Z *1521:A1 10.064 
*END

*D_NET *258 0.00231677
*CONN
*I *1521:A2 I *D gf180mcu_fd_sc_mcu7t5v0__or4_1
*I *1518:Z O *D gf180mcu_fd_sc_mcu7t5v0__xor2_1
*CAP
1 *1521:A2 0.000577565
2 *1518:Z 0.000577565
3 *1521:A2 *1515:A1 0
4 *1521:A2 *1515:A2 6.68265e-05
5 *1521:A2 *1516:A2 1.54035e-05
6 *1521:A2 *1601:I0 1.44832e-05
7 *1521:A2 *1601:I1 0.000195891
8 *1521:A2 *1602:I1 5.22519e-05
9 *1521:A2 *379:16 0.000204222
10 *1521:A2 *386:12 8.15645e-05
11 *1521:A2 *386:18 0.00032883
12 *1521:A2 *467:86 0.000190367
13 *1710:D *1521:A2 1.18004e-05
*RES
1 *1518:Z *1521:A2 23.016 
*END

*D_NET *259 0.000390564
*CONN
*I *1521:A3 I *D gf180mcu_fd_sc_mcu7t5v0__or4_1
*I *1519:Z O *D gf180mcu_fd_sc_mcu7t5v0__xor2_1
*CAP
1 *1521:A3 0.000106934
2 *1519:Z 0.000106934
3 *1521:A3 *1521:A4 6.44359e-05
4 *1521:A3 *1601:I1 6.03838e-05
5 *1521:A3 *385:14 5.18759e-05
*RES
1 *1519:Z *1521:A3 9.988 
*END

*D_NET *260 0.00125495
*CONN
*I *1521:A4 I *D gf180mcu_fd_sc_mcu7t5v0__or4_1
*I *1520:Z O *D gf180mcu_fd_sc_mcu7t5v0__xor2_1
*CAP
1 *1521:A4 0.000300236
2 *1520:Z 0.000300236
3 *1521:A4 *1515:A1 0.000220291
4 *1521:A4 *1519:A1 0.000369746
5 *1521:A4 *385:14 0
6 *1521:A3 *1521:A4 6.44359e-05
*RES
1 *1520:Z *1521:A4 11.964 
*END

*D_NET *261 0.000847505
*CONN
*I *1522:A4 I *D gf180mcu_fd_sc_mcu7t5v0__nor4_1
*I *1521:Z O *D gf180mcu_fd_sc_mcu7t5v0__or4_1
*CAP
1 *1522:A4 0.000329415
2 *1521:Z 0.000329415
3 *1522:A4 *1516:A1 3.43264e-05
4 *1522:A4 *1517:A1 0
5 *1522:A4 *1665:A2 3.23347e-05
6 *1522:A4 *262:10 0
7 *1522:A4 *378:10 3.23347e-05
8 *1522:A4 *464:58 0
9 *1522:A2 *1522:A4 8.96783e-05
*RES
1 *1521:Z *1522:A4 20.432 
*END

*D_NET *262 0.0120253
*CONN
*I *1573:A2 I *D gf180mcu_fd_sc_mcu7t5v0__oai21_1
*I *1523:A2 I *D gf180mcu_fd_sc_mcu7t5v0__aoi21_1
*I *1522:ZN O *D gf180mcu_fd_sc_mcu7t5v0__nor4_1
*CAP
1 *1573:A2 0
2 *1523:A2 0.000865564
3 *1522:ZN 0.00234699
4 *262:10 0.00321255
5 *1523:A2 *265:12 8.69862e-05
6 *1523:A2 *295:16 6.48283e-06
7 *1523:A2 *295:46 3.6415e-05
8 *1523:A2 *411:16 6.72788e-05
9 *1523:A2 *411:18 6.5393e-05
10 *1523:A2 *411:22 0.000173755
11 *1523:A2 *412:16 7.14806e-05
12 *1523:A2 *412:18 0.00011163
13 *262:10 *1515:A1 0.000142175
14 *262:10 *1515:A2 0
15 *262:10 *1517:A1 0.00130406
16 *262:10 *1520:A2 0
17 *262:10 *1598:I0 6.86465e-05
18 *262:10 *1600:I0 0.000212895
19 *262:10 *1665:A2 0.000326276
20 *262:10 *269:19 0
21 *262:10 *272:12 0.000941155
22 *262:10 *295:16 1.80963e-05
23 *262:10 *316:14 0
24 *262:10 *384:10 0.000342528
25 *262:10 *407:16 0
26 *262:10 *407:29 0
27 *262:10 *447:8 0
28 *262:10 *447:23 0
29 *1522:A4 *262:10 0
30 *1525:A1 *1523:A2 0.000369763
31 *1547:A2 *1523:A2 0.000536064
32 *1565:A1 *1523:A2 0.000520155
33 *1573:A1 *1523:A2 9.19324e-05
34 *1713:D *262:10 0
35 *234:27 *1523:A2 3.10417e-05
36 *234:31 *1523:A2 7.59825e-05
*RES
1 *1522:ZN *262:10 28 
2 *262:10 *1523:A2 17.056 
3 *262:10 *1573:A2 9 
*END

*D_NET *263 0.00255956
*CONN
*I *1579:B I *D gf180mcu_fd_sc_mcu7t5v0__aoi21_1
*I *1526:B I *D gf180mcu_fd_sc_mcu7t5v0__aoi211_1
*I *1523:ZN O *D gf180mcu_fd_sc_mcu7t5v0__aoi21_1
*CAP
1 *1579:B 0.00018564
2 *1526:B 0.000523808
3 *1523:ZN 0.000338168
4 *1526:B *264:37 3.24791e-05
5 *1526:B *264:53 4.15985e-06
6 *1579:B *1375:I 1.15312e-05
7 *1579:B *1527:B 7.06306e-05
8 *1579:B *1579:A1 0.000101612
9 *1579:B *1855:I 0
10 *1526:A1 *1526:B 7.57066e-05
11 *1527:A1 *1526:B 0.000149579
12 *1527:A1 *1579:B 0.000317494
13 *1590:A1 *1579:B 1.10583e-05
14 *136:13 *1526:B 6.84574e-06
15 *136:13 *1579:B 2.57058e-06
16 *233:24 *1526:B 0.000728279
*RES
1 *1523:ZN *1526:B 21.04 
2 *1526:B *1579:B 10.748 
*END

*D_NET *264 0.0130382
*CONN
*I *1526:A2 I *D gf180mcu_fd_sc_mcu7t5v0__aoi211_1
*I *1559:A3 I *D gf180mcu_fd_sc_mcu7t5v0__nand3_1
*I *1557:A2 I *D gf180mcu_fd_sc_mcu7t5v0__nand2_1
*I *1570:C I *D gf180mcu_fd_sc_mcu7t5v0__aoi211_1
*I *1524:ZN O *D gf180mcu_fd_sc_mcu7t5v0__nor2_1
*CAP
1 *1526:A2 0
2 *1559:A3 0
3 *1557:A2 0.000633178
4 *1570:C 0.000283012
5 *1524:ZN 0.00035418
6 *264:53 0.00196399
7 *264:37 0.00153904
8 *264:22 0.000845418
9 *1557:A2 *1558:A2 3.07734e-05
10 *1557:A2 *1559:A1 1.87701e-05
11 *1557:A2 *1702:CLK 0.000147129
12 *1557:A2 *1787:I 0.000142209
13 *1557:A2 *286:17 0.000170054
14 *1557:A2 *397:10 1.11891e-05
15 *1570:C *1496:A2 2.02486e-05
16 *1570:C *1508:B 5.0126e-05
17 *1570:C *1572:A2 2.89664e-05
18 *1570:C *277:14 7.75836e-05
19 *1570:C *442:8 0
20 *264:22 *1496:A1 1.33911e-06
21 *264:22 *1496:A2 2.01749e-05
22 *264:22 *1524:A1 2.6126e-05
23 *264:22 *1570:B 0.000198813
24 *264:22 *420:33 0.000359159
25 *264:37 *1496:A2 0.000124679
26 *264:53 *1559:A1 9.00597e-06
27 *264:53 *1593:B 0.000121102
28 *264:53 *269:46 4.99843e-05
29 *264:53 *286:17 3.96201e-05
30 *264:53 *413:27 0.000165038
31 *264:53 *420:12 0.0021843
32 *264:53 *420:33 0.000254152
33 *1495:A2 *264:22 6.817e-05
34 *1507:C *1570:C 0
35 *1508:A1 *1570:C 8.8586e-05
36 *1508:A2 *1570:C 2.6126e-05
37 *1524:A2 *264:22 7.3227e-05
38 *1526:A1 *264:53 7.39173e-05
39 *1526:B *264:37 3.24791e-05
40 *1526:B *264:53 4.15985e-06
41 *1527:A1 *264:37 7.15945e-05
42 *1556:I0 *1557:A2 0
43 *1557:A1 *1557:A2 0
44 *1559:A2 *1557:A2 3.83835e-06
45 *1559:A2 *264:53 4.58601e-06
46 *1569:B *264:22 0.000190692
47 *1570:A1 *1570:C 0.000119349
48 *1697:D *1557:A2 9.58397e-05
49 *136:13 *264:37 0.000995318
50 *136:26 *264:22 6.81573e-05
51 *230:33 *264:22 0
52 *233:78 *1557:A2 0.000960164
53 *236:21 *1570:C 0.000221134
54 *236:21 *264:22 6.817e-05
55 *244:14 *1570:C 3.28763e-06
*RES
1 *1524:ZN *264:22 20.888 
2 *264:22 *1570:C 11.584 
3 *264:22 *264:37 7.16 
4 *264:37 *264:53 25.752 
5 *264:53 *1557:A2 19.428 
6 *264:53 *1559:A3 4.5 
7 *264:37 *1526:A2 4.5 
*END

*D_NET *265 0.00346507
*CONN
*I *1555:A1 I *D gf180mcu_fd_sc_mcu7t5v0__nor2_1
*I *1532:A1 I *D gf180mcu_fd_sc_mcu7t5v0__nor2_1
*I *1525:ZN O *D gf180mcu_fd_sc_mcu7t5v0__nand2_1
*CAP
1 *1555:A1 0.000132417
2 *1532:A1 0.00023885
3 *1525:ZN 0.000114591
4 *265:12 0.000485858
5 *1532:A1 *1534:I0 0.000260709
6 *1532:A1 *1568:A1 6.54275e-05
7 *1532:A1 *295:16 5.49899e-05
8 *1532:A1 *303:26 0.000210957
9 *1555:A1 *1568:A1 0.000248677
10 *1555:A1 *285:8 0.000134564
11 *1555:A1 *295:16 2.63488e-06
12 *1555:A1 *411:16 0.00025949
13 *265:12 *269:19 6.87188e-05
14 *265:12 *278:8 0.00014967
15 *265:12 *295:16 2.47727e-05
16 *265:12 *411:16 0.000336126
17 *1523:A2 *265:12 8.69862e-05
18 *1547:A2 *265:12 3.80391e-05
19 *1573:B *1555:A1 0.000133724
20 *234:31 *1532:A1 0.000133644
21 *244:47 *265:12 1.66527e-05
22 *245:69 *1532:A1 0.00026757
*RES
1 *1525:ZN *265:12 14.868 
2 *265:12 *1532:A1 16.16 
3 *265:12 *1555:A1 6.628 
*END

*D_NET *266 0.000662082
*CONN
*I *1527:B I *D gf180mcu_fd_sc_mcu7t5v0__oai21_1
*I *1526:ZN O *D gf180mcu_fd_sc_mcu7t5v0__aoi211_1
*CAP
1 *1527:B 0.000172174
2 *1526:ZN 0.000172174
3 *1527:A1 *1527:B 9.61205e-06
4 *1579:B *1527:B 7.06306e-05
5 *136:13 *1527:B 0.000237491
*RES
1 *1526:ZN *1527:B 10.748 
*END

*D_NET *267 0.00104317
*CONN
*I *1528:I1 I *D gf180mcu_fd_sc_mcu7t5v0__mux2_2
*I *1527:ZN O *D gf180mcu_fd_sc_mcu7t5v0__oai21_1
*CAP
1 *1528:I1 0.000395003
2 *1527:ZN 0.000395003
3 *1528:I1 *1579:A1 1.11891e-05
4 *1528:I1 *1592:A2 0
5 *1528:I1 *1686:CLK 0
6 *1528:I1 *304:8 0
7 *1527:A2 *1528:I1 6.33531e-06
8 *244:8 *1528:I1 0.000109795
9 *244:14 *1528:I1 7.17888e-05
10 *244:76 *1528:I1 5.40596e-05
*RES
1 *1527:ZN *1528:I1 20.888 
*END

*D_NET *268 0.00097167
*CONN
*I *1577:C I *D gf180mcu_fd_sc_mcu7t5v0__aoi211_1
*I *1529:ZN O *D gf180mcu_fd_sc_mcu7t5v0__nand2_1
*CAP
1 *1577:C 0.000367311
2 *1529:ZN 0.000367311
3 *1577:C *1529:A1 1.91917e-06
4 *1577:C *1577:A1 3.08902e-05
5 *1577:C *1577:A2 4.56395e-05
6 *1575:A1 *1577:C 1.21529e-05
7 *1576:A2 *1577:C 4.10312e-05
8 *1700:D *1577:C 0.000105415
*RES
1 *1529:ZN *1577:C 11.508 
*END

*D_NET *269 0.0196039
*CONN
*I *1548:A1 I *D gf180mcu_fd_sc_mcu7t5v0__nand4_1
*I *1585:B I *D gf180mcu_fd_sc_mcu7t5v0__oai21_1
*I *1593:B I *D gf180mcu_fd_sc_mcu7t5v0__oai21_1
*I *1581:B I *D gf180mcu_fd_sc_mcu7t5v0__oai21_1
*I *1595:A3 I *D gf180mcu_fd_sc_mcu7t5v0__and3_1
*I *1571:B I *D gf180mcu_fd_sc_mcu7t5v0__oai21_1
*I *1530:ZN O *D gf180mcu_fd_sc_mcu7t5v0__nor2_1
*CAP
1 *1548:A1 0.000277569
2 *1585:B 3.91524e-05
3 *1593:B 0.00028903
4 *1581:B 3.98341e-05
5 *1595:A3 2.1447e-05
6 *1571:B 0.000128805
7 *1530:ZN 0
8 *269:46 0.00102608
9 *269:42 0.00192887
10 *269:36 0.00209119
11 *269:19 0.00165277
12 *269:6 0.00113901
13 *1548:A1 *1545:A1 0.000265188
14 *1548:A1 *279:14 0.000481073
15 *1548:A1 *407:37 0.000146811
16 *1548:A1 *459:27 6.29048e-05
17 *1571:B *295:18 0.000104733
18 *1581:B *413:27 0.000254221
19 *1581:B *448:10 0.000107357
20 *1585:B *1556:S 6.75725e-05
21 *1585:B *415:27 0.000187262
22 *1593:B *1591:A2 0.000282358
23 *1593:B *286:17 1.59837e-05
24 *1593:B *413:27 9.67212e-05
25 *1593:B *413:40 1.40218e-05
26 *1595:A3 *1533:A2 0.000125479
27 *269:19 *1533:A2 0
28 *269:19 *1566:A3 0.000514796
29 *269:19 *1567:A1 9.08447e-05
30 *269:19 *278:8 8.29527e-05
31 *269:19 *295:16 0.000151383
32 *269:19 *295:18 0.000168699
33 *269:19 *407:16 0.000102192
34 *269:19 *407:29 0.000102192
35 *269:19 *411:16 0.00025099
36 *269:36 *1499:A2 0.000153266
37 *269:36 *1533:A2 0
38 *269:36 *1566:A3 7.34706e-05
39 *269:36 *1687:CLK 0
40 *269:36 *381:12 0.000668356
41 *269:36 *407:37 0.00196302
42 *269:42 *1585:A1 0.000126947
43 *269:42 *1586:A1 3.41317e-05
44 *269:42 *1743:CLK 0.000168743
45 *269:42 *1744:CLK 0.000139442
46 *269:42 *279:14 0
47 *269:42 *399:23 0.000107266
48 *269:42 *399:36 0.000554655
49 *269:42 *399:47 0.000376448
50 *269:42 *413:64 0
51 *269:42 *414:14 0.000130752
52 *269:42 *449:21 3.2834e-05
53 *269:46 *1587:A1 9.50253e-05
54 *269:46 *1589:B 0.000150543
55 *269:46 *1829:I 2.22814e-05
56 *269:46 *303:26 0
57 *269:46 *303:32 1.28891e-05
58 *269:46 *413:27 0.000127097
59 *269:46 *413:40 0
60 *269:46 *413:51 0
61 *269:46 *413:64 0
62 *269:46 *448:10 0.000451718
63 *269:46 *449:21 8.78761e-05
64 *1501:A2 *1548:A1 1.49066e-06
65 *1502:A1 *269:19 0.000123763
66 *1510:A2 *269:42 3.73535e-05
67 *1512:A1 *1548:A1 1.59363e-05
68 *1512:A1 *269:42 0.000858365
69 *1512:A2 *269:42 2.42995e-05
70 *1533:A1 *1595:A3 2.6126e-05
71 *1543:A1 *1548:A1 0
72 *1580:A1 *1593:B 6.65154e-06
73 *1590:A2 *1593:B 3.07734e-05
74 *1744:D *269:42 4.24995e-05
75 *126:10 *1593:B 2.37091e-05
76 *134:8 *1548:A1 2.14818e-05
77 *239:10 *269:36 0
78 *239:39 *269:19 1.43729e-05
79 *240:8 *1548:A1 1.78155e-05
80 *240:12 *269:36 1.29029e-05
81 *240:12 *269:42 7.002e-05
82 *244:47 *1571:B 2.17641e-05
83 *244:47 *1595:A3 0.000132099
84 *244:47 *269:19 9.63957e-05
85 *262:10 *269:19 0
86 *264:53 *1593:B 0.000121102
87 *264:53 *269:46 4.99843e-05
88 *265:12 *269:19 6.87188e-05
*RES
1 *1530:ZN *269:6 9 
2 *269:6 *1571:B 9.988 
3 *269:6 *269:19 8.512 
4 *269:19 *1595:A3 9.38 
5 *269:19 *269:36 11.568 
6 *269:36 *269:42 16.204 
7 *269:42 *269:46 5.624 
8 *269:46 *1581:B 9.684 
9 *269:46 *1593:B 20.432 
10 *269:42 *1585:B 9.532 
11 *269:36 *1548:A1 16.236 
*END

*D_NET *270 0.0127134
*CONN
*I *1532:A2 I *D gf180mcu_fd_sc_mcu7t5v0__nor2_1
*I *1589:C I *D gf180mcu_fd_sc_mcu7t5v0__aoi211_1
*I *1560:B I *D gf180mcu_fd_sc_mcu7t5v0__aoi21_1
*I *1558:B I *D gf180mcu_fd_sc_mcu7t5v0__aoi21_1
*I *1531:Z O *D gf180mcu_fd_sc_mcu7t5v0__or2_1
*CAP
1 *1532:A2 4.44878e-05
2 *1589:C 0
3 *1560:B 3.73162e-05
4 *1558:B 0.00051022
5 *1531:Z 0.00042968
6 *270:40 0.00134499
7 *270:32 0.003027
8 *270:16 0.00270371
9 *1532:A2 *290:10 1.99986e-05
10 *1532:A2 *303:26 0.00010276
11 *1558:B *1366:I 0
12 *1558:B *1396:A2 0
13 *1560:B *1560:A2 1.33911e-06
14 *270:16 *1534:I0 1.13717e-05
15 *270:16 *1570:B 1.53727e-05
16 *270:16 *1575:A2 1.56182e-05
17 *270:16 *420:35 1.53123e-05
18 *270:16 *420:47 8.75518e-05
19 *270:32 *1563:A1 2.69245e-05
20 *270:32 *1587:A2 5.19077e-05
21 *270:32 *1587:B 0
22 *270:32 *290:10 0.000416249
23 *270:32 *303:26 0.000484859
24 *270:32 *307:10 3.08902e-05
25 *270:40 *1587:B 0
26 *270:40 *1589:B 2.96621e-05
27 *270:40 *1703:CLK 0.000168417
28 *270:40 *1828:I 0.000203409
29 *270:40 *1829:I 0
30 *270:40 *449:8 0
31 *1506:A1 *270:16 0.000116851
32 *1546:A1 *270:16 8.55242e-05
33 *1556:I0 *1558:B 0
34 *1556:I0 *270:40 2.33477e-05
35 *1560:A1 *1558:B 0
36 *1560:A1 *1560:B 2.9378e-06
37 *1560:A1 *270:40 0.000279004
38 *1565:A1 *270:32 1.30364e-05
39 *1565:A2 *270:16 5.59457e-05
40 *1569:A2 *270:16 0.000666758
41 *1569:B *270:16 8.55327e-05
42 *1583:A1 *270:32 1.5015e-05
43 *1698:D *1558:B 0.000171286
44 *1698:D *270:40 0
45 *1703:D *270:32 3.25235e-05
46 *1703:D *270:40 0.000199864
47 *127:10 *1558:B 5.29091e-05
48 *127:10 *1560:B 3.83835e-06
49 *154:10 *270:40 0.000158878
50 *230:33 *270:16 0.000151785
51 *233:70 *270:32 0
52 *235:17 *270:16 0.000357604
53 *245:69 *270:16 0.000461749
*RES
1 *1531:Z *270:16 18.82 
2 *270:16 *270:32 29.704 
3 *270:32 *270:40 15.232 
4 *270:40 *1558:B 16.54 
5 *270:40 *1560:B 4.728 
6 *270:32 *1589:C 4.5 
7 *270:16 *1532:A2 4.88 
*END

*D_NET *271 0.00479698
*CONN
*I *1533:A2 I *D gf180mcu_fd_sc_mcu7t5v0__nand2_1
*I *1554:A3 I *D gf180mcu_fd_sc_mcu7t5v0__nand3_1
*I *1532:ZN O *D gf180mcu_fd_sc_mcu7t5v0__nor2_1
*CAP
1 *1533:A2 0.0006173
2 *1554:A3 4.33408e-05
3 *1532:ZN 4.45454e-05
4 *271:10 0.000705186
5 *1533:A2 *1556:S 9.88736e-06
6 *1533:A2 *1567:A2 0.000135133
7 *1533:A2 *1567:B 0.000162477
8 *1533:A2 *316:8 0.00021333
9 *1533:A2 *381:12 0
10 *1533:A2 *459:27 0.000240894
11 *1554:A3 *1556:S 3.73535e-05
12 *1554:A3 *1567:A2 5.23685e-05
13 *1554:A3 *294:6 0
14 *271:10 *1534:I0 0.000258279
15 *1533:A1 *1533:A2 0.000521456
16 *1595:A3 *1533:A2 0.000125479
17 *135:32 *1533:A2 0.000261061
18 *135:32 *271:10 0.000378617
19 *239:10 *1533:A2 6.83457e-05
20 *239:14 *1533:A2 0.000181689
21 *239:39 *1533:A2 8.03222e-06
22 *242:6 *1533:A2 1.94399e-05
23 *242:24 *1533:A2 3.2657e-05
24 *244:47 *1533:A2 0.000680106
25 *269:19 *1533:A2 0
26 *269:36 *1533:A2 0
*RES
1 *1532:ZN *271:10 14.488 
2 *271:10 *1554:A3 4.956 
3 *271:10 *1533:A2 21.632 
*END

*D_NET *272 0.012229
*CONN
*I *1824:I I *D gf180mcu_fd_sc_mcu7t5v0__buf_2
*I *1535:S I *D gf180mcu_fd_sc_mcu7t5v0__mux2_2
*I *1536:S I *D gf180mcu_fd_sc_mcu7t5v0__mux2_2
*I *1534:S I *D gf180mcu_fd_sc_mcu7t5v0__mux2_2
*I *1533:ZN O *D gf180mcu_fd_sc_mcu7t5v0__nand2_1
*CAP
1 *1824:I 0.000155675
2 *1535:S 0
3 *1536:S 0.000250914
4 *1534:S 6.88703e-05
5 *1533:ZN 0.000490197
6 *272:27 0.000429951
7 *272:23 0.00211282
8 *272:12 0.00233718
9 *1534:S *402:34 4.62236e-05
10 *1536:S *1535:I1 0.000171927
11 *1536:S *1536:I0 8.7332e-05
12 *1536:S *483:24 9.53497e-05
13 *1824:I *1627:B2 0
14 *1824:I *444:14 0.000146465
15 *1824:I *458:19 9.27021e-05
16 *1824:I *481:8 0.000157232
17 *272:12 *1499:A2 5.13643e-06
18 *272:12 *1599:I1 0.000121492
19 *272:12 *383:10 4.63352e-05
20 *272:12 *402:10 0.000352489
21 *272:12 *402:16 7.52312e-05
22 *272:12 *402:34 7.22169e-05
23 *272:12 *407:29 0.000107861
24 *272:23 *1519:A1 0.000416347
25 *272:23 *1520:A2 0
26 *272:23 *1534:I1 0.000205933
27 *272:23 *1654:A2 0.000453567
28 *272:23 *1655:A1 1.31444e-05
29 *272:23 *1659:A2 0
30 *272:23 *1737:CLK 0.000195997
31 *272:23 *375:10 1.22643e-05
32 *272:23 *393:12 4.36613e-05
33 *272:23 *393:34 6.61664e-05
34 *272:23 *464:86 0.000300145
35 *272:23 *477:10 0
36 *272:23 *477:44 0
37 *272:23 *480:34 0
38 *272:23 *481:8 3.35674e-05
39 *272:23 *481:14 0.000646708
40 *272:27 *481:32 0.000135056
41 *272:27 *483:24 7.79363e-05
42 *1660:A1 *272:23 2.57174e-05
43 *1687:D *272:23 6.57222e-05
44 *1690:D *1824:I 5.43644e-06
45 *1690:D *272:23 1.99284e-05
46 *1708:D *272:12 0.000601724
47 *1737:D *272:23 0.000236296
48 *1739:D *272:23 0.000308952
49 *262:10 *272:12 0.000941155
*RES
1 *1533:ZN *272:12 20.796 
2 *272:12 *1534:S 5.032 
3 *272:12 *272:23 20.992 
4 *272:23 *272:27 5.944 
5 *272:27 *1536:S 6.704 
6 *272:27 *1535:S 4.5 
7 *272:23 *1824:I 10.976 
*END

*D_NET *273 0.00361763
*CONN
*I *1543:B I *D gf180mcu_fd_sc_mcu7t5v0__oai21_1
*I *1563:B1 I *D gf180mcu_fd_sc_mcu7t5v0__oai221_1
*I *1542:ZN O *D gf180mcu_fd_sc_mcu7t5v0__oai21_1
*CAP
1 *1543:B 0.00014638
2 *1563:B1 2.36052e-05
3 *1542:ZN 0
4 *273:6 0.000169985
5 *1543:B *1548:A2 0.000403764
6 *1543:B *1548:A4 0.000467288
7 *1543:B *407:37 0
8 *1563:B1 *1548:A4 0.000578327
9 *1563:B1 *1563:B2 7.83779e-05
10 *1563:B1 *487:22 8.55242e-05
11 *1501:A1 *1543:B 0
12 *1507:B2 *1543:B 0
13 *1543:A1 *1543:B 0.000732334
14 *236:44 *1543:B 0.000355995
15 *236:44 *1563:B1 0.000576049
*RES
1 *1542:ZN *273:6 9 
2 *273:6 *1563:B1 10.672 
3 *273:6 *1543:B 12.116 
*END

*D_NET *274 0.000543387
*CONN
*I *1548:A2 I *D gf180mcu_fd_sc_mcu7t5v0__nand4_1
*I *1543:ZN O *D gf180mcu_fd_sc_mcu7t5v0__oai21_1
*CAP
1 *1548:A2 6.98113e-05
2 *1543:ZN 6.98113e-05
3 *1501:A1 *1548:A2 0
4 *1543:B *1548:A2 0.000403764
*RES
1 *1543:ZN *1548:A2 18.988 
*END

*D_NET *275 0.00205752
*CONN
*I *1545:A3 I *D gf180mcu_fd_sc_mcu7t5v0__nand3_1
*I *1564:B I *D gf180mcu_fd_sc_mcu7t5v0__oai21_1
*I *1544:ZN O *D gf180mcu_fd_sc_mcu7t5v0__nor3_1
*CAP
1 *1545:A3 8.05709e-05
2 *1564:B 2.88537e-05
3 *1544:ZN 0.000451111
4 *275:8 0.000560536
5 *275:8 *412:91 0.000288554
6 *275:8 *487:22 4.16014e-05
7 *1542:A1 *1564:B 1.02578e-05
8 *1542:A1 *275:8 0.000134048
9 *1542:B *275:8 2.96977e-05
10 *134:14 *1545:A3 0.000333388
11 *134:14 *275:8 5.04286e-05
12 *236:56 *275:8 4.62379e-05
13 *236:74 *275:8 2.23598e-06
*RES
1 *1544:ZN *275:8 7.844 
2 *275:8 *1564:B 4.728 
3 *275:8 *1545:A3 14.336 
*END

*D_NET *276 0.000690824
*CONN
*I *1548:A3 I *D gf180mcu_fd_sc_mcu7t5v0__nand4_1
*I *1545:ZN O *D gf180mcu_fd_sc_mcu7t5v0__nand3_1
*CAP
1 *1548:A3 4.92459e-05
2 *1545:ZN 4.92459e-05
3 *1548:A3 *459:14 0.000147305
4 *1548:A3 *459:27 0.00022245
5 *1500:A2 *1548:A3 0.000147305
6 *236:56 *1548:A3 4.91468e-05
7 *236:74 *1548:A3 2.6126e-05
*RES
1 *1545:ZN *1548:A3 9.988 
*END

*D_NET *277 0.00711665
*CONN
*I *1548:A4 I *D gf180mcu_fd_sc_mcu7t5v0__nand4_1
*I *1570:A2 I *D gf180mcu_fd_sc_mcu7t5v0__aoi211_1
*I *1546:ZN O *D gf180mcu_fd_sc_mcu7t5v0__nor2_1
*CAP
1 *1548:A4 0.000351667
2 *1570:A2 0
3 *1546:ZN 0.000274709
4 *277:14 0.000626376
5 *1548:A4 *1496:A1 0.000808181
6 *1548:A4 *1563:A1 0.000401466
7 *1548:A4 *1570:B 0.000129707
8 *1548:A4 *412:76 0.000970654
9 *1548:A4 *412:91 0.000344905
10 *1548:A4 *487:22 0.000378609
11 *277:14 *1507:A2 0.000193887
12 *277:14 *1508:B 0.000320265
13 *277:14 *1570:B 0.000134113
14 *277:14 *1572:A2 9.64272e-05
15 *1507:B2 *1548:A4 0
16 *1507:C *277:14 8.04367e-06
17 *1508:A2 *277:14 0.000144093
18 *1543:B *1548:A4 0.000467288
19 *1563:B1 *1548:A4 0.000578327
20 *1565:A1 *1548:A4 1.32435e-05
21 *1570:A1 *1548:A4 0.000409229
22 *1570:A1 *277:14 0.000158809
23 *1570:C *277:14 7.75836e-05
24 *236:21 *1548:A4 3.42948e-05
25 *236:44 *1548:A4 0.000194774
*RES
1 *1546:ZN *277:14 12.496 
2 *277:14 *1570:A2 9 
3 *277:14 *1548:A4 16.828 
*END

*D_NET *278 0.0019167
*CONN
*I *1567:A1 I *D gf180mcu_fd_sc_mcu7t5v0__oai211_1
*I *1555:A2 I *D gf180mcu_fd_sc_mcu7t5v0__nor2_1
*I *1547:ZN O *D gf180mcu_fd_sc_mcu7t5v0__nand2_1
*CAP
1 *1567:A1 5.02099e-05
2 *1555:A2 0.00024464
3 *1547:ZN 0.00011149
4 *278:8 0.00040634
5 *1555:A2 *1568:A3 0
6 *1555:A2 *1578:B 9.47824e-05
7 *1555:A2 *1578:C 0.000201034
8 *1555:A2 *487:22 0
9 *278:8 *295:16 0.00014967
10 *1573:B *1555:A2 8.55819e-05
11 *239:39 *1567:A1 0.000118153
12 *239:39 *278:8 8.54902e-05
13 *244:47 *278:8 4.58467e-05
14 *265:12 *278:8 0.00014967
15 *269:19 *1567:A1 9.08447e-05
16 *269:19 *278:8 8.29527e-05
*RES
1 *1547:ZN *278:8 10.292 
2 *278:8 *1555:A2 10.9 
3 *278:8 *1567:A1 9.684 
*END

*D_NET *279 0.00775304
*CONN
*I *1552:A1 I *D gf180mcu_fd_sc_mcu7t5v0__nor2_1
*I *1553:A2 I *D gf180mcu_fd_sc_mcu7t5v0__aoi21_1
*I *1548:ZN O *D gf180mcu_fd_sc_mcu7t5v0__nand4_1
*CAP
1 *1552:A1 0
2 *1553:A2 0.000259863
3 *1548:ZN 0.00114548
4 *279:14 0.00140534
5 *1553:A2 *1389:A2 1.15244e-05
6 *1553:A2 *1553:B 7.14806e-05
7 *1553:A2 *1695:CLK 0
8 *279:14 *1513:A1 0.000974788
9 *279:14 *1545:A1 0.000255997
10 *279:14 *1551:A1 6.16636e-05
11 *279:14 *1551:B 0.000249261
12 *279:14 *1552:A2 0.00095656
13 *279:14 *1695:CLK 0
14 *279:14 *399:23 0
15 *279:14 *407:53 0.00120904
16 *279:14 *487:60 1.79433e-05
17 *1512:A2 *279:14 1.31249e-05
18 *1513:B *279:14 0.000132023
19 *1543:A2 *279:14 2.19038e-05
20 *1548:A1 *279:14 0.000481073
21 *1553:A1 *1553:A2 1.5015e-05
22 *1695:D *1553:A2 0.000317503
23 *1743:D *279:14 0
24 *1744:D *279:14 8.91093e-05
25 *147:10 *1553:A2 0
26 *240:12 *279:14 6.43525e-05
27 *269:42 *279:14 0
*RES
1 *1548:ZN *279:14 17.952 
2 *279:14 *1553:A2 6.552 
3 *279:14 *1552:A1 4.5 
*END

*D_NET *280 0.000536916
*CONN
*I *1551:B I *D gf180mcu_fd_sc_mcu7t5v0__oai31_1
*I *1549:ZN O *D gf180mcu_fd_sc_mcu7t5v0__nand3_1
*CAP
1 *1551:B 8.5528e-05
2 *1549:ZN 8.5528e-05
3 *1551:B *1545:A1 3.07734e-05
4 *1551:B *1551:A1 7.67644e-05
5 *1551:B *487:60 9.0614e-06
6 *279:14 *1551:B 0.000249261
*RES
1 *1549:ZN *1551:B 10.064 
*END

*D_NET *281 0.00292123
*CONN
*I *1562:A3 I *D gf180mcu_fd_sc_mcu7t5v0__nand3_1
*I *1551:A3 I *D gf180mcu_fd_sc_mcu7t5v0__oai31_1
*I *1550:ZN O *D gf180mcu_fd_sc_mcu7t5v0__nand4_1
*CAP
1 *1562:A3 0.00031084
2 *1551:A3 0.000226414
3 *1550:ZN 0.000158291
4 *281:6 0.000695545
5 *1551:A3 *1500:A1 0.000360997
6 *1551:A3 *1551:A1 0.000101235
7 *1562:A3 *1500:A1 0
8 *1562:A3 *1551:A1 0
9 *1562:A3 *1556:S 3.19598e-05
10 *1562:A3 *1563:B2 0
11 *1562:A3 *1567:A2 0
12 *281:6 *1500:A1 0
13 *281:6 *1556:S 4.2318e-06
14 *1551:A2 *1551:A3 0.000360997
15 *1561:A2 *1562:A3 0
16 *1834:I *1551:A3 0.000135941
17 *237:8 *281:6 0
18 *238:18 *1562:A3 0.000474098
19 *245:50 *1562:A3 5.13352e-06
20 *245:50 *281:6 5.55495e-05
*RES
1 *1550:ZN *281:6 5.488 
2 *281:6 *1551:A3 16.084 
3 *281:6 *1562:A3 15.932 
*END

*D_NET *282 0.00383161
*CONN
*I *1552:A2 I *D gf180mcu_fd_sc_mcu7t5v0__nor2_1
*I *1551:ZN O *D gf180mcu_fd_sc_mcu7t5v0__oai31_1
*CAP
1 *1552:A2 0.000819597
2 *1551:ZN 0.000819597
3 *1552:A2 *1363:I 0.000104751
4 *1552:A2 *1513:A1 0.000974788
5 *1552:A2 *414:22 0
6 *1702:D *1552:A2 0
7 *124:6 *1552:A2 0.000107848
8 *124:23 *1552:A2 4.69752e-05
9 *237:8 *1552:A2 1.49066e-06
10 *279:14 *1552:A2 0.00095656
*RES
1 *1551:ZN *1552:A2 17.132 
*END

*D_NET *283 0.000885499
*CONN
*I *1553:B I *D gf180mcu_fd_sc_mcu7t5v0__aoi21_1
*I *1552:ZN O *D gf180mcu_fd_sc_mcu7t5v0__nor2_1
*CAP
1 *1553:B 0.000326256
2 *1552:ZN 0.000326256
3 *1553:B *1695:CLK 5.91493e-05
4 *1553:A1 *1553:B 1.5015e-05
5 *1553:A2 *1553:B 7.14806e-05
6 *1695:D *1553:B 8.73421e-05
*RES
1 *1552:ZN *1553:B 11.432 
*END

*D_NET *284 0.00858424
*CONN
*I *1556:S I *D gf180mcu_fd_sc_mcu7t5v0__mux2_2
*I *1554:ZN O *D gf180mcu_fd_sc_mcu7t5v0__nand3_1
*CAP
1 *1556:S 0.00166274
2 *1554:ZN 0.00166274
3 *1556:S *1492:A1 2.96621e-05
4 *1556:S *1497:A2 0
5 *1556:S *1563:B2 0.000457584
6 *1556:S *1567:A2 0.000122816
7 *1556:S *1584:A3 3.07734e-05
8 *1556:S *1586:A2 1.72912e-05
9 *1556:S *1587:A2 2.98573e-05
10 *1556:S *307:10 0
11 *1556:S *390:8 9.19382e-05
12 *1556:S *415:8 0.000243643
13 *1556:S *415:27 4.41397e-05
14 *1556:S *449:8 0.000483787
15 *1556:S *487:22 0.000296648
16 *1556:S *487:32 0.000654625
17 *1533:A2 *1556:S 9.88736e-06
18 *1542:A2 *1556:S 9.54536e-05
19 *1550:A4 *1556:S 0.000179742
20 *1554:A1 *1556:S 0.000143029
21 *1554:A3 *1556:S 3.73535e-05
22 *1556:I0 *1556:S 2.96621e-05
23 *1562:A3 *1556:S 3.19598e-05
24 *1584:A1 *1556:S 9.60894e-06
25 *1584:A2 *1556:S 3.95521e-05
26 *1585:B *1556:S 6.75725e-05
27 *124:55 *1556:S 0.000709344
28 *232:21 *1556:S 5.48455e-05
29 *238:18 *1556:S 0.000269846
30 *245:14 *1556:S 0.000828068
31 *245:50 *1556:S 0.000245839
32 *281:6 *1556:S 4.2318e-06
*RES
1 *1554:ZN *1556:S 25.948 
*END

*D_NET *285 0.00133768
*CONN
*I *1578:A2 I *D gf180mcu_fd_sc_mcu7t5v0__aoi211_1
*I *1568:A1 I *D gf180mcu_fd_sc_mcu7t5v0__nor3_1
*I *1555:ZN O *D gf180mcu_fd_sc_mcu7t5v0__nor2_1
*CAP
1 *1578:A2 0
2 *1568:A1 4.92237e-05
3 *1555:ZN 5.77273e-05
4 *285:8 0.000106951
5 *1568:A1 *303:26 0.000307974
6 *1532:A1 *1568:A1 6.54275e-05
7 *1555:A1 *1568:A1 0.000248677
8 *1555:A1 *285:8 0.000134564
9 *1573:B *285:8 0.00029375
10 *239:39 *1568:A1 4.24903e-05
11 *239:39 *285:8 3.08902e-05
*RES
1 *1555:ZN *285:8 5.564 
2 *285:8 *1568:A1 5.64 
3 *285:8 *1578:A2 4.5 
*END

*D_NET *286 0.0050026
*CONN
*I *1591:A1 I *D gf180mcu_fd_sc_mcu7t5v0__nand2_1
*I *1579:A2 I *D gf180mcu_fd_sc_mcu7t5v0__aoi21_1
*I *1558:A2 I *D gf180mcu_fd_sc_mcu7t5v0__aoi21_1
*I *1557:ZN O *D gf180mcu_fd_sc_mcu7t5v0__nand2_1
*CAP
1 *1591:A1 3.28034e-05
2 *1579:A2 0.000332222
3 *1558:A2 0.000192728
4 *1557:ZN 0
5 *286:17 0.00088264
6 *286:4 0.000710343
7 *1558:A2 *1787:I 9.3697e-06
8 *1579:A2 *1591:A2 0.000289483
9 *1579:A2 *1592:B 0.000582838
10 *1579:A2 *1593:A1 0.000144053
11 *1579:A2 *1593:A2 2.30862e-05
12 *1579:A2 *1594:B 2.74753e-05
13 *1579:A2 *416:27 0
14 *286:17 *1582:A2 0
15 *286:17 *1591:A2 1.5015e-05
16 *286:17 *1593:A2 2.57058e-06
17 *286:17 *413:12 0.000493324
18 *286:17 *413:27 8.04139e-05
19 *286:17 *448:27 0
20 *1557:A2 *1558:A2 3.07734e-05
21 *1557:A2 *286:17 0.000170054
22 *1558:A1 *1558:A2 5.91493e-05
23 *1590:A1 *1579:A2 0
24 *1593:B *286:17 1.59837e-05
25 *1697:D *1558:A2 2.83071e-05
26 *233:78 *1558:A2 2.9378e-06
27 *233:78 *286:17 0.000837407
28 *264:53 *286:17 3.96201e-05
*RES
1 *1557:ZN *286:4 4.5 
2 *286:4 *1558:A2 5.944 
3 *286:4 *286:17 5.548 
4 *286:17 *1579:A2 8.376 
5 *286:17 *1591:A1 4.728 
*END

*D_NET *287 0.00231346
*CONN
*I *1560:A2 I *D gf180mcu_fd_sc_mcu7t5v0__aoi21_1
*I *1559:ZN O *D gf180mcu_fd_sc_mcu7t5v0__nand3_1
*CAP
1 *1560:A2 0.000517908
2 *1559:ZN 0.000517908
3 *1560:A2 *1559:A1 0.000857411
4 *1560:A2 *1778:I 2.69769e-05
5 *1560:A2 *1787:I 0
6 *1560:A2 *485:12 0.000391911
7 *1560:A1 *1560:A2 0
8 *1560:B *1560:A2 1.33911e-06
*RES
1 *1559:ZN *1560:A2 13.636 
*END

*D_NET *288 0.00151607
*CONN
*I *1563:B2 I *D gf180mcu_fd_sc_mcu7t5v0__oai221_1
*I *1561:ZN O *D gf180mcu_fd_sc_mcu7t5v0__oai211_1
*CAP
1 *1563:B2 0.000227971
2 *1561:ZN 0.000227971
3 *1563:B2 *1563:C 3.45972e-05
4 *1563:B2 *487:22 0.000156186
5 *1556:S *1563:B2 0.000457584
6 *1561:A2 *1563:B2 0.00033338
7 *1562:A3 *1563:B2 0
8 *1563:B1 *1563:B2 7.83779e-05
*RES
1 *1561:ZN *1563:B2 20.432 
*END

*D_NET *289 0.00176998
*CONN
*I *1563:C I *D gf180mcu_fd_sc_mcu7t5v0__oai221_1
*I *1562:ZN O *D gf180mcu_fd_sc_mcu7t5v0__nand3_1
*CAP
1 *1563:C 0.000147618
2 *1562:ZN 0.000147618
3 *1563:C *1567:A2 0.000186796
4 *1563:C *303:26 0.000509981
5 *1561:A2 *1563:C 4.78829e-05
6 *1563:B2 *1563:C 3.45972e-05
7 *236:44 *1563:C 9.77285e-05
8 *245:54 *1563:C 0.000448201
9 *245:67 *1563:C 0.000149553
*RES
1 *1562:ZN *1563:C 20.66 
*END

*D_NET *290 0.00276767
*CONN
*I *1578:B I *D gf180mcu_fd_sc_mcu7t5v0__aoi211_1
*I *1568:A2 I *D gf180mcu_fd_sc_mcu7t5v0__nor3_1
*I *1563:ZN O *D gf180mcu_fd_sc_mcu7t5v0__oai221_1
*CAP
1 *1578:B 0.000108954
2 *1568:A2 2.93585e-05
3 *1563:ZN 0.000332456
4 *290:10 0.000470768
5 *1578:B *1567:A2 1.82069e-05
6 *1578:B *1568:A3 0.00014593
7 *1578:B *1578:C 1.73203e-05
8 *1578:B *303:26 3.47988e-05
9 *290:10 *1563:A1 2.6126e-05
10 *290:10 *1567:A2 2.15256e-05
11 *290:10 *1567:B 0.000110991
12 *290:10 *303:26 0.000161772
13 *290:10 *412:91 4.50449e-05
14 *1532:A2 *290:10 1.99986e-05
15 *1555:A2 *1578:B 9.47824e-05
16 *1565:A1 *290:10 5.71374e-05
17 *1573:B *1578:B 3.08902e-05
18 *239:39 *1578:B 0.000422023
19 *245:67 *290:10 0.000203335
20 *270:32 *290:10 0.000416249
*RES
1 *1563:ZN *290:10 7.768 
2 *290:10 *1568:A2 4.728 
3 *290:10 *1578:B 6.172 
*END

*D_NET *291 0.00311428
*CONN
*I *1567:A2 I *D gf180mcu_fd_sc_mcu7t5v0__oai211_1
*I *1564:ZN O *D gf180mcu_fd_sc_mcu7t5v0__oai21_1
*CAP
1 *1567:A2 0.00046972
2 *1564:ZN 0.00046972
3 *1567:A2 *1567:B 0.000467101
4 *1567:A2 *1568:A3 4.58601e-06
5 *1567:A2 *294:6 0
6 *1567:A2 *487:22 0.000422023
7 *1533:A2 *1567:A2 0.000135133
8 *1554:A3 *1567:A2 5.23685e-05
9 *1556:S *1567:A2 0.000122816
10 *1561:A1 *1567:A2 1.02578e-05
11 *1561:A2 *1567:A2 0.000378617
12 *1562:A3 *1567:A2 0
13 *1563:C *1567:A2 0.000186796
14 *1578:B *1567:A2 1.82069e-05
15 *236:44 *1567:A2 8.51286e-05
16 *245:67 *1567:A2 0.000270278
17 *290:10 *1567:A2 2.15256e-05
*RES
1 *1564:ZN *1567:A2 23.624 
*END

*D_NET *292 0.00195095
*CONN
*I *1567:B I *D gf180mcu_fd_sc_mcu7t5v0__oai211_1
*I *1565:ZN O *D gf180mcu_fd_sc_mcu7t5v0__nand2_1
*CAP
1 *1567:B 0.000202602
2 *1565:ZN 0.000202602
3 *1567:B *1568:A3 4.2318e-06
4 *1567:B *487:22 1.76898e-05
5 *1533:A2 *1567:B 0.000162477
6 *1567:A2 *1567:B 0.000467101
7 *135:32 *1567:B 0.000315086
8 *239:39 *1567:B 0.000232753
9 *244:47 *1567:B 4.1487e-05
10 *245:67 *1567:B 0.000193933
11 *290:10 *1567:B 0.000110991
*RES
1 *1565:ZN *1567:B 20.964 
*END

*D_NET *293 0.000493947
*CONN
*I *1567:C I *D gf180mcu_fd_sc_mcu7t5v0__oai211_1
*I *1566:ZN O *D gf180mcu_fd_sc_mcu7t5v0__nand4_1
*CAP
1 *1567:C 0.000165525
2 *1566:ZN 0.000165525
3 *1567:C *1566:A2 5.65586e-05
4 *1567:C *487:22 6.12935e-05
5 *1502:A1 *1567:C 4.50449e-05
*RES
1 *1566:ZN *1567:C 10.368 
*END

*D_NET *294 0.000884628
*CONN
*I *1578:C I *D gf180mcu_fd_sc_mcu7t5v0__aoi211_1
*I *1568:A3 I *D gf180mcu_fd_sc_mcu7t5v0__nor3_1
*I *1567:ZN O *D gf180mcu_fd_sc_mcu7t5v0__oai211_1
*CAP
1 *1578:C 0.000109782
2 *1568:A3 9.6776e-05
3 *1567:ZN 4.92051e-05
4 *294:6 0.000255763
5 *1568:A3 *487:22 0
6 *1578:C *487:22 0
7 *1554:A3 *294:6 0
8 *1555:A2 *1568:A3 0
9 *1555:A2 *1578:C 0.000201034
10 *1567:A2 *1568:A3 4.58601e-06
11 *1567:A2 *294:6 0
12 *1567:B *1568:A3 4.2318e-06
13 *1578:B *1568:A3 0.00014593
14 *1578:B *1578:C 1.73203e-05
*RES
1 *1567:ZN *294:6 4.88 
2 *294:6 *1568:A3 5.26 
3 *294:6 *1578:C 5.336 
*END

*D_NET *295 0.0052653
*CONN
*I *1576:A3 I *D gf180mcu_fd_sc_mcu7t5v0__nor3_1
*I *1577:A1 I *D gf180mcu_fd_sc_mcu7t5v0__aoi211_1
*I *1571:A2 I *D gf180mcu_fd_sc_mcu7t5v0__oai21_1
*I *1572:A1 I *D gf180mcu_fd_sc_mcu7t5v0__aoi21_1
*I *1568:ZN O *D gf180mcu_fd_sc_mcu7t5v0__nor3_1
*CAP
1 *1576:A3 0
2 *1577:A1 0.000186918
3 *1571:A2 3.64477e-05
4 *1572:A1 0.000111223
5 *1568:ZN 0.000243146
6 *295:46 0.000485807
7 *295:18 0.000678042
8 *295:16 0.00107241
9 *1571:A2 *1571:A1 2.96621e-05
10 *1571:A2 *467:102 5.75752e-06
11 *1572:A1 *1571:A1 0.000167362
12 *1572:A1 *1572:A2 1.96588e-05
13 *1572:A1 *1572:B 3.19219e-05
14 *1572:A1 *410:10 2.26535e-05
15 *1577:A1 *1575:A2 0
16 *1577:A1 *411:16 0
17 *295:16 *411:16 0.000249048
18 *295:18 *1571:A1 0.000124769
19 *295:18 *410:10 0.000106045
20 *295:18 *412:12 0
21 *295:46 *1574:A2 8.46746e-05
22 *295:46 *1575:A2 0
23 *295:46 *411:16 3.01323e-05
24 *295:46 *412:16 0.00038731
25 *1523:A2 *295:16 6.48283e-06
26 *1523:A2 *295:46 3.6415e-05
27 *1532:A1 *295:16 5.49899e-05
28 *1555:A1 *295:16 2.63488e-06
29 *1571:B *295:18 0.000104733
30 *1573:A1 *295:16 0.000221827
31 *1573:A1 *295:46 1.17776e-05
32 *1575:A1 *1577:A1 1.33911e-06
33 *1576:A2 *1577:A1 6.05076e-05
34 *1577:C *1577:A1 3.08902e-05
35 *1699:D *1572:A1 1.5015e-05
36 *234:31 *295:16 3.08902e-05
37 *244:47 *295:16 0.000102192
38 *262:10 *295:16 1.80963e-05
39 *265:12 *295:16 2.47727e-05
40 *269:19 *295:16 0.000151383
41 *269:19 *295:18 0.000168699
42 *278:8 *295:16 0.00014967
*RES
1 *1568:ZN *295:16 20.964 
2 *295:16 *295:18 3.42 
3 *295:18 *1572:A1 10.064 
4 *295:18 *1571:A2 9.228 
5 *295:16 *295:46 7.16 
6 *295:46 *1577:A1 6.02 
7 *295:46 *1576:A3 4.5 
*END

*D_NET *296 0.00494266
*CONN
*I *1575:A2 I *D gf180mcu_fd_sc_mcu7t5v0__nor3_1
*I *1570:B I *D gf180mcu_fd_sc_mcu7t5v0__aoi211_1
*I *1569:ZN O *D gf180mcu_fd_sc_mcu7t5v0__aoi21_1
*CAP
1 *1575:A2 0.000721318
2 *1570:B 0.000712311
3 *1569:ZN 0
4 *296:4 0.00143363
5 *1570:B *1496:A1 0.000329996
6 *1570:B *1507:A2 0.000218989
7 *1570:B *1524:A1 5.33134e-06
8 *1570:B *412:18 2.92854e-05
9 *1570:B *412:22 3.07281e-05
10 *1575:A2 *1575:A3 0.000611253
11 *1575:A2 *412:12 1.04446e-05
12 *1575:A2 *412:16 5.97628e-05
13 *1575:A2 *412:18 0
14 *1495:A1 *1570:B 1.85388e-05
15 *1495:A1 *1575:A2 1.72912e-05
16 *1495:A2 *1570:B 0.000107522
17 *1548:A4 *1570:B 0.000129707
18 *1569:B *1570:B 8.89269e-05
19 *1577:A1 *1575:A2 0
20 *230:14 *1575:A2 2.22533e-05
21 *230:18 *1575:A2 3.1459e-05
22 *230:33 *1575:A2 0
23 *264:22 *1570:B 0.000198813
24 *270:16 *1570:B 1.53727e-05
25 *270:16 *1575:A2 1.56182e-05
26 *277:14 *1570:B 0.000134113
27 *295:46 *1575:A2 0
*RES
1 *1569:ZN *296:4 4.5 
2 *296:4 *1570:B 19.276 
3 *296:4 *1575:A2 9.668 
*END

*D_NET *297 0.00227381
*CONN
*I *1572:A2 I *D gf180mcu_fd_sc_mcu7t5v0__aoi21_1
*I *1570:ZN O *D gf180mcu_fd_sc_mcu7t5v0__aoi211_1
*CAP
1 *1572:A2 0.000833157
2 *1570:ZN 0.000833157
3 *1572:A2 *1508:B 3.10417e-05
4 *1572:A2 *1572:B 6.04444e-06
5 *1572:A2 *1856:I 5.95128e-05
6 *1572:A2 *467:102 0
7 *1506:A2 *1572:A2 3.73627e-05
8 *1508:A2 *1572:A2 9.6504e-05
9 *1570:C *1572:A2 2.89664e-05
10 *1572:A1 *1572:A2 1.96588e-05
11 *244:14 *1572:A2 0.000231978
12 *277:14 *1572:A2 9.64272e-05
*RES
1 *1570:ZN *1572:A2 23.928 
*END

*D_NET *298 0.000355003
*CONN
*I *1572:B I *D gf180mcu_fd_sc_mcu7t5v0__aoi21_1
*I *1571:ZN O *D gf180mcu_fd_sc_mcu7t5v0__oai21_1
*CAP
1 *1572:B 4.73522e-05
2 *1571:ZN 4.73522e-05
3 *1572:B *1571:A1 0.000222333
4 *1572:A1 *1572:B 3.19219e-05
5 *1572:A2 *1572:B 6.04444e-06
*RES
1 *1571:ZN *1572:B 18.684 
*END

*D_NET *299 0.000371045
*CONN
*I *1574:A2 I *D gf180mcu_fd_sc_mcu7t5v0__nor2_1
*I *1573:ZN O *D gf180mcu_fd_sc_mcu7t5v0__oai21_1
*CAP
1 *1574:A2 9.68498e-05
2 *1573:ZN 9.68498e-05
3 *1573:A1 *1574:A2 9.26705e-05
4 *295:46 *1574:A2 8.46746e-05
*RES
1 *1573:ZN *1574:A2 9.912 
*END

*D_NET *300 0.00174753
*CONN
*I *1575:A3 I *D gf180mcu_fd_sc_mcu7t5v0__nor3_1
*I *1574:ZN O *D gf180mcu_fd_sc_mcu7t5v0__nor2_1
*CAP
1 *1575:A3 0.000265919
2 *1574:ZN 0.000265919
3 *1575:A3 *412:12 0.000568817
4 *1575:A2 *1575:A3 0.000611253
5 *230:14 *1575:A3 3.56172e-05
*RES
1 *1574:ZN *1575:A3 20.888 
*END

*D_NET *301 0.00017988
*CONN
*I *1577:A2 I *D gf180mcu_fd_sc_mcu7t5v0__aoi211_1
*I *1575:ZN O *D gf180mcu_fd_sc_mcu7t5v0__nor3_1
*CAP
1 *1577:A2 6.71204e-05
2 *1575:ZN 6.71204e-05
3 *1577:C *1577:A2 4.56395e-05
*RES
1 *1575:ZN *1577:A2 9.532 
*END

*D_NET *302 0.000600372
*CONN
*I *1577:B I *D gf180mcu_fd_sc_mcu7t5v0__aoi211_1
*I *1576:ZN O *D gf180mcu_fd_sc_mcu7t5v0__nor3_1
*CAP
1 *1577:B 0.000170972
2 *1576:ZN 0.000170972
3 *1577:B *1576:A1 0.000227501
4 *1577:B *464:16 3.0928e-05
*RES
1 *1576:ZN *1577:B 19.216 
*END

*D_NET *303 0.0113575
*CONN
*I *1589:A1 I *D gf180mcu_fd_sc_mcu7t5v0__aoi211_1
*I *1829:I I *D gf180mcu_fd_sc_mcu7t5v0__clkbuf_1
*I *1828:I I *D gf180mcu_fd_sc_mcu7t5v0__clkbuf_1
*I *1578:ZN O *D gf180mcu_fd_sc_mcu7t5v0__aoi211_1
*CAP
1 *1589:A1 0
2 *1829:I 0.000201309
3 *1828:I 0.000100938
4 *1578:ZN 0.00118844
5 *303:32 0.000448169
6 *303:26 0.00133436
7 *1829:I *1587:A1 1.11891e-05
8 *1829:I *1589:B 0.000403764
9 *1829:I *1702:CLK 9.15433e-05
10 *1829:I *449:8 7.88344e-05
11 *303:26 *1498:A1 0.000317494
12 *303:26 *1498:A4 0.000585585
13 *303:26 *1504:A1 8.91905e-05
14 *303:26 *1563:A1 7.83779e-05
15 *303:26 *1589:A2 0.000238591
16 *303:26 *412:91 5.87561e-06
17 *303:26 *413:40 0.000304965
18 *303:26 *416:35 0.000424397
19 *303:32 *1589:A2 1.5015e-05
20 *303:32 *1589:B 8.84331e-05
21 *303:32 *1702:CLK 4.04309e-05
22 *303:32 *448:10 0.000173734
23 *1493:A4 *303:26 3.99265e-05
24 *1532:A1 *303:26 0.000210957
25 *1532:A2 *303:26 0.00010276
26 *1562:A1 *303:26 0.0012803
27 *1563:C *303:26 0.000509981
28 *1568:A1 *303:26 0.000307974
29 *1578:B *303:26 3.47988e-05
30 *1583:A1 *303:26 0.000142496
31 *1583:A2 *303:26 3.26422e-05
32 *1584:A1 *303:26 1.3493e-05
33 *1588:A1 *303:26 5.40519e-05
34 *1588:A3 *303:26 8.55242e-05
35 *1703:D *1828:I 0.000203409
36 *1703:D *303:26 3.73535e-05
37 *1703:D *303:32 2.74753e-05
38 *125:14 *303:26 1.97747e-05
39 *232:21 *303:26 1.53758e-05
40 *233:12 *303:26 0
41 *234:14 *303:26 0.000569313
42 *234:27 *303:26 0.000113809
43 *234:31 *303:26 2.22817e-05
44 *239:39 *303:26 0.000307974
45 *245:50 *303:26 6.71841e-05
46 *245:67 *303:26 5.2789e-05
47 *269:46 *1829:I 2.22814e-05
48 *269:46 *303:26 0
49 *269:46 *303:32 1.28891e-05
50 *270:32 *303:26 0.000484859
51 *270:40 *1828:I 0.000203409
52 *270:40 *1829:I 0
53 *290:10 *303:26 0.000161772
*RES
1 *1578:ZN *303:26 37.472 
2 *303:26 *303:32 5.716 
3 *303:32 *1828:I 9.912 
4 *303:32 *1829:I 11.128 
5 *303:26 *1589:A1 4.5 
*END

*D_NET *304 0.00188036
*CONN
*I *1580:B I *D gf180mcu_fd_sc_mcu7t5v0__aoi21_1
*I *1592:A2 I *D gf180mcu_fd_sc_mcu7t5v0__oai21_1
*I *1579:ZN O *D gf180mcu_fd_sc_mcu7t5v0__aoi21_1
*CAP
1 *1580:B 7.40579e-05
2 *1592:A2 0.000139153
3 *1579:ZN 0.00015529
4 *304:8 0.000368501
5 *1580:B *1592:B 0.000356296
6 *1580:B *1855:I 0.000787065
7 *1528:I1 *1592:A2 0
8 *1528:I1 *304:8 0
*RES
1 *1579:ZN *304:8 9.836 
2 *304:8 *1592:A2 9.684 
3 *304:8 *1580:B 11.052 
*END

*D_NET *305 0.00191173
*CONN
*I *1582:A2 I *D gf180mcu_fd_sc_mcu7t5v0__aoi21_1
*I *1580:ZN O *D gf180mcu_fd_sc_mcu7t5v0__aoi21_1
*CAP
1 *1582:A2 0.000527843
2 *1580:ZN 0.000527843
3 *1582:A2 *1582:A1 0.000103377
4 *1582:A2 *1582:B 1.15275e-05
5 *1582:A2 *1594:A2 0.000342198
6 *1582:A2 *1855:I 0.000119079
7 *1582:A2 *397:30 0
8 *1582:A2 *413:12 0
9 *1582:A2 *448:27 1.2018e-05
10 *1701:D *1582:A2 7.53241e-05
11 *1704:D *1582:A2 0.000192519
12 *286:17 *1582:A2 0
*RES
1 *1580:ZN *1582:A2 13.788 
*END

*D_NET *306 0.00234591
*CONN
*I *1582:B I *D gf180mcu_fd_sc_mcu7t5v0__aoi21_1
*I *1581:ZN O *D gf180mcu_fd_sc_mcu7t5v0__oai21_1
*CAP
1 *1582:B 0.000268449
2 *1581:ZN 0.000268449
3 *1582:B *1582:A1 0.00119524
4 *1582:B *397:23 0.000209639
5 *1582:B *397:30 7.49908e-05
6 *1582:B *448:10 6.35236e-05
7 *1582:B *448:12 0.000254094
8 *1582:A2 *1582:B 1.15275e-05
*RES
1 *1581:ZN *1582:B 22.104 
*END

*D_NET *307 0.000858358
*CONN
*I *1584:A3 I *D gf180mcu_fd_sc_mcu7t5v0__or3_1
*I *1587:A2 I *D gf180mcu_fd_sc_mcu7t5v0__aoi21_1
*I *1583:ZN O *D gf180mcu_fd_sc_mcu7t5v0__nor2_1
*CAP
1 *1584:A3 3.94762e-05
2 *1587:A2 0.000110065
3 *1583:ZN 0.00014119
4 *307:10 0.000290731
5 *1556:S *1584:A3 3.07734e-05
6 *1556:S *1587:A2 2.98573e-05
7 *1556:S *307:10 0
8 *1583:A1 *307:10 4.10312e-05
9 *1584:A1 *307:10 3.08902e-05
10 *1584:A2 *1584:A3 5.1289e-05
11 *1584:A2 *307:10 1.02578e-05
12 *270:32 *1587:A2 5.19077e-05
13 *270:32 *307:10 3.08902e-05
*RES
1 *1583:ZN *307:10 5.792 
2 *307:10 *1587:A2 5.336 
3 *307:10 *1584:A3 5.108 
*END

*D_NET *308 0.000155082
*CONN
*I *1586:A2 I *D gf180mcu_fd_sc_mcu7t5v0__aoi21_1
*I *1584:Z O *D gf180mcu_fd_sc_mcu7t5v0__or3_1
*CAP
1 *1586:A2 6.88955e-05
2 *1584:Z 6.88955e-05
3 *1556:S *1586:A2 1.72912e-05
*RES
1 *1584:Z *1586:A2 9.532 
*END

*D_NET *309 0.000548376
*CONN
*I *1586:B I *D gf180mcu_fd_sc_mcu7t5v0__aoi21_1
*I *1585:ZN O *D gf180mcu_fd_sc_mcu7t5v0__oai21_1
*CAP
1 *1586:B 7.98095e-05
2 *1585:ZN 7.98095e-05
3 *1586:B *1586:A1 0.00026198
4 *1586:B *414:22 2.74753e-05
5 *1586:B *415:27 3.67398e-05
6 *1702:D *1586:B 6.25613e-05
*RES
1 *1585:ZN *1586:B 10.064 
*END

*D_NET *310 0.000860267
*CONN
*I *1589:B I *D gf180mcu_fd_sc_mcu7t5v0__aoi211_1
*I *1587:ZN O *D gf180mcu_fd_sc_mcu7t5v0__aoi21_1
*CAP
1 *1589:B 5.11658e-05
2 *1587:ZN 5.11658e-05
3 *1703:D *1589:B 8.55327e-05
4 *1829:I *1589:B 0.000403764
5 *269:46 *1589:B 0.000150543
6 *270:40 *1589:B 2.96621e-05
7 *303:32 *1589:B 8.84331e-05
*RES
1 *1587:ZN *1589:B 19.368 
*END

*D_NET *311 0.00230438
*CONN
*I *1589:A2 I *D gf180mcu_fd_sc_mcu7t5v0__aoi211_1
*I *1590:B I *D gf180mcu_fd_sc_mcu7t5v0__aoi21_1
*I *1588:ZN O *D gf180mcu_fd_sc_mcu7t5v0__nor3_1
*CAP
1 *1589:A2 0.000282833
2 *1590:B 2.80004e-05
3 *1588:ZN 2.7073e-06
4 *311:8 0.000313541
5 *1583:A2 *1589:A2 2.67469e-05
6 *1588:A1 *1589:A2 4.58601e-06
7 *1590:A2 *1590:B 0.000557818
8 *1590:A2 *311:8 0.000124769
9 *126:27 *1590:B 0.000557818
10 *126:27 *311:8 0.000151957
11 *303:26 *1589:A2 0.000238591
12 *303:32 *1589:A2 1.5015e-05
*RES
1 *1588:ZN *311:8 9.38 
2 *311:8 *1590:B 10.444 
3 *311:8 *1589:A2 11.052 
*END

*D_NET *312 0.00106803
*CONN
*I *1591:A2 I *D gf180mcu_fd_sc_mcu7t5v0__nand2_1
*I *1590:ZN O *D gf180mcu_fd_sc_mcu7t5v0__aoi21_1
*CAP
1 *1591:A2 0.000235069
2 *1590:ZN 0.000235069
3 *1591:A2 *416:27 4.01733e-06
4 *1579:A2 *1591:A2 0.000289483
5 *1590:A1 *1591:A2 0
6 *1593:B *1591:A2 0.000282358
7 *126:10 *1591:A2 7.02212e-06
8 *286:17 *1591:A2 1.5015e-05
*RES
1 *1590:ZN *1591:A2 11.432 
*END

*D_NET *313 0.00204775
*CONN
*I *1592:B I *D gf180mcu_fd_sc_mcu7t5v0__oai21_1
*I *1591:ZN O *D gf180mcu_fd_sc_mcu7t5v0__nand2_1
*CAP
1 *1592:B 0.000278434
2 *1591:ZN 0.000278434
3 *1592:B *1593:A1 3.64107e-05
4 *1592:B *1593:A2 0.000147313
5 *1592:B *1594:B 0.000270197
6 *1592:B *1855:I 5.55144e-05
7 *1579:A2 *1592:B 0.000582838
8 *1580:A1 *1592:B 4.23111e-05
9 *1580:B *1592:B 0.000356296
*RES
1 *1591:ZN *1592:B 21.876 
*END

*D_NET *314 0.00180029
*CONN
*I *1594:A2 I *D gf180mcu_fd_sc_mcu7t5v0__aoi21_1
*I *1592:ZN O *D gf180mcu_fd_sc_mcu7t5v0__oai21_1
*CAP
1 *1594:A2 0.000134435
2 *1592:ZN 0.000134435
3 *1594:A2 *1855:I 0.000730625
4 *1580:A1 *1594:A2 9.26705e-05
5 *1580:A2 *1594:A2 0.000344204
6 *1582:A2 *1594:A2 0.000342198
7 *1704:D *1594:A2 2.17248e-05
*RES
1 *1592:ZN *1594:A2 12.344 
*END

*D_NET *315 0.000872027
*CONN
*I *1594:B I *D gf180mcu_fd_sc_mcu7t5v0__aoi21_1
*I *1593:ZN O *D gf180mcu_fd_sc_mcu7t5v0__oai21_1
*CAP
1 *1594:B 8.58241e-05
2 *1593:ZN 8.58241e-05
3 *1594:B *1593:A2 0.000402707
4 *1579:A2 *1594:B 2.74753e-05
5 *1592:B *1594:B 0.000270197
*RES
1 *1593:ZN *1594:B 10.596 
*END

*D_NET *316 0.00469472
*CONN
*I *1827:I I *D gf180mcu_fd_sc_mcu7t5v0__buf_2
*I *1596:S I *D gf180mcu_fd_sc_mcu7t5v0__mux2_2
*I *1597:S I *D gf180mcu_fd_sc_mcu7t5v0__mux2_2
*I *1598:S I *D gf180mcu_fd_sc_mcu7t5v0__mux2_2
*I *1595:Z O *D gf180mcu_fd_sc_mcu7t5v0__and3_1
*CAP
1 *1827:I 0
2 *1596:S 0.000110169
3 *1597:S 0
4 *1598:S 4.00762e-05
5 *1595:Z 0.000309745
6 *316:23 0.000514011
7 *316:14 0.000646671
8 *316:8 0.000512497
9 *1596:S *1596:I0 0.000301553
10 *1596:S *1596:I1 6.74997e-05
11 *1596:S *1707:CLK 0
12 *1596:S *1766:CLK 1.91917e-06
13 *1596:S *403:47 9.3697e-06
14 *1598:S *381:12 4.97386e-06
15 *316:8 *1713:CLK 0
16 *316:8 *381:12 0
17 *316:14 *447:8 0.000587475
18 *316:14 *464:58 0
19 *316:23 *1596:I1 4.27914e-05
20 *316:23 *1597:I0 0.000119883
21 *316:23 *381:12 3.61686e-05
22 *316:23 *381:43 9.92525e-05
23 *316:23 *382:12 0.00103081
24 *316:23 *403:47 5.14116e-06
25 *1533:A2 *316:8 0.00021333
26 *1707:D *316:23 4.1381e-05
27 *262:10 *316:14 0
*RES
1 *1595:Z *316:8 6.628 
2 *316:8 *316:14 11.052 
3 *316:14 *1598:S 4.728 
4 *316:14 *316:23 4.332 
5 *316:23 *1597:S 4.5 
6 *316:23 *1596:S 5.64 
7 *316:8 *1827:I 4.5 
*END

*D_NET *317 0.00695044
*CONN
*I *1643:A2 I *D gf180mcu_fd_sc_mcu7t5v0__aoi21_1
*I *1608:ZN O *D gf180mcu_fd_sc_mcu7t5v0__nand2_1
*CAP
1 *1643:A2 0.00154134
2 *1608:ZN 0.00154134
3 *1643:A2 *1618:A1 0.000964815
4 *1643:A2 *1621:A1 0.000566421
5 *1643:A2 *1621:A2 0
6 *1643:A2 *1625:A2 2.70104e-06
7 *1643:A2 *318:10 0.00059718
8 *1643:A2 *327:14 0.000437432
9 *1643:A2 *453:119 2.39959e-05
10 *1643:A2 *462:16 0.000141194
11 *1643:A2 *466:18 0.000225376
12 *1609:A1 *1643:A2 0.000589368
13 *1722:D *1643:A2 0.000271291
14 *148:12 *1643:A2 4.79904e-05
*RES
1 *1608:ZN *1643:A2 41.06 
*END

*D_NET *318 0.0126887
*CONN
*I *1800:I I *D gf180mcu_fd_sc_mcu7t5v0__dlyb_1
*I *1801:I I *D gf180mcu_fd_sc_mcu7t5v0__dlyb_1
*I *1609:ZN O *D gf180mcu_fd_sc_mcu7t5v0__aoi21_1
*CAP
1 *1800:I 0.000595727
2 *1801:I 0.00202417
3 *1609:ZN 0.000600848
4 *318:10 0.00322074
5 *1800:I *1617:A2 0.000201947
6 *1800:I *1720:CLK 0.000215259
7 *1800:I *1721:CLK 5.73075e-05
8 *1800:I *1841:I 0
9 *1800:I *1843:I 0
10 *1801:I *1417:A2 0
11 *1801:I *1671:A2 0
12 *1801:I *1683:A2 0
13 *1801:I *1807:I 0.000265755
14 *1801:I *1843:I 0
15 *1801:I *1845:I 3.94662e-05
16 *1801:I *430:25 0.000252879
17 *1801:I *431:10 0.000126269
18 *1801:I *432:12 0.000148889
19 *318:10 *1619:A2 0.000312243
20 *318:10 *1621:A2 0
21 *318:10 *462:57 1.24993e-05
22 ADDR_O[4] *1800:I 0.00024199
23 ADDR_O[5] *1800:I 0.000264169
24 ADDR_O[6] *318:10 0.000320116
25 ADDR_O[7] *1800:I 0.000441055
26 ADDR_O[7] *1801:I 0.000337692
27 DAT_O[1] *1801:I 7.53241e-05
28 *1643:A2 *318:10 0.00059718
29 *1720:D *1800:I 6.22405e-05
30 *1722:D *318:10 6.84759e-05
31 *1754:D *318:10 0
32 *1815:I *1801:I 9.58397e-05
33 *1816:I *1801:I 0.000394018
34 *1817:I *1801:I 0.000157386
35 *1818:I *1801:I 0.000134564
36 *1819:I *1801:I 0.000979553
37 *1820:I *1801:I 0.000116355
38 *1821:I *1801:I 0.000242776
39 *1822:I *1801:I 8.59438e-05
*RES
1 *1609:ZN *318:10 19.96 
2 *318:10 *1801:I 22.588 
3 *318:10 *1800:I 10.2 
*END

*D_NET *319 0.000564384
*CONN
*I *1611:A2 I *D gf180mcu_fd_sc_mcu7t5v0__nor2_1
*I *1610:ZN O *D gf180mcu_fd_sc_mcu7t5v0__aoi22_1
*CAP
1 *1611:A2 0.000169225
2 *1610:ZN 0.000169225
3 *1611:A2 *1610:A1 8.52169e-07
4 *1611:A2 *1610:B1 2.6126e-05
5 *1611:A2 *1610:B2 0.000115626
6 *208:16 *1611:A2 8.33302e-05
*RES
1 *1610:ZN *1611:A2 10.14 
*END

*D_NET *320 0.00209623
*CONN
*I *1613:A2 I *D gf180mcu_fd_sc_mcu7t5v0__nor2_1
*I *1612:ZN O *D gf180mcu_fd_sc_mcu7t5v0__aoi22_1
*CAP
1 *1613:A2 0.000290199
2 *1612:ZN 0.000290199
3 *1613:A2 *1391:A1 5.72419e-05
4 *1613:A2 *1610:A1 6.4334e-06
5 *1613:A2 *1612:A1 0.000637408
6 *1613:A2 *1621:A2 1.33951e-05
7 *1613:A2 *1797:I 5.4883e-05
8 *1613:A2 *368:10 0.000311117
9 *1613:A2 *368:12 0.000376638
10 *1613:A2 *368:14 2.27233e-05
11 *1613:A2 *460:87 2.2499e-05
12 *1613:A2 *468:38 1.3493e-05
13 *191:46 *1613:A2 0
*RES
1 *1612:ZN *1613:A2 21.724 
*END

*D_NET *321 0.00373479
*CONN
*I *1615:A2 I *D gf180mcu_fd_sc_mcu7t5v0__nor2_1
*I *1614:ZN O *D gf180mcu_fd_sc_mcu7t5v0__aoi22_1
*CAP
1 *1615:A2 0.000617851
2 *1614:ZN 0.000617851
3 *1615:A2 *1612:B2 2.57864e-06
4 *1615:A2 *1614:B1 0.000132619
5 *1615:A2 *1617:A2 0.00146261
6 *1615:A2 *1719:CLK 8.74769e-05
7 *1615:A2 *1839:I 1.28891e-05
8 *1615:A2 *367:31 2.05156e-05
9 *1615:A2 *422:8 0.000303303
10 *1615:A2 *424:10 0.000267957
11 *1719:D *1615:A2 0.000201286
12 *208:16 *1615:A2 7.85437e-06
*RES
1 *1614:ZN *1615:A2 24.688 
*END

*D_NET *322 0.00637528
*CONN
*I *1617:A2 I *D gf180mcu_fd_sc_mcu7t5v0__nor2_1
*I *1616:ZN O *D gf180mcu_fd_sc_mcu7t5v0__aoi22_1
*CAP
1 *1617:A2 0.00125593
2 *1616:ZN 0.00125593
3 *1617:A2 *1614:B1 0.000112824
4 *1617:A2 *1617:A1 4.50449e-05
5 *1617:A2 *1836:I 0.00015172
6 *1617:A2 *1838:I 0
7 *1617:A2 *1839:I 1.94858e-05
8 *1617:A2 *367:12 0
9 *1617:A2 *367:31 0.000193933
10 *1617:A2 *424:10 0.00024155
11 *1617:A2 *460:47 2.74753e-05
12 ADDR_O[2] *1617:A2 9.37617e-05
13 ADDR_O[5] *1617:A2 4.25142e-05
14 *1615:A2 *1617:A2 0.00146261
15 *1717:D *1617:A2 0.00108653
16 *1720:D *1617:A2 0.00018402
17 *1800:I *1617:A2 0.000201947
*RES
1 *1616:ZN *1617:A2 30.692 
*END

*D_NET *323 0.00515645
*CONN
*I *1619:A2 I *D gf180mcu_fd_sc_mcu7t5v0__nor2_1
*I *1618:ZN O *D gf180mcu_fd_sc_mcu7t5v0__aoi22_1
*CAP
1 *1619:A2 0.000720018
2 *1618:ZN 0.000720018
3 *1619:A2 *1620:A1 0.000246752
4 *1619:A2 *1620:B2 0.000588208
5 *1619:A2 *1621:A2 4.3489e-05
6 *1619:A2 *1718:CLK 0.00131208
7 *1619:A2 *1772:I 2.44284e-05
8 *1619:A2 *1838:I 3.67323e-05
9 *1619:A2 *1843:I 0
10 *1619:A2 *453:16 0.000519226
11 *1619:A2 *453:20 0
12 *1619:A2 *466:97 0.000317494
13 *1721:D *1619:A2 0.000315763
14 *318:10 *1619:A2 0.000312243
*RES
1 *1618:ZN *1619:A2 27.044 
*END

*D_NET *324 0.00513287
*CONN
*I *1621:A2 I *D gf180mcu_fd_sc_mcu7t5v0__nor2_1
*I *1620:ZN O *D gf180mcu_fd_sc_mcu7t5v0__aoi22_1
*CAP
1 *1621:A2 0.000627926
2 *1620:ZN 0.000627926
3 *1621:A2 *1454:A1 3.46661e-05
4 *1621:A2 *1455:A1 1.26856e-05
5 *1621:A2 *1460:A1 0.000100365
6 *1621:A2 *1620:A2 0.000569196
7 *1621:A2 *1621:A1 9.87535e-06
8 *1621:A2 *368:10 0.000142801
9 *1621:A2 *453:20 6.38438e-05
10 *1621:A2 *453:26 0.000103978
11 *1621:A2 *460:87 1.92743e-06
12 *1621:A2 *460:91 0.00090738
13 *1621:A2 *462:16 0
14 *1621:A2 *462:57 6.13775e-05
15 *1621:A2 *468:38 0.000229973
16 *1455:A2 *1621:A2 1.53449e-05
17 *1458:B *1621:A2 0.000466213
18 *1458:C *1621:A2 1.03922e-05
19 *1613:A2 *1621:A2 1.33951e-05
20 *1619:A2 *1621:A2 4.3489e-05
21 *1643:A2 *1621:A2 0
22 *1754:D *1621:A2 0.0010751
23 *191:46 *1621:A2 1.5015e-05
24 *318:10 *1621:A2 0
*RES
1 *1620:ZN *1621:A2 26.284 
*END

*D_NET *325 0.00207354
*CONN
*I *1623:A2 I *D gf180mcu_fd_sc_mcu7t5v0__nor2_1
*I *1622:ZN O *D gf180mcu_fd_sc_mcu7t5v0__aoi22_1
*CAP
1 *1623:A2 0.000202656
2 *1622:ZN 0.000202656
3 *1623:A2 *1772:I 1.58153e-05
4 *1623:A2 *1773:I 0.000122184
5 *1722:D *1623:A2 0
6 *1723:D *1623:A2 0.00119252
7 *208:31 *1623:A2 1.11891e-05
8 *216:14 *1623:A2 0.000326528
*RES
1 *1622:ZN *1623:A2 21.116 
*END

*D_NET *326 0.0014061
*CONN
*I *1625:A2 I *D gf180mcu_fd_sc_mcu7t5v0__nor2_1
*I *1624:ZN O *D gf180mcu_fd_sc_mcu7t5v0__aoi22_1
*CAP
1 *1625:A2 0.000401899
2 *1624:ZN 0.000401899
3 *1625:A2 *1620:A1 0
4 *1625:A2 *1671:A2 0.000143101
5 *1625:A2 *327:14 1.81924e-05
6 *1625:A2 *453:119 0.000438313
7 *1643:A2 *1625:A2 2.70104e-06
*RES
1 *1624:ZN *1625:A2 30.04 
*END

*D_NET *327 0.0156113
*CONN
*I *1629:B1 I *D gf180mcu_fd_sc_mcu7t5v0__aoi22_1
*I *1833:I I *D gf180mcu_fd_sc_mcu7t5v0__clkbuf_1
*I *1627:B1 I *D gf180mcu_fd_sc_mcu7t5v0__aoi22_1
*I *1626:ZN O *D gf180mcu_fd_sc_mcu7t5v0__nor3_1
*CAP
1 *1629:B1 1.54372e-05
2 *1833:I 0.000254247
3 *1627:B1 3.10134e-05
4 *1626:ZN 0.00175575
5 *327:31 0.000661061
6 *327:14 0.00217814
7 *1627:B1 *1630:A2 7.98466e-05
8 *1627:B1 *1776:I 4.09822e-06
9 *1629:B1 *1630:A2 0.000134636
10 *1629:B1 *395:14 0.000134636
11 *1833:I *1425:A2 1.98965e-05
12 *1833:I *1627:B2 0.000321861
13 *1833:I *1629:B2 5.54229e-05
14 *1833:I *1630:A2 0.000262102
15 *1833:I *395:14 0.000108813
16 *1833:I *395:18 1.5015e-05
17 *327:14 *1473:B1 2.97097e-05
18 *327:14 *1620:A1 0
19 *327:14 *1624:B2 8.64281e-06
20 *327:14 *1671:A2 0
21 *327:14 *1673:I1 0.000266064
22 *327:14 *372:12 9.55063e-05
23 *327:14 *372:29 1.94858e-05
24 *327:14 *452:14 0.000110995
25 *327:14 *452:27 0.00015708
26 *327:14 *453:119 0.00161424
27 *327:14 *463:125 0.000134113
28 *327:31 *1628:A2 7.26757e-05
29 *327:31 *1629:A2 2.08565e-06
30 *327:31 *417:14 0
31 *327:31 *453:119 8.28549e-06
32 *327:31 *467:14 0.000124241
33 *327:31 *467:46 0
34 *1425:A3 *327:14 0.000441425
35 *1425:A3 *327:31 0.000189674
36 *1435:A1 *327:14 0.000135573
37 *1438:A2 *327:14 0.000532166
38 *1438:A3 *327:14 0.00247206
39 *1625:A2 *327:14 1.81924e-05
40 *1643:A2 *327:14 0.000437432
41 *1643:B *327:14 8.64281e-06
42 *1751:D *327:14 7.53844e-05
43 *165:41 *327:14 0.00262564
*RES
1 *1626:ZN *327:14 41.56 
2 *327:14 *1627:B1 9.228 
3 *327:14 *327:31 11.736 
4 *327:31 *1833:I 11.812 
5 *327:31 *1629:B1 9.38 
*END

*D_NET *328 0.00109486
*CONN
*I *1628:A2 I *D gf180mcu_fd_sc_mcu7t5v0__nor2_1
*I *1627:ZN O *D gf180mcu_fd_sc_mcu7t5v0__aoi22_1
*CAP
1 *1628:A2 0.000271592
2 *1627:ZN 0.000271592
3 *1628:A2 *1473:B2 5.83634e-05
4 *1628:A2 *1628:A1 4.58601e-06
5 *1628:A2 *417:20 0.000134206
6 *1628:A2 *453:119 1.93003e-05
7 *1628:A2 *467:14 5.59369e-05
8 *1628:A2 *467:18 1.70704e-05
9 *1418:A2 *1628:A2 3.89716e-05
10 *1426:A2 *1628:A2 0.000150565
11 *327:31 *1628:A2 7.26757e-05
*RES
1 *1627:ZN *1628:A2 20.432 
*END

*D_NET *329 0.00230694
*CONN
*I *1630:A2 I *D gf180mcu_fd_sc_mcu7t5v0__nor2_1
*I *1629:ZN O *D gf180mcu_fd_sc_mcu7t5v0__aoi22_1
*CAP
1 *1630:A2 0.000402556
2 *1629:ZN 0.000402556
3 *1630:A2 *1425:A2 4.47565e-05
4 *1630:A2 *1627:A1 0.000380822
5 *1630:A2 *1627:B2 0.000340349
6 *1630:A2 *1628:A1 2.03665e-05
7 *1630:A2 *1629:A2 8.18373e-05
8 *1630:A2 *1725:CLK 1.02578e-05
9 *1630:A2 *1776:I 1.29151e-05
10 *1630:A2 *395:14 3.01945e-05
11 *1630:A2 *417:20 1.36289e-05
12 *1418:A2 *1630:A2 4.58601e-06
13 *1425:A3 *1630:A2 8.55242e-05
14 *1627:B1 *1630:A2 7.98466e-05
15 *1629:B1 *1630:A2 0.000134636
16 *1833:I *1630:A2 0.000262102
*RES
1 *1629:ZN *1630:A2 22.56 
*END

*D_NET *330 0.000686483
*CONN
*I *1632:A2 I *D gf180mcu_fd_sc_mcu7t5v0__nor2_1
*I *1631:ZN O *D gf180mcu_fd_sc_mcu7t5v0__aoi22_1
*CAP
1 *1632:A2 0.000121382
2 *1631:ZN 0.000121382
3 *1632:A2 *1631:B1 9.08447e-05
4 *1632:A2 *1631:B2 0.000111867
5 *1632:A2 *444:14 0.000111858
6 *1632:A2 *454:25 9.52854e-05
7 *1727:D *1632:A2 3.38648e-05
*RES
1 *1631:ZN *1632:A2 19.52 
*END

*D_NET *331 0.000427531
*CONN
*I *1634:A2 I *D gf180mcu_fd_sc_mcu7t5v0__nor2_1
*I *1633:ZN O *D gf180mcu_fd_sc_mcu7t5v0__aoi22_1
*CAP
1 *1634:A2 5.14624e-05
2 *1633:ZN 5.14624e-05
3 *1634:A2 *396:12 6.85337e-05
4 *1634:A2 *467:80 9.88736e-06
5 *1728:D *1634:A2 0.000246185
*RES
1 *1633:ZN *1634:A2 9.684 
*END

*D_NET *332 0.00220843
*CONN
*I *1636:A2 I *D gf180mcu_fd_sc_mcu7t5v0__nor2_1
*I *1635:ZN O *D gf180mcu_fd_sc_mcu7t5v0__aoi22_1
*CAP
1 *1636:A2 0.000389845
2 *1635:ZN 0.000389845
3 *1636:A2 *1633:B2 3.07734e-05
4 *1636:A2 *1635:A1 4.50449e-05
5 *1636:A2 *1635:B1 3.23271e-05
6 *1636:A2 *1636:A1 0.000218766
7 *1636:A2 *1640:A2 6.68265e-05
8 *1636:A2 *1692:CLK 0.000759269
9 *1636:A2 *396:12 0.000225869
10 *1636:A2 *396:21 4.31377e-06
11 *1636:A2 *396:31 1.0973e-05
12 *1636:A2 *444:33 3.45824e-05
*RES
1 *1635:ZN *1636:A2 13.408 
*END

*D_NET *333 0.0029147
*CONN
*I *1638:A2 I *D gf180mcu_fd_sc_mcu7t5v0__nor2_1
*I *1637:ZN O *D gf180mcu_fd_sc_mcu7t5v0__aoi22_1
*CAP
1 *1638:A2 0.000350913
2 *1637:ZN 0.000350913
3 *1638:A2 *1539:I0 0
4 *1638:A2 *1635:B1 0.000196389
5 *1638:A2 *1637:B2 0.000637032
6 *1638:A2 *1775:I 9.83828e-05
7 *1638:A2 *454:29 0
8 *1638:A2 *467:65 8.12252e-05
9 *1638:A2 *468:59 3.37018e-05
10 *1638:A2 *482:31 2.9378e-06
11 *1638:A2 *482:70 0.000886823
12 *1692:D *1638:A2 0.000252266
13 *1730:D *1638:A2 2.41188e-05
*RES
1 *1637:ZN *1638:A2 23.016 
*END

*D_NET *334 0.00215425
*CONN
*I *1640:A2 I *D gf180mcu_fd_sc_mcu7t5v0__nor2_1
*I *1639:ZN O *D gf180mcu_fd_sc_mcu7t5v0__aoi22_1
*CAP
1 *1640:A2 0.000207373
2 *1639:ZN 0.000207373
3 *1640:A2 *1637:B1 0.000190317
4 *1640:A2 *1639:B2 0.000444436
5 *1640:A2 *396:31 0.00026286
6 *1640:A2 *396:58 0.000154106
7 *1640:A2 *483:12 0.000505665
8 *1636:A2 *1640:A2 6.68265e-05
9 *1729:D *1640:A2 1.32333e-05
10 *1731:D *1640:A2 0.000102056
*RES
1 *1639:ZN *1640:A2 21.496 
*END

*D_NET *335 0.00162023
*CONN
*I *1642:A2 I *D gf180mcu_fd_sc_mcu7t5v0__nor2_1
*I *1641:ZN O *D gf180mcu_fd_sc_mcu7t5v0__aoi22_1
*CAP
1 *1642:A2 0.000343154
2 *1641:ZN 0.000343154
3 *1642:A2 *1640:A1 0
4 *1642:A2 *1641:B1 6.48283e-06
5 *1642:A2 *1641:B2 0.000172284
6 *1642:A2 *1646:A1 4.50449e-05
7 *1642:A2 *1734:CLK 5.86759e-05
8 *1642:A2 *1769:I 1.70306e-05
9 *1642:A2 *396:31 1.63668e-05
10 *1642:A2 *468:74 0.000303928
11 *1642:A2 *483:55 3.31536e-05
12 *1642:A2 *484:8 8.81341e-06
13 *1642:A2 *484:12 0.000272143
14 *1731:D *1642:A2 0
*RES
1 *1641:ZN *1642:A2 21.496 
*END

*D_NET *336 0.00102046
*CONN
*I *1644:A2 I *D gf180mcu_fd_sc_mcu7t5v0__nor2_1
*I *1643:ZN O *D gf180mcu_fd_sc_mcu7t5v0__aoi21_1
*CAP
1 *1644:A2 0.000127591
2 *1643:ZN 0.000127591
3 *1644:A2 *392:48 0.000246194
4 *1644:A2 *466:97 1.92171e-06
5 *1724:D *1644:A2 9.87258e-05
6 *1733:D *1644:A2 0.000380229
7 *160:42 *1644:A2 3.82104e-05
*RES
1 *1643:ZN *1644:A2 19.672 
*END

*D_NET *337 0.00156339
*CONN
*I *1646:A2 I *D gf180mcu_fd_sc_mcu7t5v0__nor2_1
*I *1645:ZN O *D gf180mcu_fd_sc_mcu7t5v0__aoi21_1
*CAP
1 *1646:A2 0.000399675
2 *1645:ZN 0.000399675
3 *1646:A2 *1854:I 0.000490931
4 WE_O *1646:A2 9.25409e-05
5 *1732:D *1646:A2 0.000155976
6 *1811:I *1646:A2 2.45927e-05
*RES
1 *1645:ZN *1646:A2 22.484 
*END

*D_NET *338 0.0169589
*CONN
*I *1665:A2 I *D gf180mcu_fd_sc_mcu7t5v0__oai21_1
*I *1823:I I *D gf180mcu_fd_sc_mcu7t5v0__buf_2
*I *1654:A2 I *D gf180mcu_fd_sc_mcu7t5v0__oai21_1
*I *1649:A2 I *D gf180mcu_fd_sc_mcu7t5v0__oai21_1
*I *1650:A2 I *D gf180mcu_fd_sc_mcu7t5v0__aoi21_1
*I *1647:ZN O *D gf180mcu_fd_sc_mcu7t5v0__nor4_1
*CAP
1 *1665:A2 0.000778726
2 *1823:I 0
3 *1654:A2 0.000108403
4 *1649:A2 0
5 *1650:A2 0
6 *1647:ZN 0.000912431
7 *338:69 0.00109256
8 *338:52 0.00106989
9 *338:39 0.00089441
10 *338:20 0.00115919
11 *1654:A2 *1515:A1 0.000113759
12 *1654:A2 *375:10 0
13 *1665:A2 *1515:A1 3.16197e-05
14 *1665:A2 *1518:A1 3.07734e-05
15 *1665:A2 *1664:A2 0
16 *1665:A2 *1665:A1 0.000488991
17 *1665:A2 *1666:A2 4.50449e-05
18 *1665:A2 *378:10 0
19 *338:20 *339:22 0.000719537
20 *338:20 *365:28 0.000192419
21 *338:20 *366:54 4.71425e-05
22 *338:20 *452:55 0.000205765
23 *338:20 *465:44 6.49724e-05
24 *338:20 *477:22 0.000187268
25 *338:39 *1650:B 0.000685655
26 *338:39 *339:22 0.00025873
27 *338:39 *389:7 2.09843e-07
28 *338:39 *389:13 1.29838e-05
29 *338:39 *405:21 0.000333388
30 *338:39 *477:22 5.94067e-05
31 *338:52 *1515:A1 9.59897e-06
32 *338:52 *1651:A2 0
33 *338:52 *1653:A1 1.68484e-05
34 *338:52 *1678:B2 0.000679598
35 *338:52 *1680:A1 0
36 *338:52 *339:22 0.000623092
37 *338:52 *339:29 0.000970033
38 *338:52 *339:44 0.000228612
39 *338:52 *389:7 3.16774e-05
40 *338:69 *1515:A1 4.58958e-05
41 *1399:A1 *338:20 3.73627e-05
42 *1399:A2 *338:20 0.000264137
43 *1399:B *338:20 0.000117398
44 *1413:B *338:20 1.04779e-05
45 *1447:A1 *338:20 0.00224539
46 *1447:A1 *338:39 7.35075e-05
47 *1522:A1 *1665:A2 0.000287153
48 *1522:A3 *1665:A2 0.000108369
49 *1522:A4 *1665:A2 3.23347e-05
50 *1735:D *338:39 2.6126e-05
51 *1737:D *1654:A2 0.000451288
52 *1737:D *338:52 2.22758e-05
53 *1737:D *338:69 2.32826e-05
54 *149:16 *338:20 8.78761e-05
55 *152:37 *338:20 0.000158809
56 *161:14 *338:20 0.000134622
57 *161:55 *338:52 0
58 *173:12 *338:52 0
59 *262:10 *1665:A2 0.000326276
60 *272:23 *1654:A2 0.000453567
*RES
1 *1647:ZN *338:20 34.66 
2 *338:20 *1650:A2 4.5 
3 *338:20 *338:39 12.42 
4 *338:39 *1649:A2 4.5 
5 *338:39 *338:52 7.6 
6 *338:52 *1654:A2 15.4 
7 *338:52 *338:69 1.9 
8 *338:69 *1823:I 4.5 
9 *338:69 *1665:A2 11.644 
*END

*D_NET *339 0.0171178
*CONN
*I *1664:A2 I *D gf180mcu_fd_sc_mcu7t5v0__nor2_1
*I *1667:A2 I *D gf180mcu_fd_sc_mcu7t5v0__nand2_1
*I *1661:A2 I *D gf180mcu_fd_sc_mcu7t5v0__nand2_1
*I *1656:A2 I *D gf180mcu_fd_sc_mcu7t5v0__nand2_1
*I *1653:A2 I *D gf180mcu_fd_sc_mcu7t5v0__nor2_1
*I *1651:A2 I *D gf180mcu_fd_sc_mcu7t5v0__nand2_1
*I *1652:A2 I *D gf180mcu_fd_sc_mcu7t5v0__oai211_1
*I *1648:Z O *D gf180mcu_fd_sc_mcu7t5v0__or4_1
*CAP
1 *1664:A2 0.000572787
2 *1667:A2 5.00218e-05
3 *1661:A2 0
4 *1656:A2 0
5 *1653:A2 0
6 *1651:A2 6.93067e-05
7 *1652:A2 0
8 *1648:Z 0.00157316
9 *339:75 0.000795253
10 *339:68 0.000475755
11 *339:57 0.000656413
12 *339:44 0.000440528
13 *339:29 0.000251181
14 *339:22 0.00166761
15 *1664:A2 *1518:A1 0
16 *1664:A2 *1663:A1 7.24161e-06
17 *1664:A2 *1663:A3 2.11524e-05
18 *1664:A2 *1669:A2 0
19 *1664:A2 *380:25 0
20 *1667:A2 *1662:A1 1.97747e-05
21 *1667:A2 *1663:A3 7.83779e-05
22 *1667:A2 *1667:A1 2.6126e-05
23 *1667:A2 *464:73 0.000142065
24 *339:22 *1399:C 0.000249413
25 *339:22 *1685:I1 0.000115207
26 *339:22 *389:13 0.000128512
27 *339:22 *405:21 1.26706e-05
28 *339:22 *446:12 4.28994e-06
29 *339:22 *477:22 0.000478118
30 *339:29 *1652:B 0.000103272
31 *339:29 *477:22 2.88155e-05
32 *339:44 *1515:A1 2.1594e-05
33 *339:44 *1655:A1 0.000142809
34 *339:44 *464:86 0.000142809
35 *339:57 *1420:B2 1.10616e-05
36 *339:57 *1424:B2 0.000120832
37 *339:57 *1653:A1 0.000234498
38 *339:57 *1655:A1 6.35236e-05
39 *339:57 *374:10 1.20889e-05
40 *339:57 *377:10 0.00041564
41 *339:57 *464:86 0.000714522
42 *339:57 *477:44 4.87601e-06
43 *339:68 *1420:B2 0.000147309
44 *339:68 *1424:B2 0.00016485
45 *339:68 *464:73 9.61205e-06
46 *339:75 *1424:B2 2.88187e-05
47 *339:75 *1663:A2 0.000275418
48 *339:75 *1663:A3 0.000145024
49 *339:75 *464:73 1.15275e-05
50 *1399:A1 *339:22 3.73627e-05
51 *1399:B *339:22 3.08902e-05
52 *1411:A1 *339:22 8.47261e-05
53 *1432:A2 *339:22 0.000140853
54 *1438:A2 *339:22 7.43773e-06
55 *1440:B *339:22 0.000251045
56 *1447:A1 *339:22 0.00137992
57 *1447:A1 *339:29 1.5015e-05
58 *1665:A2 *1664:A2 0
59 *1669:A1 *1664:A2 0
60 *1685:S *339:22 0
61 *1736:D *339:29 0.000307966
62 *1737:D *339:57 0
63 *1740:D *1664:A2 0.000147313
64 *1740:D *1667:A2 0.00032652
65 *1826:I *339:22 6.82773e-05
66 *161:14 *339:22 0.000141187
67 *169:27 *339:22 6.25174e-05
68 *187:25 *339:22 0.000609642
69 *189:6 *339:22 7.3227e-05
70 *338:20 *339:22 0.000719537
71 *338:39 *339:22 0.00025873
72 *338:52 *1651:A2 0
73 *338:52 *339:22 0.000623092
74 *338:52 *339:29 0.000970033
75 *338:52 *339:44 0.000228612
*RES
1 *1648:Z *339:22 30.6 
2 *339:22 *1652:A2 4.5 
3 *339:22 *339:29 2.508 
4 *339:29 *1651:A2 5.032 
5 *339:29 *339:44 5.564 
6 *339:44 *1653:A2 9 
7 *339:44 *339:57 8.452 
8 *339:57 *1656:A2 4.5 
9 *339:57 *339:68 2.66 
10 *339:68 *1661:A2 4.5 
11 *339:68 *339:75 2.052 
12 *339:75 *1667:A2 14.564 
13 *339:75 *1664:A2 7.768 
*END

*D_NET *340 0.00133259
*CONN
*I *1650:B I *D gf180mcu_fd_sc_mcu7t5v0__aoi21_1
*I *1649:ZN O *D gf180mcu_fd_sc_mcu7t5v0__oai21_1
*CAP
1 *1650:B 0.000240091
2 *1649:ZN 0.000240091
3 *1650:B *1422:B2 3.08902e-05
4 *1650:B *1649:A1 8.07935e-05
5 *1650:B *1680:A1 2.22533e-05
6 *1650:B *389:13 6.83992e-06
7 *1442:A1 *1650:B 0
8 *1447:A1 *1650:B 1.09653e-05
9 *1650:A1 *1650:B 1.5015e-05
10 *338:39 *1650:B 0.000685655
*RES
1 *1649:ZN *1650:B 11.508 
*END

*D_NET *341 0.000904785
*CONN
*I *1652:B I *D gf180mcu_fd_sc_mcu7t5v0__oai211_1
*I *1651:ZN O *D gf180mcu_fd_sc_mcu7t5v0__nand2_1
*CAP
1 *1652:B 9.8256e-05
2 *1651:ZN 9.8256e-05
3 *1652:B *1649:B 3.08902e-05
4 *1652:B *477:22 0.000288913
5 *1447:A1 *1652:B 3.08902e-05
6 *1736:D *1652:B 2.23385e-05
7 *121:12 *1652:B 0.00023197
8 *339:29 *1652:B 0.000103272
*RES
1 *1651:ZN *1652:B 10.748 
*END

*D_NET *342 0.0016814
*CONN
*I *1655:A1 I *D gf180mcu_fd_sc_mcu7t5v0__nor2_1
*I *1653:ZN O *D gf180mcu_fd_sc_mcu7t5v0__nor2_1
*CAP
1 *1655:A1 6.63082e-05
2 *1653:ZN 6.63082e-05
3 *1655:A1 *1655:A2 0.000285856
4 *1655:A1 *1678:B2 0.000417777
5 *1655:A1 *374:10 2.23783e-05
6 *1655:A1 *375:10 0.000450253
7 *1655:A1 *464:86 1.3575e-05
8 *1655:A1 *464:96 9.7926e-05
9 *1737:D *1655:A1 4.15401e-05
10 *272:23 *1655:A1 1.31444e-05
11 *339:44 *1655:A1 0.000142809
12 *339:57 *1655:A1 6.35236e-05
*RES
1 *1653:ZN *1655:A1 20.356 
*END

*D_NET *343 0.000478349
*CONN
*I *1655:A2 I *D gf180mcu_fd_sc_mcu7t5v0__nor2_1
*I *1654:ZN O *D gf180mcu_fd_sc_mcu7t5v0__oai21_1
*CAP
1 *1655:A2 2.91898e-05
2 *1654:ZN 2.91898e-05
3 *1655:A1 *1655:A2 0.000285856
4 *1737:D *1655:A2 0.000134113
*RES
1 *1654:ZN *1655:A2 18.684 
*END

*D_NET *344 0.000589443
*CONN
*I *1658:A2 I *D gf180mcu_fd_sc_mcu7t5v0__nand3_1
*I *1656:ZN O *D gf180mcu_fd_sc_mcu7t5v0__nand2_1
*CAP
1 *1658:A2 4.31741e-05
2 *1656:ZN 4.31741e-05
3 *1658:A2 *1682:B2 0.00017887
4 *1658:A2 *451:10 0.000324225
*RES
1 *1656:ZN *1658:A2 18.988 
*END

*D_NET *345 0.000871414
*CONN
*I *1658:A3 I *D gf180mcu_fd_sc_mcu7t5v0__nand3_1
*I *1657:ZN O *D gf180mcu_fd_sc_mcu7t5v0__nand2_1
*CAP
1 *1658:A3 0.000218351
2 *1657:ZN 0.000218351
3 *1658:A3 *1428:B2 2.9412e-05
4 *1658:A3 *1657:A1 2.44046e-05
5 *1658:A3 *451:12 1.3758e-05
6 *1658:A3 *451:38 0.000286471
7 *1658:A3 *451:45 4.50449e-05
8 *1738:D *1658:A3 3.5621e-05
*RES
1 *1657:ZN *1658:A3 11.128 
*END

*D_NET *346 0.00046732
*CONN
*I *1660:B I *D gf180mcu_fd_sc_mcu7t5v0__aoi21_1
*I *1659:ZN O *D gf180mcu_fd_sc_mcu7t5v0__oai21_1
*CAP
1 *1660:B 0.00010924
2 *1659:ZN 0.00010924
3 *1660:B *1659:A2 0.000130864
4 *1660:B *1659:B 1.02153e-05
5 *1660:B *1682:B2 0.00010052
6 *1660:B *451:12 7.24161e-06
*RES
1 *1659:ZN *1660:B 10.064 
*END

*D_NET *347 0.000759088
*CONN
*I *1663:A2 I *D gf180mcu_fd_sc_mcu7t5v0__nand3_1
*I *1661:ZN O *D gf180mcu_fd_sc_mcu7t5v0__nand2_1
*CAP
1 *1663:A2 0.000142728
2 *1661:ZN 0.000142728
3 *1663:A2 *1424:B2 0.000143317
4 *1663:A2 *1663:A1 5.48978e-05
5 *339:75 *1663:A2 0.000275418
*RES
1 *1661:ZN *1663:A2 10.824 
*END

*D_NET *348 0.00140931
*CONN
*I *1663:A3 I *D gf180mcu_fd_sc_mcu7t5v0__nand3_1
*I *1662:ZN O *D gf180mcu_fd_sc_mcu7t5v0__nand2_1
*CAP
1 *1663:A3 0.000250173
2 *1662:ZN 0.000250173
3 *1663:A3 *1662:A1 1.56454e-05
4 *1663:A3 *1667:A1 2.74753e-05
5 *1663:A3 *464:73 0.000621285
6 *1664:A2 *1663:A3 2.11524e-05
7 *1667:A2 *1663:A3 7.83779e-05
8 *339:75 *1663:A3 0.000145024
*RES
1 *1662:ZN *1663:A3 11.736 
*END

*D_NET *349 0.000338845
*CONN
*I *1666:A1 I *D gf180mcu_fd_sc_mcu7t5v0__nor2_1
*I *1664:ZN O *D gf180mcu_fd_sc_mcu7t5v0__nor2_1
*CAP
1 *1666:A1 3.85373e-05
2 *1664:ZN 3.85373e-05
3 *1666:A1 *467:86 5.49185e-05
4 *1669:A1 *1666:A1 0.000206852
*RES
1 *1664:ZN *1666:A1 18.684 
*END

*D_NET *350 0.000213032
*CONN
*I *1666:A2 I *D gf180mcu_fd_sc_mcu7t5v0__nor2_1
*I *1665:ZN O *D gf180mcu_fd_sc_mcu7t5v0__oai21_1
*CAP
1 *1666:A2 8.39935e-05
2 *1665:ZN 8.39935e-05
3 *1665:A2 *1666:A2 4.50449e-05
*RES
1 *1665:ZN *1666:A2 9.684 
*END

*D_NET *351 0.000824439
*CONN
*I *1669:A2 I *D gf180mcu_fd_sc_mcu7t5v0__nand3_1
*I *1667:ZN O *D gf180mcu_fd_sc_mcu7t5v0__nand2_1
*CAP
1 *1669:A2 0.000232044
2 *1667:ZN 0.000232044
3 *1669:A2 *1662:A1 8.09693e-06
4 *1669:A2 *1669:A3 9.65413e-05
5 *1669:A2 *380:25 0.000255714
6 *1664:A2 *1669:A2 0
*RES
1 *1667:ZN *1669:A2 10.824 
*END

*D_NET *352 0.000791471
*CONN
*I *1669:A3 I *D gf180mcu_fd_sc_mcu7t5v0__nand3_1
*I *1668:ZN O *D gf180mcu_fd_sc_mcu7t5v0__nand2_1
*CAP
1 *1669:A3 0.000256749
2 *1668:ZN 0.000256749
3 *1669:A3 *380:25 0.000111858
4 *1669:A3 *394:24 5.22822e-05
5 *1669:A1 *1669:A3 1.72912e-05
6 *1669:A2 *1669:A3 9.65413e-05
7 *1740:D *1669:A3 0
*RES
1 *1668:ZN *1669:A3 11.128 
*END

*D_NET *353 0.000998201
*CONN
*I *1672:A2 I *D gf180mcu_fd_sc_mcu7t5v0__aoi22_1
*I *1670:ZN O *D gf180mcu_fd_sc_mcu7t5v0__aoi22_1
*CAP
1 *1672:A2 7.74624e-05
2 *1670:ZN 7.74624e-05
3 *1672:A2 *1672:B1 9.50423e-05
4 *1672:A2 *1676:A1 0.000355898
5 *150:43 *1672:A2 1.21463e-05
6 *161:29 *1672:A2 8.05328e-06
7 *171:8 *1672:A2 0.000372137
*RES
1 *1670:ZN *1672:A2 19.52 
*END

*D_NET *354 0.00398579
*CONN
*I *1672:B1 I *D gf180mcu_fd_sc_mcu7t5v0__aoi22_1
*I *1671:ZN O *D gf180mcu_fd_sc_mcu7t5v0__nand2_1
*CAP
1 *1672:B1 0.00103356
2 *1671:ZN 0.00103356
3 *1672:B1 *1470:A1 0.000202899
4 *1672:B1 *1473:B2 0.000177992
5 *1672:B1 *1676:A2 0.000755745
6 *1672:B1 *1680:A2 0
7 *1672:B1 *371:12 0.000324223
8 *1672:B1 *371:31 1.039e-05
9 *1672:B1 *389:105 0
10 *1466:A1 *1672:B1 0
11 *1466:A3 *1672:B1 0.000206341
12 *1469:A2 *1672:B1 0
13 *1672:A2 *1672:B1 9.50423e-05
14 *150:43 *1672:B1 0
15 *161:14 *1672:B1 0.000140658
16 *161:29 *1672:B1 5.38563e-06
*RES
1 *1671:ZN *1672:B1 26.968 
*END

*D_NET *355 0.00551193
*CONN
*I *1673:I1 I *D gf180mcu_fd_sc_mcu7t5v0__mux2_2
*I *1672:ZN O *D gf180mcu_fd_sc_mcu7t5v0__aoi22_1
*CAP
1 *1673:I1 0.000712031
2 *1672:ZN 0.000712031
3 *1673:I1 *1673:S 0.000162632
4 *1673:I1 *1676:A2 2.45328e-05
5 *1673:I1 *1677:I1 6.31515e-05
6 *1673:I1 *414:70 0.000215438
7 *1673:I1 *446:12 8.62306e-05
8 *1673:I1 *452:14 0.00024908
9 *1673:I1 *456:25 0
10 *1673:I1 *463:125 0.000126947
11 *1435:A1 *1673:I1 0
12 *1469:A2 *1673:I1 0.00259344
13 *150:43 *1673:I1 0.000211189
14 *161:14 *1673:I1 7.3227e-05
15 *171:8 *1673:I1 1.59307e-05
16 *327:14 *1673:I1 0.000266064
*RES
1 *1672:ZN *1673:I1 28.488 
*END

*D_NET *356 0.00495338
*CONN
*I *1676:A1 I *D gf180mcu_fd_sc_mcu7t5v0__nand2_1
*I *1674:ZN O *D gf180mcu_fd_sc_mcu7t5v0__oai221_1
*CAP
1 *1676:A1 0.000744357
2 *1674:ZN 0.000744357
3 *1676:A1 *1415:A2 5.27389e-05
4 *1676:A1 *1420:B2 0.000120373
5 *1676:A1 *1649:A1 0.000209085
6 *1676:A1 *1653:A1 0.000145622
7 *1676:A1 *1670:A1 0.000127484
8 *1676:A1 *1670:B2 0.000213735
9 *1676:A1 *1676:A2 3.23062e-05
10 *1676:A1 *1677:I1 0.000291638
11 *1676:A1 *1680:A1 0.000235651
12 *1676:A1 *479:26 0.000361015
13 *1415:A1 *1676:A1 0.00018511
14 *1420:A2 *1676:A1 6.5808e-05
15 *1422:A2 *1676:A1 0.000369754
16 *1423:I1 *1676:A1 8.55327e-05
17 *1427:I1 *1676:A1 4.19077e-05
18 *1670:B1 *1676:A1 1.65795e-06
19 *1672:A2 *1676:A1 0.000355898
20 *161:29 *1676:A1 0.000303397
21 *161:46 *1676:A1 7.83779e-05
22 *171:8 *1676:A1 8.64348e-05
23 *173:12 *1676:A1 0.000101143
*RES
1 *1674:ZN *1676:A1 18.956 
*END

*D_NET *357 0.00455693
*CONN
*I *1676:A2 I *D gf180mcu_fd_sc_mcu7t5v0__nand2_1
*I *1675:ZN O *D gf180mcu_fd_sc_mcu7t5v0__nand3_1
*CAP
1 *1676:A2 0.00106366
2 *1675:ZN 0.00106366
3 *1676:A2 *1470:A1 0.000104569
4 *1676:A2 *1471:B2 4.17169e-06
5 *1676:A2 *1473:B1 6.43234e-05
6 *1676:A2 *1671:A1 0.000272143
7 *1676:A2 *1671:A2 0.000355471
8 *1676:A2 *1675:A1 0.000342472
9 *1676:A2 *1679:A2 1.89825e-05
10 *1676:A2 *369:14 4.30163e-05
11 *1676:A2 *370:26 5.47805e-05
12 *1676:A2 *371:12 0.000183642
13 *1462:B1 *1676:A2 0
14 *1469:A2 *1676:A2 0.000106079
15 *1672:B1 *1676:A2 0.000755745
16 *1673:I1 *1676:A2 2.45328e-05
17 *1676:A1 *1676:A2 3.23062e-05
18 *171:8 *1676:A2 6.73834e-05
*RES
1 *1675:ZN *1676:A2 27.956 
*END

*D_NET *358 0.0067258
*CONN
*I *1677:I1 I *D gf180mcu_fd_sc_mcu7t5v0__mux2_2
*I *1676:ZN O *D gf180mcu_fd_sc_mcu7t5v0__nand2_1
*CAP
1 *1677:I1 0.00122165
2 *1676:ZN 0.00122165
3 *1677:I1 *1422:B2 9.20566e-06
4 *1677:I1 *1670:A1 0.00046646
5 *1677:I1 *1670:B2 0.000142194
6 *1677:I1 *1677:S 0.000482003
7 *1677:I1 *1680:A1 8.04139e-05
8 *1677:I1 *1680:A2 4.84399e-05
9 *1677:I1 *1681:I1 0.000271629
10 *1677:I1 *1681:S 0.000200343
11 *1677:I1 *1685:I0 0.000280148
12 *1677:I1 *1685:I1 7.50602e-05
13 *1677:I1 *1735:CLK 6.81517e-05
14 *1677:I1 *405:21 5.45907e-06
15 *1677:I1 *413:64 2.27595e-05
16 *1677:I1 *477:22 0.000370756
17 *1677:I1 *492:12 0.000105443
18 *1673:I1 *1677:I1 6.31515e-05
19 *1676:A1 *1677:I1 0.000291638
20 *1746:D *1677:I1 0.000632728
21 *150:43 *1677:I1 6.76333e-05
22 *161:14 *1677:I1 7.3227e-05
23 *161:29 *1677:I1 0.000525664
*RES
1 *1676:ZN *1677:I1 31.528 
*END

*D_NET *359 0.00334461
*CONN
*I *1680:A1 I *D gf180mcu_fd_sc_mcu7t5v0__nand2_1
*I *1678:ZN O *D gf180mcu_fd_sc_mcu7t5v0__oai221_1
*CAP
1 *1680:A1 0.000510021
2 *1678:ZN 0.000510021
3 *1680:A1 *1422:B2 4.61156e-05
4 *1680:A1 *1649:A1 0.000178195
5 *1680:A1 *1670:B2 0.000275969
6 *1680:A1 *389:7 7.80825e-05
7 *1680:A1 *389:13 0.000168784
8 *1680:A1 *479:26 0.000246965
9 *1422:B1 *1680:A1 8.55327e-05
10 *1431:I1 *1680:A1 0.000142809
11 *1650:B *1680:A1 2.22533e-05
12 *1676:A1 *1680:A1 0.000235651
13 *1677:I1 *1680:A1 8.04139e-05
14 *150:43 *1680:A1 4.04846e-05
15 *173:12 *1680:A1 0.000723314
16 *338:52 *1680:A1 0
*RES
1 *1678:ZN *1680:A1 24.08 
*END

*D_NET *360 0.00590942
*CONN
*I *1680:A2 I *D gf180mcu_fd_sc_mcu7t5v0__nand2_1
*I *1679:ZN O *D gf180mcu_fd_sc_mcu7t5v0__nand3_1
*CAP
1 *1680:A2 0.0012196
2 *1679:ZN 0.0012196
3 *1680:A2 *1473:B2 6.79912e-06
4 *1680:A2 *1644:A1 0.000133858
5 *1680:A2 *1670:A1 2.90023e-05
6 *1680:A2 *1671:A2 1.52768e-05
7 *1680:A2 *1679:A1 7.32209e-05
8 *1680:A2 *1679:A2 8.55327e-05
9 *1680:A2 *1685:I1 0.000121789
10 *1680:A2 *370:16 0.00062433
11 *1680:A2 *371:12 0
12 *1680:A2 *389:105 0.000248913
13 *1680:A2 *405:21 0
14 *1680:A2 *405:41 0
15 *1680:A2 *405:56 0
16 *1680:A2 *417:28 0.000659592
17 *1466:A1 *1680:A2 0.000569196
18 *1670:B1 *1680:A2 0.000181264
19 *1672:B1 *1680:A2 0
20 *1677:I1 *1680:A2 4.84399e-05
21 *150:43 *1680:A2 0.000652778
22 *160:42 *1680:A2 2.02175e-05
*RES
1 *1679:ZN *1680:A2 29.856 
*END

*D_NET *361 0.00250921
*CONN
*I *1681:I1 I *D gf180mcu_fd_sc_mcu7t5v0__mux2_2
*I *1680:ZN O *D gf180mcu_fd_sc_mcu7t5v0__nand2_1
*CAP
1 *1681:I1 0.000584538
2 *1680:ZN 0.000584538
3 *1681:I1 *1681:S 0.000158809
4 *1681:I1 *1685:I0 0.000651006
5 *1677:I1 *1681:I1 0.000271629
6 *1746:D *1681:I1 0.000258692
7 *161:14 *1681:I1 0
*RES
1 *1680:ZN *1681:I1 23.548 
*END

*D_NET *362 0.00144189
*CONN
*I *1684:A1 I *D gf180mcu_fd_sc_mcu7t5v0__nand2_1
*I *1682:ZN O *D gf180mcu_fd_sc_mcu7t5v0__oai221_1
*CAP
1 *1684:A1 0.000240234
2 *1682:ZN 0.000240234
3 *1684:A1 *1469:A1 0
4 *1684:A1 *1682:A1 0.000308746
5 *1684:A1 *1684:A2 0.000369754
6 *1684:A1 *389:105 3.62081e-05
7 *1684:A1 *405:19 2.74661e-05
8 *1684:A1 *455:12 8.39e-05
9 *1684:A1 *455:31 4.98138e-05
10 *1684:A1 *455:40 8.55327e-05
11 *1415:A1 *1684:A1 0
12 *1830:I *1684:A1 0
*RES
1 *1682:ZN *1684:A1 11.508 
*END

*D_NET *363 0.00381777
*CONN
*I *1684:A2 I *D gf180mcu_fd_sc_mcu7t5v0__nand2_1
*I *1683:ZN O *D gf180mcu_fd_sc_mcu7t5v0__nand3_1
*CAP
1 *1684:A2 0.00101192
2 *1683:ZN 0.00101192
3 *1684:A2 *1417:A2 0.000567127
4 *1684:A2 *1456:A1 6.13775e-05
5 *1684:A2 *1464:A1 5.72229e-05
6 *1684:A2 *1682:A1 0.000173311
7 *1684:A2 *1776:I 0
8 *1684:A2 *389:105 8.34204e-05
9 *1684:A2 *405:19 2.6126e-05
10 *1684:A2 *417:67 5.40492e-05
11 *1684:A2 *417:80 1.09905e-05
12 *1422:B1 *1684:A2 0.000366513
13 *1466:A2 *1684:A2 2.40434e-05
14 *1684:A1 *1684:A2 0.000369754
*RES
1 *1683:ZN *1684:A2 26.816 
*END

*D_NET *364 0.00370789
*CONN
*I *1685:I1 I *D gf180mcu_fd_sc_mcu7t5v0__mux2_2
*I *1684:ZN O *D gf180mcu_fd_sc_mcu7t5v0__nand2_1
*CAP
1 *1685:I1 0.000393494
2 *1684:ZN 0.000393494
3 *1685:I1 *1670:A1 0.000771827
4 *1685:I1 *405:21 0.000855235
5 *1685:I1 *477:22 0.000366039
6 *1670:B1 *1685:I1 6.91851e-05
7 *1677:I1 *1685:I1 7.50602e-05
8 *1680:A2 *1685:I1 0.000121789
9 *1826:I *1685:I1 2.22758e-05
10 *150:43 *1685:I1 0.000324241
11 *161:46 *1685:I1 0.000142801
12 *169:27 *1685:I1 5.72419e-05
13 *339:22 *1685:I1 0.000115207
*RES
1 *1684:ZN *1685:I1 24.688 
*END

*D_NET *365 0.0154324
*CONN
*I *1438:A1 I *D gf180mcu_fd_sc_mcu7t5v0__nand3_1
*I *1412:A1 I *D gf180mcu_fd_sc_mcu7t5v0__aoi21_1
*I *1610:A1 I *D gf180mcu_fd_sc_mcu7t5v0__aoi22_1
*I *1381:I I *D gf180mcu_fd_sc_mcu7t5v0__clkinv_1
*I *1398:A1 I *D gf180mcu_fd_sc_mcu7t5v0__nor4_1
*I *1648:A1 I *D gf180mcu_fd_sc_mcu7t5v0__or4_1
*I *1647:A1 I *D gf180mcu_fd_sc_mcu7t5v0__nor4_1
*I *1445:A1 I *D gf180mcu_fd_sc_mcu7t5v0__oai21_1
*I *1443:A1 I *D gf180mcu_fd_sc_mcu7t5v0__nand2_1
*I *1751:Q O *D gf180mcu_fd_sc_mcu7t5v0__dffq_1
*CAP
1 *1438:A1 0.000174801
2 *1412:A1 0
3 *1610:A1 0.000531529
4 *1381:I 3.37879e-05
5 *1398:A1 1.60655e-05
6 *1648:A1 0
7 *1647:A1 0
8 *1445:A1 0
9 *1443:A1 0.000519487
10 *1751:Q 0.000141183
11 *365:106 0.000723594
12 *365:89 0.00048725
13 *365:48 0.000808058
14 *365:42 0.00041927
15 *365:36 0.000234367
16 *365:28 0.000299562
17 *365:16 0.000630025
18 *365:12 0.000504784
19 *1381:I *404:16 7.72363e-05
20 *1443:A1 *1443:A2 3.08902e-05
21 *1443:A1 *1839:I 9.26705e-05
22 *1443:A1 *366:6 6.3487e-05
23 *1443:A1 *366:22 5.59303e-05
24 *1443:A1 *460:34 0.000698449
25 *1443:A1 *501:8 3.66268e-05
26 *1610:A1 *1368:I 0.000299171
27 *1610:A1 *1393:A3 7.59351e-05
28 *1610:A1 *368:10 3.2412e-05
29 *1610:A1 *368:12 2.47642e-05
30 *1610:A1 *368:20 4.9703e-05
31 *1610:A1 *368:43 0
32 *1610:A1 *462:10 0.000211154
33 *1610:A1 *462:42 0.000104335
34 *365:12 *452:14 7.24696e-05
35 *365:28 *452:55 0.000104795
36 *365:36 *1398:A2 0.000203657
37 *365:42 *1398:A2 5.83359e-05
38 *365:48 *366:22 0.000118016
39 *365:48 *366:37 2.96977e-05
40 *1394:A4 *1610:A1 0.000177498
41 *1399:A2 *365:28 0.000261998
42 *1399:B *1398:A1 5.4634e-05
43 *1399:B *365:36 9.26705e-05
44 *1412:B *1610:A1 6.26869e-05
45 *1412:B *365:28 0.00011179
46 *1412:B *365:89 3.49363e-05
47 *1412:B *365:106 1.04077e-05
48 *1413:B *365:16 7.83779e-05
49 *1413:B *365:28 4.80812e-05
50 *1413:B *365:89 2.20475e-05
51 *1414:A2 *1610:A1 0.000154451
52 *1414:A2 *365:106 0.000210547
53 *1432:B *365:48 0.000310356
54 *1442:A1 *365:12 6.5907e-05
55 *1442:C *1438:A1 0.000494209
56 *1442:C *365:16 0.000249089
57 *1444:I *1443:A1 0.000260709
58 *1447:A1 *1398:A1 2.96621e-05
59 *1447:A1 *365:28 2.16282e-05
60 *1447:A1 *365:36 0.000121389
61 *1447:A1 *365:48 0.000113741
62 *1447:B2 *1443:A1 0.000314277
63 *1447:C *1443:A1 0.000372368
64 *1447:C *365:48 8.50647e-05
65 *1451:A2 *1443:A1 1.44832e-05
66 *1453:A2 *1443:A1 0.000258423
67 *1454:A2 *1610:A1 0.000580793
68 *1611:A2 *1610:A1 8.52169e-07
69 *1613:A2 *1610:A1 6.4334e-06
70 *1753:D *1443:A1 2.18353e-05
71 *142:10 *365:89 8.08298e-05
72 *148:12 *1610:A1 0.0001513
73 *148:14 *1610:A1 0.000173933
74 *149:12 *1610:A1 0.000135047
75 *149:16 *365:28 0.00040968
76 *149:16 *365:89 2.67803e-05
77 *150:6 *365:16 0.000154516
78 *150:43 *365:16 9.32446e-05
79 *152:10 *1381:I 0.000196417
80 *152:10 *1610:A1 4.18118e-05
81 *152:10 *365:89 9.75543e-06
82 *152:10 *365:106 4.75552e-05
83 *152:14 *365:89 4.05276e-05
84 *152:37 *365:36 2.23385e-05
85 *152:37 *365:42 0.000317926
86 *152:37 *365:48 4.58601e-06
87 *155:34 *365:42 9.68873e-06
88 *160:14 *365:106 0
89 *171:8 *1438:A1 0
90 *171:8 *365:16 0
91 *189:17 *365:12 0.000350837
92 *191:46 *1610:A1 1.35785e-05
93 *191:56 *1610:A1 2.66534e-05
94 *194:8 *365:12 9.53857e-05
95 *194:18 *365:16 0.000232746
96 *338:20 *365:28 0.000192419
*RES
1 *1751:Q *365:12 15.02 
2 *365:12 *365:16 6.704 
3 *365:16 *365:28 16.16 
4 *365:28 *365:36 1.672 
5 *365:36 *365:42 1.444 
6 *365:42 *365:48 2.508 
7 *365:48 *1443:A1 20.188 
8 *365:48 *1445:A1 4.5 
9 *365:42 *1647:A1 4.5 
10 *365:36 *1648:A1 4.5 
11 *365:28 *1398:A1 4.728 
12 *365:16 *365:89 1.748 
13 *365:89 *1381:I 9.532 
14 *365:89 *365:106 5.944 
15 *365:106 *1610:A1 28.428 
16 *365:106 *1412:A1 4.5 
17 *365:12 *1438:A1 5.944 
*END

*D_NET *366 0.0123984
*CONN
*I *1393:A1 I *D gf180mcu_fd_sc_mcu7t5v0__and4_1
*I *1394:A1 I *D gf180mcu_fd_sc_mcu7t5v0__nand4_1
*I *1612:A1 I *D gf180mcu_fd_sc_mcu7t5v0__aoi22_1
*I *1443:A2 I *D gf180mcu_fd_sc_mcu7t5v0__nand2_1
*I *1392:A2 I *D gf180mcu_fd_sc_mcu7t5v0__or3_1
*I *1398:A2 I *D gf180mcu_fd_sc_mcu7t5v0__nor4_1
*I *1432:A1 I *D gf180mcu_fd_sc_mcu7t5v0__oai21_1
*I *1445:A2 I *D gf180mcu_fd_sc_mcu7t5v0__oai21_1
*I *1446:A1 I *D gf180mcu_fd_sc_mcu7t5v0__nand3_1
*I *1752:Q O *D gf180mcu_fd_sc_mcu7t5v0__dffq_1
*CAP
1 *1393:A1 5.59408e-05
2 *1394:A1 0
3 *1612:A1 0.000220916
4 *1443:A2 0.000398227
5 *1392:A2 0.000202645
6 *1398:A2 0.000188877
7 *1432:A1 0
8 *1445:A2 0
9 *1446:A1 3.72651e-05
10 *1752:Q 0.000481906
11 *366:71 0.000654137
12 *366:69 4.9675e-05
13 *366:67 0.000145286
14 *366:54 0.000526937
15 *366:37 0.000649023
16 *366:22 0.000406517
17 *366:15 0.000254815
18 *366:6 0.000577988
19 *1392:A2 *1452:A1 0.00014515
20 *1393:A1 *404:16 0.000113002
21 *1443:A2 *1839:I 0.000186829
22 *1443:A2 *404:16 0.00036882
23 *1612:A1 *1610:A2 0.000569188
24 *1612:A1 *368:14 5.64661e-06
25 *1612:A1 *368:20 0.000107322
26 *1612:A1 *460:87 3.19219e-05
27 *1612:A1 *465:25 0.000157164
28 *1612:A1 *465:44 0.000614667
29 *1612:A1 *468:38 7.32209e-05
30 *366:37 *462:10 0.000104577
31 *366:37 *465:44 1.26341e-05
32 *366:54 *462:10 0.000464815
33 *366:54 *465:44 6.4188e-05
34 *366:67 *465:44 3.37805e-05
35 *366:69 *404:16 2.23385e-05
36 *366:71 *404:16 0.000110382
37 *1393:A2 *1393:A1 1.97747e-05
38 *1393:A2 *366:69 2.23385e-05
39 *1398:A4 *1398:A2 0.000190464
40 *1399:B *1398:A2 0.000147305
41 *1432:A2 *366:37 3.32172e-05
42 *1432:B *366:37 0.000104176
43 *1443:A1 *1443:A2 3.08902e-05
44 *1443:A1 *366:6 6.3487e-05
45 *1443:A1 *366:22 5.59303e-05
46 *1446:A2 *366:22 2.23623e-05
47 *1447:B2 *366:6 7.8137e-05
48 *1447:B2 *366:15 5.76373e-06
49 *1447:B2 *366:22 2.98136e-05
50 *1450:A1 *1443:A2 0.000105033
51 *1450:A2 *1443:A2 0.000123241
52 *1451:A2 *1443:A2 5.78939e-05
53 *1613:A2 *1612:A1 0.000637408
54 *1647:A2 *366:37 8.8425e-05
55 *1648:A3 *1398:A2 0.000134636
56 *143:6 *1443:A2 0
57 *143:8 *1443:A2 0.00015507
58 *143:21 *1443:A2 3.48205e-05
59 *143:21 *366:69 1.5015e-05
60 *143:21 *366:71 0.000114958
61 *149:12 *1392:A2 0.000311351
62 *149:12 *1612:A1 1.36149e-05
63 *149:12 *366:54 0.000151949
64 *149:12 *366:67 0.000444428
65 *152:10 *1393:A1 0.000246919
66 *152:37 *366:37 2.71882e-05
67 *152:37 *366:54 0.000235808
68 *155:25 *366:37 0.000105566
69 *155:34 *1398:A2 1.67041e-05
70 *187:25 *366:22 7.45328e-07
71 *187:25 *366:37 2.23598e-06
72 *194:18 *1392:A2 1.2018e-05
73 *197:25 *1443:A2 6.70604e-05
74 *338:20 *366:54 4.71425e-05
75 *365:36 *1398:A2 0.000203657
76 *365:42 *1398:A2 5.83359e-05
77 *365:48 *366:22 0.000118016
78 *365:48 *366:37 2.96977e-05
*RES
1 *1752:Q *366:6 7.616 
2 *366:6 *1446:A1 4.728 
3 *366:6 *366:15 0.38 
4 *366:15 *1445:A2 4.5 
5 *366:15 *366:22 1.444 
6 *366:22 *1432:A1 4.5 
7 *366:22 *366:37 6.628 
8 *366:37 *1398:A2 11.432 
9 *366:37 *366:54 2.964 
10 *366:54 *1392:A2 11.052 
11 *366:54 *366:67 5.64 
12 *366:67 *366:69 0.228 
13 *366:69 *366:71 0.684 
14 *366:71 *1443:A2 8.832 
15 *366:71 *1612:A1 17.756 
16 *366:69 *1394:A1 4.5 
17 *366:67 *1393:A1 5.336 
*END

*D_NET *367 0.0054535
*CONN
*I *1457:A1 I *D gf180mcu_fd_sc_mcu7t5v0__and3_1
*I *1391:A1 I *D gf180mcu_fd_sc_mcu7t5v0__nand3_1
*I *1382:I I *D gf180mcu_fd_sc_mcu7t5v0__clkinv_1
*I *1449:A1 I *D gf180mcu_fd_sc_mcu7t5v0__nand2_1
*I *1614:A1 I *D gf180mcu_fd_sc_mcu7t5v0__aoi22_1
*I *1753:Q O *D gf180mcu_fd_sc_mcu7t5v0__dffq_1
*CAP
1 *1457:A1 2.96476e-05
2 *1391:A1 0.000140719
3 *1382:I 0.000140005
4 *1449:A1 0
5 *1614:A1 0
6 *1753:Q 0.000351749
7 *367:51 0.00025396
8 *367:40 0.000240182
9 *367:31 0.000215171
10 *367:12 0.000550336
11 *1382:I *1839:I 0
12 *1391:A1 *1457:A2 2.22758e-05
13 *1391:A1 *1610:B1 0
14 *367:12 *1614:A2 3.08902e-05
15 *367:12 *1836:I 0.000107858
16 *367:31 *1368:I 0.000569272
17 *367:31 *1614:A2 0.000368683
18 *367:31 *1614:B1 2.80203e-05
19 *367:31 *1836:I 4.10312e-05
20 *367:31 *1839:I 9.1848e-05
21 *367:31 *460:34 3.74778e-05
22 *367:31 *460:47 0.00012749
23 *367:40 *1368:I 7.83779e-05
24 ADDR_O[3] *367:12 0.000202418
25 *1450:A1 *367:40 1.12959e-05
26 *1450:A2 *1382:I 3.16765e-06
27 *1451:A1 *1391:A1 2.6126e-05
28 *1451:A2 *367:31 0.000147305
29 *1454:A2 *1391:A1 0.000700078
30 *1457:A3 *1382:I 8.3622e-05
31 *1457:A3 *1457:A1 0.00011914
32 *1457:A3 *367:51 0.000155147
33 *1613:A2 *1391:A1 5.72419e-05
34 *1615:A2 *367:31 2.05156e-05
35 *1617:A2 *367:12 0
36 *1617:A2 *367:31 0.000193933
37 *1717:D *367:12 0
38 *1718:D *1391:A1 0.000105256
39 *1718:D *1457:A1 1.38226e-05
40 *1753:D *367:12 1.20961e-05
41 *191:46 *1382:I 1.25589e-05
42 *191:46 *1457:A1 3.80424e-06
43 *191:46 *367:51 4.04924e-06
44 *197:25 *367:31 0.000156927
*RES
1 *1753:Q *367:12 16.54 
2 *367:12 *1614:A1 4.5 
3 *367:12 *367:31 12.572 
4 *367:31 *1449:A1 4.5 
5 *367:31 *367:40 4.728 
6 *367:40 *1382:I 9.684 
7 *367:40 *367:51 0.532 
8 *367:51 *1391:A1 10.9 
9 *367:51 *1457:A1 9.38 
*END

*D_NET *368 0.00606078
*CONN
*I *1455:A1 I *D gf180mcu_fd_sc_mcu7t5v0__nor2_1
*I *1457:A2 I *D gf180mcu_fd_sc_mcu7t5v0__and3_1
*I *1616:A1 I *D gf180mcu_fd_sc_mcu7t5v0__aoi22_1
*I *1391:A2 I *D gf180mcu_fd_sc_mcu7t5v0__nand3_1
*I *1393:A3 I *D gf180mcu_fd_sc_mcu7t5v0__and4_1
*I *1394:A3 I *D gf180mcu_fd_sc_mcu7t5v0__nand4_1
*I *1754:Q O *D gf180mcu_fd_sc_mcu7t5v0__dffq_1
*CAP
1 *1455:A1 0.000171635
2 *1457:A2 2.88294e-05
3 *1616:A1 0.000120845
4 *1391:A2 0
5 *1393:A3 5.37417e-05
6 *1394:A3 0
7 *1754:Q 0.00010236
8 *368:43 0.000427811
9 *368:20 0.000184897
10 *368:14 0.000142892
11 *368:12 0.000299912
12 *368:10 0.000284033
13 *1393:A3 *1368:I 0.000368097
14 *1455:A1 *1454:A1 2.74661e-05
15 *1455:A1 *462:16 6.32969e-05
16 *1457:A2 *1610:B2 0
17 *1616:A1 *1839:I 0.000151949
18 *1616:A1 *453:46 0.000388484
19 *1616:A1 *460:66 2.88798e-05
20 *368:10 *1797:I 2.11901e-05
21 *368:10 *462:42 1.38028e-05
22 *368:10 *462:57 4.88658e-05
23 *368:10 *468:38 0.000137785
24 *368:20 *1368:I 8.55327e-05
25 *368:43 *453:46 0.000304736
26 *1391:A1 *1457:A2 2.22758e-05
27 *1391:A3 *1455:A1 9.60584e-06
28 *1393:A2 *1393:A3 0.000175625
29 *1393:A2 *368:20 1.5015e-05
30 *1454:A2 *368:12 0.000341626
31 *1454:A2 *368:14 8.75225e-05
32 *1454:A2 *368:20 0.000208791
33 *1455:A2 *1455:A1 0.000246974
34 *1610:A1 *1393:A3 7.59351e-05
35 *1610:A1 *368:10 3.2412e-05
36 *1610:A1 *368:12 2.47642e-05
37 *1610:A1 *368:20 4.9703e-05
38 *1610:A1 *368:43 0
39 *1612:A1 *368:14 5.64661e-06
40 *1612:A1 *368:20 0.000107322
41 *1613:A2 *368:10 0.000311117
42 *1613:A2 *368:12 0.000376638
43 *1613:A2 *368:14 2.27233e-05
44 *1621:A2 *1455:A1 1.26856e-05
45 *1621:A2 *368:10 0.000142801
46 *1754:D *368:10 1.5015e-05
47 *10:12 *1616:A1 8.64865e-05
48 *10:12 *368:43 0.000132666
49 *143:21 *368:20 4.50449e-05
50 *149:12 *368:20 2.67896e-05
51 *152:10 *1393:A3 2.05156e-05
52 *191:46 *1455:A1 8.0352e-06
*RES
1 *1754:Q *368:10 10.672 
2 *368:10 *368:12 0.988 
3 *368:12 *368:14 0.228 
4 *368:14 *368:20 5.868 
5 *368:20 *1394:A3 4.5 
6 *368:20 *1393:A3 5.792 
7 *368:14 *1391:A2 9 
8 *368:12 *368:43 6.4 
9 *368:43 *1616:A1 15.02 
10 *368:43 *1457:A2 13.728 
11 *368:10 *1455:A1 10.444 
*END

*D_NET *369 0.00947468
*CONN
*I *1459:A1 I *D gf180mcu_fd_sc_mcu7t5v0__nand2_1
*I *1461:B I *D gf180mcu_fd_sc_mcu7t5v0__aoi21_1
*I *1467:A2 I *D gf180mcu_fd_sc_mcu7t5v0__nand4_1
*I *1390:A2 I *D gf180mcu_fd_sc_mcu7t5v0__nor4_1
*I *1618:A1 I *D gf180mcu_fd_sc_mcu7t5v0__aoi22_1
*I *1755:Q O *D gf180mcu_fd_sc_mcu7t5v0__dffq_1
*CAP
1 *1459:A1 8.24049e-05
2 *1461:B 0
3 *1467:A2 8.37106e-05
4 *1390:A2 0
5 *1618:A1 0.000192494
6 *1755:Q 0.000250478
7 *369:28 0.000316868
8 *369:22 0.000263239
9 *369:16 0.0002164
10 *369:14 0.000494129
11 *1467:A2 *1390:A1 0.000211264
12 *1467:A2 *1390:A3 0.000230244
13 *1467:A2 *1622:A1 7.98048e-05
14 *1467:A2 *404:59 2.33477e-05
15 *1618:A1 *1468:A1 3.33053e-05
16 *1618:A1 *1622:A2 4.61352e-05
17 *1618:A1 *453:86 1.5015e-05
18 *1618:A1 *453:93 3.11202e-05
19 *1618:A1 *466:18 2.63488e-06
20 *369:14 *1471:B2 5.2414e-05
21 *369:14 *370:26 0.000171814
22 *369:14 *452:27 5.70962e-05
23 *369:14 *468:38 0.000495496
24 *369:16 *1460:A1 0.000769513
25 *369:16 *404:10 3.73535e-05
26 *369:28 *1390:A1 0.000327904
27 *369:28 *1390:A3 0.000310754
28 *369:28 *1468:A1 2.68145e-05
29 *1458:A1 *369:22 0.000251554
30 *1458:B *369:14 2.23477e-05
31 *1458:B *369:16 2.23385e-05
32 *1459:A2 *369:16 0
33 *1462:B2 *369:16 8.34933e-05
34 *1463:A2 *369:14 0.000110254
35 *1465:A3 *369:14 1.24603e-05
36 *1465:A3 *369:16 9.88736e-06
37 *1467:A4 *1467:A2 0.000206333
38 *1468:B *369:22 0.000471624
39 *1469:A2 *369:14 2.68099e-05
40 *1471:A1 *369:14 1.7642e-05
41 *1643:A2 *1618:A1 0.000964815
42 *1676:A2 *369:14 4.30163e-05
43 *1722:D *1618:A1 0.000953823
44 *1723:D *369:22 0.000324233
45 *1755:D *369:14 0
46 *160:14 *1467:A2 0.000197898
47 *165:41 *1459:A1 0.000117634
48 *189:32 *1459:A1 2.29887e-05
49 *191:56 *369:22 0.000190317
50 *208:23 *1618:A1 1.67347e-05
51 *208:23 *369:28 5.76373e-06
52 *208:31 *369:22 1.40559e-05
53 *209:12 *1459:A1 8.30371e-05
54 *209:12 *369:16 8.97311e-05
55 *210:8 *369:14 0.000394137
*RES
1 *1755:Q *369:14 16.616 
2 *369:14 *369:16 2.204 
3 *369:16 *369:22 10.748 
4 *369:22 *369:28 1.596 
5 *369:28 *1618:A1 16.92 
6 *369:28 *1390:A2 4.5 
7 *369:22 *1467:A2 15.324 
8 *369:16 *1461:B 4.5 
9 *369:14 *1459:A1 14.488 
*END

*D_NET *370 0.0135345
*CONN
*I *1463:A1 I *D gf180mcu_fd_sc_mcu7t5v0__nor2_1
*I *1383:I I *D gf180mcu_fd_sc_mcu7t5v0__clkinv_1
*I *1620:A1 I *D gf180mcu_fd_sc_mcu7t5v0__aoi22_1
*I *1467:A1 I *D gf180mcu_fd_sc_mcu7t5v0__nand4_1
*I *1390:A1 I *D gf180mcu_fd_sc_mcu7t5v0__nor4_1
*I *1756:Q O *D gf180mcu_fd_sc_mcu7t5v0__dffq_1
*CAP
1 *1463:A1 0
2 *1383:I 0
3 *1620:A1 0.00067207
4 *1467:A1 3.12756e-05
5 *1390:A1 0.00024684
6 *1756:Q 0.000667814
7 *370:49 0.000812922
8 *370:32 0.000693203
9 *370:26 0.000562742
10 *370:16 0.000893769
11 *1390:A1 *1390:A3 9.19271e-05
12 *1390:A1 *468:38 0
13 *1620:A1 *1624:B2 3.22131e-05
14 *1620:A1 *1675:A2 0.000315319
15 *1620:A1 *1722:CLK 1.26013e-05
16 *1620:A1 *1724:CLK 0.000898003
17 *1620:A1 *1772:I 0.000299553
18 *1620:A1 *372:29 5.72229e-05
19 *1620:A1 *392:29 6.42313e-05
20 *1620:A1 *392:44 0.000160897
21 *1620:A1 *453:119 0
22 *1620:A1 *466:97 0.000622723
23 *370:16 *1471:B2 0.000103252
24 *370:16 *1683:A1 5.76373e-06
25 *370:16 *1683:A2 1.80215e-05
26 *370:16 *1725:CLK 0.000665887
27 *370:16 *371:12 8.15481e-05
28 *370:26 *1471:B2 0.000239887
29 *370:26 *371:31 3.46053e-05
30 *370:26 *452:27 2.41598e-05
31 *370:32 *1390:A3 0.000242967
32 *370:32 *371:31 6.05172e-05
33 *370:32 *468:38 0
34 *370:49 *1724:CLK 0.000199473
35 *370:49 *404:59 0.000444428
36 *1422:B1 *370:16 3.24312e-05
37 *1465:A1 *370:32 6.00687e-06
38 *1466:A1 *370:16 0.00026286
39 *1467:A2 *1390:A1 0.000211264
40 *1467:A4 *1390:A1 0.000206403
41 *1471:A1 *1620:A1 5.27305e-05
42 *1471:A1 *370:16 0.000593132
43 *1471:A1 *370:26 0.000492603
44 *1471:A1 *370:32 6.18547e-05
45 *1471:A1 *370:49 0.000168602
46 *1471:B1 *370:16 0.000105536
47 *1473:A2 *370:32 5.87561e-06
48 *1474:A2 *1467:A1 0.00013063
49 *1619:A2 *1620:A1 0.000246752
50 *1625:A2 *1620:A1 0
51 *1676:A2 *370:26 5.47805e-05
52 *1680:A2 *370:16 0.00062433
53 *1723:D *1620:A1 0
54 *1733:D *370:16 0.000117203
55 *1757:D *370:16 0.000106338
56 *1758:D *1467:A1 4.94368e-05
57 *189:32 *370:32 1.71936e-06
58 *208:23 *1390:A1 6.33102e-05
59 *214:8 *370:26 0.00018513
60 *327:14 *1620:A1 0
61 *369:14 *370:26 0.000171814
62 *369:28 *1390:A1 0.000327904
*RES
1 *1756:Q *370:16 21.86 
2 *370:16 *370:26 11.812 
3 *370:26 *370:32 2.356 
4 *370:32 *1390:A1 7.388 
5 *370:32 *370:49 6.096 
6 *370:49 *1467:A1 9.38 
7 *370:49 *1620:A1 17.056 
8 *370:26 *1383:I 4.5 
9 *370:16 *1463:A1 4.5 
*END

*D_NET *371 0.00892162
*CONN
*I *1467:A3 I *D gf180mcu_fd_sc_mcu7t5v0__nand4_1
*I *1390:A4 I *D gf180mcu_fd_sc_mcu7t5v0__nor4_1
*I *1622:A1 I *D gf180mcu_fd_sc_mcu7t5v0__aoi22_1
*I *1470:A1 I *D gf180mcu_fd_sc_mcu7t5v0__nor2_1
*I *1757:Q O *D gf180mcu_fd_sc_mcu7t5v0__dffq_1
*CAP
1 *1467:A3 0
2 *1390:A4 0.000199705
3 *1622:A1 0.000215488
4 *1470:A1 4.54396e-05
5 *1757:Q 0.000694377
6 *371:31 0.000910748
7 *371:12 0.00123537
8 *1390:A4 *1390:A3 0.00023439
9 *1390:A4 *1468:A1 0.000300828
10 *1622:A1 *1472:A1 9.88736e-06
11 *1622:A1 *1724:CLK 0.000646187
12 *1622:A1 *404:59 8.84331e-05
13 *1622:A1 *453:93 1.5015e-05
14 *1622:A1 *453:100 0.000118147
15 *371:12 *1643:A1 0.000307974
16 *371:12 *1671:A1 0.000263561
17 *371:12 *1675:A1 0.000473212
18 *371:12 *1679:A2 4.32287e-05
19 *371:12 *1683:A1 0
20 *371:12 *1683:A2 0.000271904
21 *371:12 *1725:CLK 1.53689e-05
22 *371:12 *392:44 4.76243e-05
23 *371:12 *392:48 0.000127516
24 *371:12 *466:97 0.000148022
25 *371:31 *1390:A3 1.97787e-05
26 *371:31 *1473:B1 6.21337e-05
27 *371:31 *1473:B2 2.10847e-05
28 *371:31 *1758:CLK 0.000419318
29 *1467:A2 *1622:A1 7.98048e-05
30 *1468:B *1390:A4 8.55242e-05
31 *1473:A2 *371:31 7.83779e-05
32 *1473:A3 *1390:A4 1.02578e-05
33 *1473:A3 *371:31 0.000144469
34 *1474:A1 *1622:A1 3.30388e-05
35 *1474:A2 *1390:A4 9.64273e-05
36 *1474:A2 *371:31 9.17202e-06
37 *1643:B *371:12 0.000142209
38 *1672:B1 *1470:A1 0.000202899
39 *1672:B1 *371:12 0.000324223
40 *1672:B1 *371:31 1.039e-05
41 *1676:A2 *1470:A1 0.000104569
42 *1676:A2 *371:12 0.000183642
43 *1680:A2 *371:12 0
44 *1724:D *371:12 0.000105405
45 *1733:D *371:12 0
46 *160:14 *1622:A1 0.000105671
47 *214:8 *1470:A1 3.15134e-05
48 *214:8 *371:31 4.72426e-05
49 *216:14 *1622:A1 1.53689e-05
50 *370:16 *371:12 8.15481e-05
51 *370:26 *371:31 3.46053e-05
52 *370:32 *371:31 6.05172e-05
*RES
1 *1757:Q *371:12 16.372 
2 *371:12 *1470:A1 9.76 
3 *371:12 *371:31 8.68 
4 *371:31 *1622:A1 16.236 
5 *371:31 *1390:A4 6.628 
6 *371:31 *1467:A3 4.5 
*END

*D_NET *372 0.00626736
*CONN
*I *1624:A1 I *D gf180mcu_fd_sc_mcu7t5v0__aoi22_1
*I *1390:A3 I *D gf180mcu_fd_sc_mcu7t5v0__nor4_1
*I *1384:I I *D gf180mcu_fd_sc_mcu7t5v0__clkinv_1
*I *1472:A1 I *D gf180mcu_fd_sc_mcu7t5v0__nor2_1
*I *1758:Q O *D gf180mcu_fd_sc_mcu7t5v0__dffq_1
*CAP
1 *1624:A1 0
2 *1390:A3 0.000415188
3 *1384:I 9.58613e-06
4 *1472:A1 0.000248031
5 *1758:Q 0.000368141
6 *372:29 0.000606558
7 *372:14 0.000443338
8 *372:12 0.000381665
9 *1472:A1 *453:100 0.000122313
10 *372:12 *1624:B2 0
11 *372:12 *453:100 1.5015e-05
12 *372:12 *453:119 2.41829e-05
13 *372:14 *453:100 6.73926e-05
14 *1390:A1 *1390:A3 9.19271e-05
15 *1390:A4 *1390:A3 0.00023439
16 *1467:A2 *1390:A3 0.000230244
17 *1468:B *1390:A3 3.73535e-05
18 *1471:A1 *1384:I 3.19219e-05
19 *1471:A1 *1472:A1 2.94989e-05
20 *1471:A1 *372:29 0.000187682
21 *1473:A1 *1384:I 0.000269848
22 *1473:A1 *372:29 0.0003062
23 *1473:A2 *1384:I 0.000333372
24 *1473:A2 *1390:A3 4.58601e-06
25 *1473:A2 *372:29 0.00020862
26 *1473:A3 *1390:A3 0.000111512
27 *1620:A1 *372:29 5.72229e-05
28 *1622:A1 *1472:A1 9.88736e-06
29 *1624:A2 *1472:A1 2.46304e-05
30 *1624:A2 *372:12 3.9868e-05
31 *1624:A2 *372:14 5.75052e-05
32 *1643:B *372:12 0.00034701
33 *1758:D *1472:A1 5.88975e-06
34 *160:14 *372:12 7.21171e-05
35 *165:41 *372:29 0.000163243
36 *216:14 *1472:A1 2.293e-05
37 *327:14 *372:12 9.55063e-05
38 *327:14 *372:29 1.94858e-05
39 *369:28 *1390:A3 0.000310754
40 *370:32 *1390:A3 0.000242967
41 *371:31 *1390:A3 1.97787e-05
*RES
1 *1758:Q *372:12 16.692 
2 *372:12 *372:14 0.38 
3 *372:14 *1472:A1 6.096 
4 *372:14 *372:29 7.16 
5 *372:29 *1384:I 9.836 
6 *372:29 *1390:A3 12.724 
7 *372:12 *1624:A1 4.5 
*END

*D_NET *373 0.00275606
*CONN
*I *1649:A1 I *D gf180mcu_fd_sc_mcu7t5v0__oai21_1
*I *1670:B2 I *D gf180mcu_fd_sc_mcu7t5v0__aoi22_1
*I *1735:Q O *D gf180mcu_fd_sc_mcu7t5v0__dffq_1
*CAP
1 *1649:A1 0.000153183
2 *1670:B2 0.000150099
3 *1735:Q 0
4 *373:4 0.000303282
5 *1649:A1 *389:13 0.000159053
6 *1649:A1 *405:21 0
7 *1422:B1 *1649:A1 0
8 *1422:B1 *1670:B2 7.83779e-05
9 *1423:I1 *1649:A1 0.000427398
10 *1423:I1 *1670:B2 8.55327e-05
11 *1650:B *1649:A1 8.07935e-05
12 *1676:A1 *1649:A1 0.000209085
13 *1676:A1 *1670:B2 0.000213735
14 *1677:I1 *1670:B2 0.000142194
15 *1680:A1 *1649:A1 0.000178195
16 *1680:A1 *1670:B2 0.000275969
17 *161:29 *1670:B2 0.00024691
18 *161:46 *1670:B2 5.22519e-05
*RES
1 *1735:Q *373:4 4.5 
2 *373:4 *1670:B2 6.704 
3 *373:4 *1649:A1 15.704 
*END

*D_NET *374 0.00511847
*CONN
*I *1674:B2 I *D gf180mcu_fd_sc_mcu7t5v0__oai221_1
*I *1651:A1 I *D gf180mcu_fd_sc_mcu7t5v0__nand2_1
*I *1515:A1 I *D gf180mcu_fd_sc_mcu7t5v0__xor2_1
*I *1736:Q O *D gf180mcu_fd_sc_mcu7t5v0__dffq_1
*CAP
1 *1674:B2 0.000209411
2 *1651:A1 4.57848e-05
3 *1515:A1 0.000985506
4 *1736:Q 0
5 *374:10 0.00127465
6 *374:4 0.000452775
7 *1515:A1 *1515:A2 0
8 *1515:A1 *1516:A1 1.5015e-05
9 *1515:A1 *1519:A1 0.000111992
10 *1515:A1 *1654:A1 7.3227e-05
11 *1515:A1 *1678:B2 7.95976e-05
12 *1515:A1 *375:10 0
13 *1515:A1 *477:44 3.95711e-05
14 *1674:B2 *1653:A1 0
15 *1674:B2 *1678:B2 0.000135795
16 *374:10 *1653:A1 0
17 *374:10 *1678:B2 0.000866343
18 *374:10 *477:44 0.000187673
19 *1521:A2 *1515:A1 0
20 *1521:A4 *1515:A1 0.000220291
21 *1654:A2 *1515:A1 0.000113759
22 *1655:A1 *374:10 2.23783e-05
23 *1665:A2 *1515:A1 3.16197e-05
24 *161:55 *1674:B2 2.17248e-05
25 *262:10 *1515:A1 0.000142175
26 *338:52 *1515:A1 9.59897e-06
27 *338:69 *1515:A1 4.58958e-05
28 *339:44 *1515:A1 2.1594e-05
29 *339:57 *374:10 1.20889e-05
*RES
1 *1736:Q *374:4 4.5 
2 *374:4 *374:10 7.084 
3 *374:10 *1515:A1 16.372 
4 *374:10 *1651:A1 9.228 
5 *374:4 *1674:B2 6.172 
*END

*D_NET *375 0.00508023
*CONN
*I *1520:A1 I *D gf180mcu_fd_sc_mcu7t5v0__xor2_1
*I *1678:B2 I *D gf180mcu_fd_sc_mcu7t5v0__oai221_1
*I *1654:A1 I *D gf180mcu_fd_sc_mcu7t5v0__oai21_1
*I *1737:Q O *D gf180mcu_fd_sc_mcu7t5v0__dffq_1
*CAP
1 *1520:A1 0.000153884
2 *1678:B2 0.000402949
3 *1654:A1 1.54128e-05
4 *1737:Q 0
5 *375:10 0.000729663
6 *375:4 0.000465185
7 *1520:A1 *1519:A1 0.000111199
8 *1520:A1 *1520:A2 0.000203989
9 *1520:A1 *1783:I 0
10 *1678:B2 *1653:A1 2.63488e-06
11 *1678:B2 *477:44 5.69633e-06
12 *375:10 *1519:A1 7.24161e-06
13 *375:10 *1783:I 0
14 *375:10 *477:10 0.000228432
15 *375:10 *477:44 6.04444e-06
16 *1515:A1 *1654:A1 7.3227e-05
17 *1515:A1 *1678:B2 7.95976e-05
18 *1515:A1 *375:10 0
19 *1654:A2 *375:10 0
20 *1655:A1 *1678:B2 0.000417777
21 *1655:A1 *375:10 0.000450253
22 *1674:B2 *1678:B2 0.000135795
23 *1678:B1 *1678:B2 3.30388e-05
24 *161:55 *1678:B2 0
25 *272:23 *375:10 1.22643e-05
26 *338:52 *1678:B2 0.000679598
27 *374:10 *1678:B2 0.000866343
*RES
1 *1737:Q *375:4 4.5 
2 *375:4 *375:10 7.54 
3 *375:10 *1654:A1 9.228 
4 *375:10 *1678:B2 14.548 
5 *375:4 *1520:A1 6.02 
*END

*D_NET *376 0.00838199
*CONN
*I *1517:A1 I *D gf180mcu_fd_sc_mcu7t5v0__xor2_1
*I *1682:B2 I *D gf180mcu_fd_sc_mcu7t5v0__oai221_1
*I *1656:A1 I *D gf180mcu_fd_sc_mcu7t5v0__nand2_1
*I *1738:Q O *D gf180mcu_fd_sc_mcu7t5v0__dffq_1
*CAP
1 *1517:A1 0.000516006
2 *1682:B2 0.00110529
3 *1656:A1 0
4 *1738:Q 0
5 *376:10 0.0013076
6 *376:4 0.000718312
7 *1517:A1 *1519:A2 6.12154e-05
8 *1517:A1 *1783:I 2.96621e-05
9 *1517:A1 *378:10 1.83741e-05
10 *1517:A1 *385:10 8.59214e-05
11 *1517:A1 *451:10 9.34764e-05
12 *1682:B2 *1420:B2 7.07352e-05
13 *1682:B2 *1424:A1 8.55242e-05
14 *1682:B2 *1424:B2 8.21884e-05
15 *1682:B2 *1428:B2 0.000630048
16 *1682:B2 *1452:A1 6.93287e-05
17 *1682:B2 *1659:A2 8.04139e-05
18 *1682:B2 *1659:B 7.45328e-07
19 *1682:B2 *1737:CLK 9.10695e-05
20 *1682:B2 *451:10 4.4998e-05
21 *1682:B2 *451:12 4.33265e-05
22 *376:10 *1424:B2 0.000546725
23 *376:10 *1519:A1 5.94709e-06
24 *376:10 *451:10 7.26363e-05
25 *1426:A1 *1682:B2 0.000239034
26 *1522:A4 *1517:A1 0
27 *1658:A2 *1682:B2 0.00017887
28 *1660:B *1682:B2 0.00010052
29 *1682:B1 *1682:B2 0.000699879
30 *1738:D *1682:B2 6.68441e-05
31 *173:47 *1682:B2 3.3239e-05
32 *262:10 *1517:A1 0.00130406
*RES
1 *1738:Q *376:4 4.5 
2 *376:4 *376:10 6.476 
3 *376:10 *1656:A1 9 
4 *376:10 *1682:B2 19.64 
5 *376:4 *1517:A1 18.972 
*END

*D_NET *377 0.00660096
*CONN
*I *1519:A1 I *D gf180mcu_fd_sc_mcu7t5v0__xor2_1
*I *1416:B2 I *D gf180mcu_fd_sc_mcu7t5v0__oai221_1
*I *1659:A1 I *D gf180mcu_fd_sc_mcu7t5v0__oai21_1
*I *1739:Q O *D gf180mcu_fd_sc_mcu7t5v0__dffq_1
*CAP
1 *1519:A1 0.000647209
2 *1416:B2 0.000268687
3 *1659:A1 0
4 *1739:Q 0
5 *377:10 0.000601786
6 *377:4 0.000980308
7 *1416:B2 *1428:B2 0.000832179
8 *1416:B2 *455:53 9.88736e-06
9 *1416:B2 *477:44 0.000378609
10 *1416:B2 *478:14 0
11 *1416:B2 *484:41 0.000153141
12 *1519:A1 *1519:A2 6.74908e-05
13 *1519:A1 *1737:CLK 0.000206325
14 *1519:A1 *451:10 0
15 *377:10 *1424:B2 0.000135851
16 *377:10 *1653:A1 0.000248663
17 *377:10 *477:44 0.000632712
18 *377:10 *478:14 0
19 *1515:A1 *1519:A1 0.000111992
20 *1520:A1 *1519:A1 0.000111199
21 *1521:A4 *1519:A1 0.000369746
22 *272:23 *1519:A1 0.000416347
23 *339:57 *377:10 0.00041564
24 *375:10 *1519:A1 7.24161e-06
25 *376:10 *1519:A1 5.94709e-06
*RES
1 *1739:Q *377:4 4.5 
2 *377:4 *377:10 8.148 
3 *377:10 *1659:A1 9 
4 *377:10 *1416:B2 12.192 
5 *377:4 *1519:A1 19.732 
*END

*D_NET *378 0.00967893
*CONN
*I *1516:A1 I *D gf180mcu_fd_sc_mcu7t5v0__xor2_1
*I *1420:B2 I *D gf180mcu_fd_sc_mcu7t5v0__aoi22_1
*I *1661:A1 I *D gf180mcu_fd_sc_mcu7t5v0__nand2_1
*I *1740:Q O *D gf180mcu_fd_sc_mcu7t5v0__dffq_1
*CAP
1 *1516:A1 0.000312712
2 *1420:B2 0.00105801
3 *1661:A1 0
4 *1740:Q 0
5 *378:10 0.00137081
6 *378:4 0.000625512
7 *1420:B2 *1415:A2 1.91183e-05
8 *1420:B2 *1420:A1 3.13603e-05
9 *1420:B2 *1424:B2 0.00135966
10 *1420:B2 *1452:A1 0.000882783
11 *1420:B2 *1653:A1 0
12 *1420:B2 *1659:B 0.000424388
13 *1420:B2 *464:73 0.000746647
14 *1420:B2 *464:75 0.000742679
15 *1516:A1 *1424:B2 2.22657e-05
16 *1516:A1 *1601:I0 0
17 *1516:A1 *464:58 0.000234429
18 *378:10 *1424:B2 0.000148889
19 *1415:A1 *1420:B2 2.17474e-05
20 *1420:B1 *1420:B2 3.08902e-05
21 *1426:A1 *1420:B2 0.000394647
22 *1427:I1 *1420:B2 0.000203975
23 *1515:A1 *1516:A1 1.5015e-05
24 *1517:A1 *378:10 1.83741e-05
25 *1522:A1 *1516:A1 0.000256732
26 *1522:A2 *1516:A1 0.000340241
27 *1522:A3 *1516:A1 1.91917e-06
28 *1522:A4 *1516:A1 3.43264e-05
29 *1522:A4 *378:10 3.23347e-05
30 *1665:A2 *378:10 0
31 *1676:A1 *1420:B2 0.000120373
32 *1682:B2 *1420:B2 7.07352e-05
33 *339:57 *1420:B2 1.10616e-05
34 *339:68 *1420:B2 0.000147309
*RES
1 *1740:Q *378:4 4.5 
2 *378:4 *378:10 6.932 
3 *378:10 *1661:A1 9 
4 *378:10 *1420:B2 21.616 
5 *378:4 *1516:A1 16.768 
*END

*D_NET *379 0.00899041
*CONN
*I *1514:A1 I *D gf180mcu_fd_sc_mcu7t5v0__xor2_1
*I *1665:A1 I *D gf180mcu_fd_sc_mcu7t5v0__oai21_1
*I *1424:B2 I *D gf180mcu_fd_sc_mcu7t5v0__oai221_1
*I *1741:Q O *D gf180mcu_fd_sc_mcu7t5v0__dffq_1
*CAP
1 *1514:A1 0
2 *1665:A1 5.247e-05
3 *1424:B2 0.00136632
4 *1741:Q 0.000331469
5 *379:16 0.00165824
6 *379:10 0.000570924
7 *1424:B2 *1518:A1 9.34764e-05
8 *1424:B2 *1653:A1 7.78863e-05
9 *1424:B2 *1663:A1 0.000196417
10 *1424:B2 *1674:A1 5.48455e-05
11 *1424:B2 *1737:CLK 0.000222721
12 *1424:B2 *464:58 0.0001088
13 *1424:B2 *467:86 0
14 *1665:A1 *1518:A2 0.000315892
15 *379:10 *1514:A2 0.000155868
16 *379:10 *1518:A2 0
17 *379:10 *1603:S 4.33001e-05
18 *379:10 *387:12 0.000147305
19 *379:16 *1514:A2 1.2018e-05
20 *379:16 *1516:A2 4.02664e-05
21 *379:16 *1518:A2 0
22 *379:16 *447:52 1.72008e-05
23 *379:16 *464:58 0
24 *379:16 *467:86 7.71074e-06
25 *1420:B2 *1424:B2 0.00135966
26 *1516:A1 *1424:B2 2.22657e-05
27 *1521:A2 *379:16 0.000204222
28 *1522:A1 *1665:A1 3.13605e-05
29 *1522:A1 *379:16 6.69323e-06
30 *1522:A3 *1424:B2 0
31 *1663:A2 *1424:B2 0.000143317
32 *1665:A2 *1665:A1 0.000488991
33 *1665:B *379:10 1.0115e-05
34 *1682:B2 *1424:B2 8.21884e-05
35 *1740:D *1424:B2 2.25107e-05
36 *339:57 *1424:B2 0.000120832
37 *339:68 *1424:B2 0.00016485
38 *339:75 *1424:B2 2.88187e-05
39 *376:10 *1424:B2 0.000546725
40 *377:10 *1424:B2 0.000135851
41 *378:10 *1424:B2 0.000148889
*RES
1 *1741:Q *379:10 7.008 
2 *379:10 *379:16 6.476 
3 *379:16 *1424:B2 31.604 
4 *379:16 *1665:A1 10.292 
5 *379:10 *1514:A1 4.5 
*END

*D_NET *380 0.00805498
*CONN
*I *1428:B2 I *D gf180mcu_fd_sc_mcu7t5v0__oai221_1
*I *1667:A1 I *D gf180mcu_fd_sc_mcu7t5v0__nand2_1
*I *1518:A1 I *D gf180mcu_fd_sc_mcu7t5v0__xor2_1
*I *1742:Q O *D gf180mcu_fd_sc_mcu7t5v0__dffq_1
*CAP
1 *1428:B2 0.00111416
2 *1667:A1 4.45566e-05
3 *1518:A1 0.000178538
4 *1742:Q 0
5 *380:25 0.00139714
6 *380:6 0.000416961
7 *1428:B2 *1424:A1 2.96621e-05
8 *1428:B2 *1657:A1 1.93526e-05
9 *1428:B2 *1662:A1 0.000339505
10 *1428:B2 *1668:A1 0.000157185
11 *1428:B2 *1668:A2 0.000238061
12 *1428:B2 *1740:CLK 0.000171203
13 *1428:B2 *1799:I 0.000317503
14 *1428:B2 *394:24 9.88736e-06
15 *1428:B2 *451:12 0
16 *1428:B2 *451:38 0
17 *1428:B2 *455:53 1.3758e-05
18 *1428:B2 *484:41 0.000361411
19 *1518:A1 *464:73 0
20 *1518:A1 *467:86 0.000155983
21 *1667:A1 *1662:A1 9.17202e-06
22 *380:25 *1662:A1 8.55327e-05
23 *380:25 *394:24 0
24 *380:25 *464:73 0
25 *380:25 *467:86 0.00015597
26 *1416:B2 *1428:B2 0.000832179
27 *1424:B2 *1518:A1 9.34764e-05
28 *1658:A3 *1428:B2 2.9412e-05
29 *1663:A3 *1667:A1 2.74753e-05
30 *1664:A2 *1518:A1 0
31 *1664:A2 *380:25 0
32 *1665:A2 *1518:A1 3.07734e-05
33 *1667:A2 *1667:A1 2.6126e-05
34 *1669:A2 *380:25 0.000255714
35 *1669:A3 *380:25 0.000111858
36 *1682:B1 *1428:B2 3.00299e-05
37 *1682:B2 *1428:B2 0.000630048
38 *1738:D *1428:B2 0.000255722
39 *1739:D *1428:B2 8.06117e-05
40 *1740:D *1428:B2 0.000111039
41 *1740:D *1667:A1 0.000142809
42 *1740:D *380:25 0
43 *173:47 *1428:B2 0.000182172
*RES
1 *1742:Q *380:6 9 
2 *380:6 *1518:A1 10.824 
3 *380:6 *380:25 11.584 
4 *380:25 *1667:A1 9.608 
5 *380:25 *1428:B2 21.692 
*END

*D_NET *381 0.0086717
*CONN
*I *1597:I1 I *D gf180mcu_fd_sc_mcu7t5v0__mux2_2
*I *1596:I0 I *D gf180mcu_fd_sc_mcu7t5v0__mux2_2
*I *1503:B2 I *D gf180mcu_fd_sc_mcu7t5v0__aoi221_1
*I *1544:A3 I *D gf180mcu_fd_sc_mcu7t5v0__nor3_1
*I *1566:A2 I *D gf180mcu_fd_sc_mcu7t5v0__nand4_1
*I *1705:Q O *D gf180mcu_fd_sc_mcu7t5v0__dffq_1
*CAP
1 *1597:I1 0
2 *1596:I0 0.00018208
3 *1503:B2 0
4 *1544:A3 0
5 *1566:A2 0.000276416
6 *1705:Q 0
7 *381:43 0.000418135
8 *381:14 0.00030057
9 *381:12 0.00100128
10 *381:4 0.00121318
11 *1566:A2 *1502:A2 6.66977e-05
12 *1566:A2 *1534:I0 0.000213194
13 *1566:A2 *412:91 2.6126e-05
14 *1566:A2 *487:22 0
15 *1596:I0 *1596:I1 1.85245e-05
16 *1596:I0 *1766:CLK 4.2318e-06
17 *1596:I0 *403:47 3.67292e-05
18 *1596:I0 *467:86 1.63527e-05
19 *381:12 *1534:I0 0.000299332
20 *381:12 *1707:CLK 0.000220697
21 *381:12 *402:16 0
22 *381:12 *407:29 2.96621e-05
23 *381:12 *407:37 4.8249e-05
24 *381:14 *1534:I0 0.000716571
25 *381:43 *1596:I1 0.00013771
26 *381:43 *1707:CLK 0.000192756
27 *1502:A1 *1566:A2 0.000353868
28 *1533:A2 *381:12 0
29 *1567:C *1566:A2 5.65586e-05
30 *1596:S *1596:I0 0.000301553
31 *1598:S *381:12 4.97386e-06
32 *1706:D *381:43 9.54497e-05
33 *1707:D *381:12 0.00026286
34 *140:20 *1596:I0 0.000324233
35 *239:10 *381:12 9.52854e-05
36 *239:10 *381:14 0.000408092
37 *239:14 *1566:A2 0.000197186
38 *239:14 *381:14 0.00034938
39 *242:6 *1566:A2 0
40 *269:36 *381:12 0.000668356
41 *316:8 *381:12 0
42 *316:23 *381:12 3.61686e-05
43 *316:23 *381:43 9.92525e-05
*RES
1 *1705:Q *381:4 4.5 
2 *381:4 *381:12 12.176 
3 *381:12 *381:14 1.9 
4 *381:14 *1566:A2 11.432 
5 *381:14 *1544:A3 9 
6 *381:12 *1503:B2 9 
7 *381:4 *381:43 2.584 
8 *381:43 *1596:I0 15.324 
9 *381:43 *1597:I1 4.5 
*END

*D_NET *382 0.00625221
*CONN
*I *1597:I0 I *D gf180mcu_fd_sc_mcu7t5v0__mux2_2
*I *1515:A2 I *D gf180mcu_fd_sc_mcu7t5v0__xor2_1
*I *1598:I1 I *D gf180mcu_fd_sc_mcu7t5v0__mux2_2
*I *1706:Q O *D gf180mcu_fd_sc_mcu7t5v0__dffq_1
*CAP
1 *1597:I0 8.6829e-05
2 *1515:A2 0.000886855
3 *1598:I1 5.1008e-05
4 *1706:Q 0
5 *382:12 0.0012216
6 *382:4 0.00037057
7 *1515:A2 *1600:I0 0.000135798
8 *1515:A2 *447:8 0.00110913
9 *1515:A2 *447:23 0.000580622
10 *1515:A2 *464:58 0
11 *1597:I0 *1795:I 9.26705e-05
12 *1597:I0 *403:47 9.93671e-05
13 *1598:I1 *447:8 0.000213194
14 *1598:I1 *464:58 0
15 *382:12 *1795:I 0.000187046
16 *1515:A1 *1515:A2 0
17 *1521:A2 *1515:A2 6.68265e-05
18 *262:10 *1515:A2 0
19 *316:23 *1597:I0 0.000119883
20 *316:23 *382:12 0.00103081
*RES
1 *1706:Q *382:4 4.5 
2 *382:4 *382:12 7.768 
3 *382:12 *1598:I1 9.532 
4 *382:12 *1515:A2 16.752 
5 *382:4 *1597:I0 5.64 
*END

*D_NET *383 0.00511713
*CONN
*I *1598:I0 I *D gf180mcu_fd_sc_mcu7t5v0__mux2_2
*I *1520:A2 I *D gf180mcu_fd_sc_mcu7t5v0__xor2_1
*I *1599:I1 I *D gf180mcu_fd_sc_mcu7t5v0__mux2_2
*I *1707:Q O *D gf180mcu_fd_sc_mcu7t5v0__dffq_1
*CAP
1 *1598:I0 0.000124773
2 *1520:A2 0.000830985
3 *1599:I1 5.12779e-05
4 *1707:Q 0.000111883
5 *383:10 0.00104236
6 *383:6 0.000396755
7 *1520:A2 *1519:A2 1.76629e-05
8 *1520:A2 *1783:I 1.45723e-05
9 *1520:A2 *384:10 0
10 *1520:A2 *385:10 6.31431e-05
11 *1598:I0 *447:8 0.000382331
12 *1599:I1 *1599:S 4.92411e-05
13 *383:6 *402:10 4.98138e-05
14 *383:10 *1599:S 0.000107732
15 *383:10 *402:10 0.000348614
16 *1520:A1 *1520:A2 0.000203989
17 *1709:D *383:6 0.000360235
18 *1709:D *383:10 0.000725285
19 *262:10 *1520:A2 0
20 *262:10 *1598:I0 6.86465e-05
21 *272:12 *1599:I1 0.000121492
22 *272:12 *383:10 4.63352e-05
23 *272:23 *1520:A2 0
*RES
1 *1707:Q *383:6 5.64 
2 *383:6 *383:10 2.736 
3 *383:10 *1599:I1 5.184 
4 *383:10 *1520:A2 18.516 
5 *383:6 *1598:I0 15.4 
*END

*D_NET *384 0.00223499
*CONN
*I *1517:A2 I *D gf180mcu_fd_sc_mcu7t5v0__xor2_1
*I *1600:I1 I *D gf180mcu_fd_sc_mcu7t5v0__mux2_2
*I *1599:I0 I *D gf180mcu_fd_sc_mcu7t5v0__mux2_2
*I *1708:Q O *D gf180mcu_fd_sc_mcu7t5v0__dffq_1
*CAP
1 *1517:A2 9.84103e-05
2 *1600:I1 0.000304777
3 *1599:I0 0.000314557
4 *1708:Q 0
5 *384:10 0.000703921
6 *384:4 0.000182997
7 *1599:I0 *1599:S 0.000118466
8 *1600:I1 *1599:S 7.98054e-05
9 *1600:I1 *1600:I0 4.02558e-05
10 *1600:I1 *447:23 3.82104e-05
11 *1520:A2 *384:10 0
12 *1709:D *1600:I1 1.10583e-05
13 *262:10 *384:10 0.000342528
*RES
1 *1708:Q *384:4 4.5 
2 *384:4 *384:10 9.836 
3 *384:10 *1599:I0 6.628 
4 *384:10 *1600:I1 6.552 
5 *384:4 *1517:A2 5.184 
*END

*D_NET *385 0.00434946
*CONN
*I *1519:A2 I *D gf180mcu_fd_sc_mcu7t5v0__xor2_1
*I *1601:I1 I *D gf180mcu_fd_sc_mcu7t5v0__mux2_2
*I *1600:I0 I *D gf180mcu_fd_sc_mcu7t5v0__mux2_2
*I *1709:Q O *D gf180mcu_fd_sc_mcu7t5v0__dffq_1
*CAP
1 *1519:A2 0.000167118
2 *1601:I1 0.000385992
3 *1600:I0 0.000337817
4 *1709:Q 0.000135998
5 *385:14 0.000888235
6 *385:10 0.000467542
7 *1600:I0 *1601:S 9.26705e-05
8 *1600:I0 *1783:I 0
9 *1600:I0 *389:164 0.000222725
10 *1600:I0 *447:23 0.000369754
11 *1601:I1 *1783:I 1.44832e-05
12 *1601:I1 *1784:I 0
13 *1601:I1 *389:164 0
14 *385:10 *1783:I 3.73535e-05
15 *385:14 *1783:I 5.13353e-05
16 *1515:A2 *1600:I0 0.000135798
17 *1517:A1 *1519:A2 6.12154e-05
18 *1517:A1 *385:10 8.59214e-05
19 *1519:A1 *1519:A2 6.74908e-05
20 *1520:A2 *1519:A2 1.76629e-05
21 *1520:A2 *385:10 6.31431e-05
22 *1521:A1 *1601:I1 0.000100985
23 *1521:A1 *385:14 8.49129e-05
24 *1521:A2 *1601:I1 0.000195891
25 *1521:A3 *1601:I1 6.03838e-05
26 *1521:A3 *385:14 5.18759e-05
27 *1521:A4 *385:14 0
28 *1600:I1 *1600:I0 4.02558e-05
29 *262:10 *1600:I0 0.000212895
*RES
1 *1709:Q *385:10 10.216 
2 *385:10 *385:14 5.944 
3 *385:14 *1600:I0 17.452 
4 *385:14 *1601:I1 7.616 
5 *385:10 *1519:A2 10.52 
*END

*D_NET *386 0.00321166
*CONN
*I *1602:I1 I *D gf180mcu_fd_sc_mcu7t5v0__mux2_2
*I *1516:A2 I *D gf180mcu_fd_sc_mcu7t5v0__xor2_1
*I *1601:I0 I *D gf180mcu_fd_sc_mcu7t5v0__mux2_2
*I *1710:Q O *D gf180mcu_fd_sc_mcu7t5v0__dffq_1
*CAP
1 *1602:I1 0.000157246
2 *1516:A2 7.44535e-05
3 *1601:I0 3.06512e-05
4 *1710:Q 0.000256336
5 *386:18 0.000192367
6 *386:12 0.000500845
7 *1516:A2 *464:58 6.61664e-05
8 *1601:I0 *447:52 9.88736e-06
9 *1602:I1 *1603:S 6.17803e-05
10 *1602:I1 *447:52 0.000484567
11 *386:12 *1601:S 1.75634e-05
12 *386:12 *464:58 0
13 *386:12 *467:86 6.88959e-05
14 *386:18 *447:52 0.000310356
15 *386:18 *464:58 4.63165e-05
16 *1516:A1 *1601:I0 0
17 *1521:A2 *1516:A2 1.54035e-05
18 *1521:A2 *1601:I0 1.44832e-05
19 *1521:A2 *1602:I1 5.22519e-05
20 *1521:A2 *386:12 8.15645e-05
21 *1521:A2 *386:18 0.00032883
22 *1710:D *386:12 0.000401427
23 *379:16 *1516:A2 4.02664e-05
*RES
1 *1710:Q *386:12 15.78 
2 *386:12 *386:18 5.868 
3 *386:18 *1601:I0 9.228 
4 *386:18 *1516:A2 9.836 
5 *386:12 *1602:I1 6.172 
*END

*D_NET *387 0.00310314
*CONN
*I *1603:I1 I *D gf180mcu_fd_sc_mcu7t5v0__mux2_2
*I *1602:I0 I *D gf180mcu_fd_sc_mcu7t5v0__mux2_2
*I *1514:A2 I *D gf180mcu_fd_sc_mcu7t5v0__xor2_1
*I *1711:Q O *D gf180mcu_fd_sc_mcu7t5v0__dffq_1
*CAP
1 *1603:I1 0.000427719
2 *1602:I0 0
3 *1514:A2 0.000105309
4 *1711:Q 0
5 *387:12 0.0002418
6 *387:4 0.000564211
7 *1514:A2 *1603:S 1.5015e-05
8 *1514:A2 *447:52 0.000193231
9 *1603:I1 *1603:I0 3.36123e-05
10 *387:12 *1603:S 3.25235e-05
11 *387:12 *467:86 7.06588e-05
12 *1711:D *387:12 0.000285856
13 *1712:D *1603:I1 4.6818e-05
14 *140:20 *387:12 0.000771193
15 *379:10 *1514:A2 0.000155868
16 *379:10 *387:12 0.000147305
17 *379:16 *1514:A2 1.2018e-05
*RES
1 *1711:Q *387:4 4.5 
2 *387:4 *387:12 11.28 
3 *387:12 *1514:A2 5.868 
4 *387:12 *1602:I0 4.5 
5 *387:4 *1603:I1 7.236 
*END

*D_NET *388 0.00229717
*CONN
*I *1603:I0 I *D gf180mcu_fd_sc_mcu7t5v0__mux2_2
*I *1518:A2 I *D gf180mcu_fd_sc_mcu7t5v0__xor2_1
*I *1712:Q O *D gf180mcu_fd_sc_mcu7t5v0__dffq_1
*CAP
1 *1603:I0 0.000146451
2 *1518:A2 0.000633834
3 *1712:Q 0
4 *388:4 0.000780285
5 *1518:A2 *1603:S 0
6 *1603:I0 *1603:S 7.02034e-05
7 *1603:I1 *1603:I0 3.36123e-05
8 *1665:A1 *1518:A2 0.000315892
9 *1665:B *1518:A2 4.27813e-05
10 *1669:A1 *1518:A2 4.51089e-05
11 *1741:D *1518:A2 0
12 *140:20 *1518:A2 0.000229002
13 *379:10 *1518:A2 0
14 *379:16 *1518:A2 0
*RES
1 *1712:Q *388:4 4.5 
2 *388:4 *1518:A2 18.364 
3 *388:4 *1603:I0 5.64 
*END

*D_NET *389 0.0478727
*CONN
*I *1775:I I *D gf180mcu_fd_sc_mcu7t5v0__clkbuf_8
*I *1782:I I *D gf180mcu_fd_sc_mcu7t5v0__clkbuf_8
*I *1774:I I *D gf180mcu_fd_sc_mcu7t5v0__clkbuf_8
*I *1777:I I *D gf180mcu_fd_sc_mcu7t5v0__clkbuf_8
*I *1772:I I *D gf180mcu_fd_sc_mcu7t5v0__clkbuf_8
*I *1784:I I *D gf180mcu_fd_sc_mcu7t5v0__clkbuf_8
*I *1781:I I *D gf180mcu_fd_sc_mcu7t5v0__clkbuf_8
*I *1776:I I *D gf180mcu_fd_sc_mcu7t5v0__clkbuf_8
*I *1786:I I *D gf180mcu_fd_sc_mcu7t5v0__clkbuf_8
*I *1785:I I *D gf180mcu_fd_sc_mcu7t5v0__clkbuf_8
*I *1773:I I *D gf180mcu_fd_sc_mcu7t5v0__clkbuf_8
*I *1783:I I *D gf180mcu_fd_sc_mcu7t5v0__clkbuf_8
*I *1780:I I *D gf180mcu_fd_sc_mcu7t5v0__clkbuf_8
*I *1779:I I *D gf180mcu_fd_sc_mcu7t5v0__clkbuf_8
*I *1771:I I *D gf180mcu_fd_sc_mcu7t5v0__clkbuf_8
*I *1778:I I *D gf180mcu_fd_sc_mcu7t5v0__clkbuf_8
*I *1770:Z O *D gf180mcu_fd_sc_mcu7t5v0__clkbuf_16
*CAP
1 *1775:I 0.00075032
2 *1782:I 0.000354344
3 *1774:I 0.0013629
4 *1777:I 0
5 *1772:I 0.000824573
6 *1784:I 3.45101e-05
7 *1781:I 0.00200304
8 *1776:I 0.00195164
9 *1786:I 3.24207e-05
10 *1785:I 0
11 *1773:I 0.0015152
12 *1783:I 0.00224547
13 *1780:I 0
14 *1779:I 0.000471868
15 *1771:I 0
16 *1778:I 0.000526997
17 *1770:Z 0.000145947
18 *389:242 0.00168265
19 *389:164 0.00196169
20 *389:115 0.00145604
21 *389:105 0.00143826
22 *389:87 0.00191305
23 *389:31 0.00132444
24 *389:29 0.00192259
25 *389:23 0.00154979
26 *389:13 0.00349757
27 *389:7 0.00117109
28 *1772:I *1618:B2 0.00026592
29 *1772:I *1718:CLK 3.46753e-05
30 *1772:I *1722:CLK 0.000167061
31 *1772:I *1840:I 5.71067e-05
32 *1772:I *427:12 2.07689e-05
33 *1772:I *453:16 0.00018206
34 *1772:I *466:57 0
35 *1773:I *1460:A1 0.000161264
36 *1774:I *1539:I0 0
37 *1774:I *1633:A1 9.38804e-05
38 *1774:I *1635:A1 0.000102985
39 *1774:I *395:31 0
40 *1775:I *1541:S 0.000340826
41 *1775:I *468:59 0
42 *1775:I *468:70 1.6967e-05
43 *1775:I *468:74 2.62943e-06
44 *1775:I *482:31 2.16837e-05
45 *1775:I *482:39 2.11204e-05
46 *1775:I *483:14 0
47 *1775:I *483:24 0.00014395
48 *1775:I *483:55 0
49 *1776:I *1420:A1 0.000146949
50 *1776:I *1421:A2 0.00029232
51 *1776:I *1429:A2 0.000378363
52 *1776:I *1464:A1 6.00933e-05
53 *1776:I *1627:A1 5.95125e-05
54 *1776:I *1627:A2 9.27021e-05
55 *1776:I *1629:A2 9.7011e-05
56 *1776:I *1725:CLK 8.08442e-05
57 *1776:I *1807:I 3.71904e-05
58 *1776:I *395:14 2.96621e-05
59 *1776:I *417:67 1.33998e-05
60 *1778:I *1703:CLK 0
61 *1779:I *1380:I 0.00015551
62 *1779:I *1480:B3 2.57058e-06
63 *1779:I *476:34 6.63182e-06
64 *1779:I *503:12 0.000107858
65 *1781:I *1601:S 8.76905e-05
66 *1781:I *400:46 0.00019685
67 *1781:I *400:59 0.000134655
68 *1781:I *464:10 0.000373378
69 *1781:I *464:16 0.000133397
70 *1781:I *464:58 0.000668686
71 *1781:I *467:86 0
72 *1781:I *467:92 7.588e-05
73 *1782:I *1488:A1 0
74 *1783:I *1427:I0 0.00011703
75 *1783:I *1509:I1 0.000347613
76 *1783:I *1509:S1 0
77 *1783:I *1534:I1 0
78 *1783:I *477:6 0
79 *389:13 *1735:CLK 0
80 *389:13 *405:21 0
81 *389:13 *492:12 3.44857e-06
82 *389:23 *1509:S1 0.000328218
83 *389:23 *1511:I3 1.9372e-05
84 *389:23 *1673:I0 0.000103814
85 *389:23 *1673:S 5.35195e-05
86 *389:23 *1745:CLK 0
87 *389:23 *414:70 0.000166393
88 *389:23 *446:29 3.55257e-06
89 *389:23 *492:12 5.1412e-05
90 *389:23 *494:10 2.93184e-05
91 *389:29 *1745:CLK 0
92 *389:29 *502:50 1.27925e-05
93 *389:87 *1415:A2 0.000431231
94 *389:87 *1420:A1 7.93741e-05
95 *389:87 *479:20 0
96 *389:105 *1469:A1 0.000110782
97 *389:105 *1682:A1 7.2104e-05
98 *389:105 *1796:I 2.22758e-05
99 *389:105 *405:19 0.000166561
100 *389:105 *405:21 3.50003e-05
101 *389:105 *405:41 2.03856e-05
102 *389:115 *1755:CLK 0.000295968
103 *389:115 *1796:I 0
104 *389:115 *404:34 4.25064e-05
105 *389:164 *1601:S 3.41282e-05
106 *389:242 *1629:A2 0.000119195
107 *389:242 *1631:A2 2.85944e-05
108 *389:242 *1846:I 0
109 *389:242 *1847:I 0
110 *389:242 *395:14 0.00014082
111 *389:242 *395:18 4.19873e-05
112 *389:242 *454:25 0.000637893
113 DAT_O[4] *389:242 8.50315e-05
114 *1397:A2 *1779:I 8.99289e-05
115 *1414:A2 *1773:I 5.22822e-05
116 *1414:A2 *1786:I 3.02841e-05
117 *1414:A2 *389:105 0
118 *1414:A2 *389:115 0.000300952
119 *1418:A2 *1776:I 0
120 *1422:A2 *389:87 0
121 *1423:I1 *389:13 0.000447437
122 *1423:I1 *389:23 0.000288463
123 *1423:I1 *389:87 2.42531e-05
124 *1427:I1 *1783:I 0
125 *1430:A2 *1776:I 0.00115289
126 *1431:I1 *389:87 0.000703343
127 *1436:I *1773:I 0.000170883
128 *1436:I *389:115 0.000104697
129 *1459:A2 *1773:I 1.44832e-05
130 *1459:A2 *389:115 4.05323e-05
131 *1462:B2 *389:115 0
132 *1466:A2 *1776:I 0.0001908
133 *1469:A2 *389:23 0
134 *1469:A2 *389:105 3.59666e-05
135 *1474:A2 *1773:I 6.73834e-05
136 *1476:A1 *389:29 4.97352e-05
137 *1477:A2 *389:29 1.48331e-05
138 *1510:A2 *389:23 9.82987e-06
139 *1513:A2 *389:23 0.000376793
140 *1517:A1 *1783:I 2.96621e-05
141 *1520:A1 *1783:I 0
142 *1520:A2 *1783:I 1.45723e-05
143 *1521:A1 *1783:I 0.000140853
144 *1556:I0 *1778:I 0.000252545
145 *1556:I0 *389:31 5.39035e-05
146 *1560:A2 *1778:I 2.69769e-05
147 *1600:I0 *1783:I 0
148 *1600:I0 *389:164 0.000222725
149 *1601:I1 *1783:I 1.44832e-05
150 *1601:I1 *1784:I 0
151 *1601:I1 *389:164 0
152 *1619:A2 *1772:I 2.44284e-05
153 *1620:A1 *1772:I 0.000299553
154 *1623:A2 *1772:I 1.58153e-05
155 *1623:A2 *1773:I 0.000122184
156 *1627:B1 *1776:I 4.09822e-06
157 *1630:A2 *1776:I 1.29151e-05
158 *1638:A2 *1775:I 9.83828e-05
159 *1649:A1 *389:13 0.000159053
160 *1650:B *389:13 6.83992e-06
161 *1672:B1 *389:105 0
162 *1680:A1 *389:7 7.80825e-05
163 *1680:A1 *389:13 0.000168784
164 *1680:A2 *389:105 0.000248913
165 *1684:A1 *389:105 3.62081e-05
166 *1684:A2 *1776:I 0
167 *1684:A2 *389:105 8.34204e-05
168 *1691:D *1774:I 0
169 *1692:D *1775:I 6.56573e-05
170 *1693:D *1775:I 1.94199e-05
171 *1700:D *1782:I 0.000159061
172 *1706:D *1781:I 0
173 *1710:D *1781:I 7.04427e-05
174 *1718:D *1772:I 8.82709e-06
175 *1722:D *1772:I 0.000363338
176 *1722:D *1773:I 0.000138537
177 *1723:D *1772:I 0
178 *1726:D *1776:I 6.56979e-06
179 *1726:D *389:242 0.000239651
180 *1728:D *1774:I 2.72748e-05
181 *1735:D *389:13 0.00015539
182 *1745:D *389:23 8.40958e-05
183 *1750:D *1783:I 0
184 *1755:D *389:115 0
185 *1758:D *1773:I 6.73834e-05
186 *140:12 *1781:I 0
187 *147:10 *1779:I 0
188 *147:10 *389:29 0
189 *148:12 *1773:I 0.000260611
190 *154:10 *389:29 2.90201e-05
191 *154:10 *389:31 0.000164456
192 *160:14 *1773:I 0
193 *162:29 *389:23 0
194 *162:29 *389:29 0
195 *165:41 *389:115 0.000150178
196 *173:12 *389:7 8.94355e-05
197 *188:18 *1779:I 0
198 *188:18 *389:29 0.00017448
199 *189:17 *389:115 4.38336e-05
200 *190:8 *1773:I 3.94333e-05
201 *208:31 *1773:I 0.000346641
202 *216:14 *1773:I 2.59409e-05
203 *228:8 *1782:I 0
204 *338:39 *389:7 2.09843e-07
205 *338:39 *389:13 1.29838e-05
206 *338:52 *389:7 3.16774e-05
207 *339:22 *389:13 0.000128512
208 *375:10 *1783:I 0
209 *385:10 *1783:I 3.73535e-05
210 *385:14 *1783:I 5.13353e-05
*RES
1 *1770:Z *389:7 5.792 
2 *389:7 *389:13 10.732 
3 *389:13 *389:23 13.468 
4 *389:23 *389:29 9.212 
5 *389:29 *389:31 5.852 
6 *389:31 *1778:I 13.256 
7 *389:31 *1771:I 9 
8 *389:29 *1779:I 12.268 
9 *389:23 *1780:I 4.5 
10 *389:13 *1783:I 21.768 
11 *389:7 *389:87 8.832 
12 *389:87 *389:105 27.82 
13 *389:105 *389:115 15.004 
14 *389:115 *1773:I 20.416 
15 *389:115 *1785:I 4.5 
16 *389:105 *1786:I 4.88 
17 *389:87 *1776:I 19.184 
18 *1783:I *389:164 6.552 
19 *389:164 *1781:I 27.408 
20 *389:164 *1784:I 4.728 
21 *1773:I *1772:I 25.6 
22 *1776:I *389:242 13.544 
23 *389:242 *1777:I 4.5 
24 *389:242 *1774:I 17.68 
25 *1781:I *1782:I 11.204 
26 *1774:I *1775:I 14.852 
*END

*D_NET *390 0.00613708
*CONN
*I *1695:CLK I *D gf180mcu_fd_sc_mcu7t5v0__dffq_1
*I *1760:CLK I *D gf180mcu_fd_sc_mcu7t5v0__dffq_1
*I *1759:CLK I *D gf180mcu_fd_sc_mcu7t5v0__dffq_1
*I *1698:CLK I *D gf180mcu_fd_sc_mcu7t5v0__dffq_1
*I *1703:CLK I *D gf180mcu_fd_sc_mcu7t5v0__dffq_1
*I *1696:CLK I *D gf180mcu_fd_sc_mcu7t5v0__dffq_1
*I *1771:Z O *D gf180mcu_fd_sc_mcu7t5v0__clkbuf_8
*CAP
1 *1695:CLK 0.000126117
2 *1760:CLK 0.000677372
3 *1759:CLK 0.000190315
4 *1698:CLK 0
5 *1703:CLK 0.000534343
6 *1696:CLK 0
7 *1771:Z 0.000638398
8 *390:18 0.000773367
9 *390:12 0.000362985
10 *390:10 0.000505364
11 *390:8 0.00138074
12 *1760:CLK *1556:I1 0
13 *390:8 *1556:I1 1.54542e-05
14 *390:10 *1556:I1 0
15 *390:18 *1366:I 1.95806e-05
16 *1553:A2 *1695:CLK 0
17 *1553:B *1695:CLK 5.91493e-05
18 *1556:I0 *390:8 7.83779e-05
19 *1556:S *390:8 9.19382e-05
20 *1696:D *1703:CLK 0
21 *1698:D *390:18 0.000255714
22 *1759:D *1760:CLK 0
23 *1759:D *390:10 0
24 *1760:D *1760:CLK 0
25 *1778:I *1703:CLK 0
26 *127:10 *1703:CLK 0.000214408
27 *127:10 *390:18 4.50449e-05
28 *270:40 *1703:CLK 0.000168417
29 *279:14 *1695:CLK 0
*RES
1 *1771:Z *390:8 12.42 
2 *390:8 *390:10 1.292 
3 *390:10 *390:12 0.836 
4 *390:12 *390:18 6.476 
5 *390:18 *1696:CLK 4.5 
6 *390:18 *1703:CLK 8.452 
7 *390:12 *1698:CLK 9 
8 *390:10 *1759:CLK 10.14 
9 *390:8 *1760:CLK 12.952 
10 *1771:Z *1695:CLK 10.292 
*END

*D_NET *391 0.0124612
*CONN
*I *1721:CLK I *D gf180mcu_fd_sc_mcu7t5v0__dffq_1
*I *1720:CLK I *D gf180mcu_fd_sc_mcu7t5v0__dffq_1
*I *1718:CLK I *D gf180mcu_fd_sc_mcu7t5v0__dffq_1
*I *1719:CLK I *D gf180mcu_fd_sc_mcu7t5v0__dffq_1
*I *1797:I I *D gf180mcu_fd_sc_mcu7t5v0__clkbuf_2
*I *1717:CLK I *D gf180mcu_fd_sc_mcu7t5v0__dffq_1
*I *1772:Z O *D gf180mcu_fd_sc_mcu7t5v0__clkbuf_8
*CAP
1 *1721:CLK 3.44639e-05
2 *1720:CLK 4.12691e-05
3 *1718:CLK 0.000298016
4 *1719:CLK 0.000625278
5 *1797:I 0.000288919
6 *1717:CLK 0.00028564
7 *1772:Z 0.000136013
8 *391:59 0.000406197
9 *391:44 0.000764493
10 *391:15 0.000992464
11 *391:4 0.000363909
12 *1717:CLK *1808:I 0.00014957
13 *1717:CLK *465:12 0.000148542
14 *1718:CLK *1805:I 0.000109319
15 *1718:CLK *1838:I 1.52691e-05
16 *1718:CLK *424:10 1.52691e-05
17 *1719:CLK *1612:B2 9.20629e-05
18 *1719:CLK *422:8 0.000417123
19 *1719:CLK *468:6 1.53727e-05
20 *1797:I *1612:B2 0.000340961
21 *1797:I *1623:A1 7.3227e-05
22 *1797:I *466:10 0.000340501
23 *1797:I *468:38 3.20245e-05
24 *1797:I *468:101 0.000109233
25 *391:15 *1805:I 0.000230115
26 *391:15 *468:101 5.31158e-05
27 *391:44 *1805:I 6.26153e-05
28 *391:44 *1840:I 7.69927e-05
29 *391:44 *453:16 2.71882e-05
30 *391:59 *1620:B2 4.47565e-05
31 *391:59 *426:12 0.000322519
32 *391:59 *453:16 0.000507951
33 ADDR_O[0] *1719:CLK 0
34 ADDR_O[1] *1717:CLK 5.14116e-06
35 ADDR_O[4] *1720:CLK 2.6126e-05
36 ADDR_O[4] *1721:CLK 0.000210388
37 ADDR_O[5] *1720:CLK 0.000496496
38 ADDR_O[5] *1721:CLK 0.000355781
39 *1458:A1 *1797:I 2.43737e-05
40 *1613:A2 *1797:I 5.4883e-05
41 *1615:A2 *1719:CLK 8.74769e-05
42 *1619:A2 *1718:CLK 0.00131208
43 *1718:D *1718:CLK 0
44 *1718:D *1797:I 0.000262996
45 *1718:D *391:15 0.000689391
46 *1719:D *1717:CLK 7.59678e-05
47 *1719:D *1719:CLK 1.43742e-05
48 *1754:D *1797:I 0.000484575
49 *1772:I *1718:CLK 3.46753e-05
50 *1800:I *1720:CLK 0.000215259
51 *1800:I *1721:CLK 5.73075e-05
52 *1812:I *391:44 0
53 *208:16 *1797:I 0.000321941
54 *208:23 *1797:I 0.000290401
55 *368:10 *1797:I 2.11901e-05
*RES
1 *1772:Z *391:4 4.5 
2 *391:4 *1717:CLK 6.856 
3 *391:4 *391:15 6.248 
4 *391:15 *1797:I 13.56 
5 *391:15 *1719:CLK 13.484 
6 *1772:Z *391:44 10.14 
7 *391:44 *1718:CLK 12.648 
8 *391:44 *391:59 7.768 
9 *391:59 *1720:CLK 5.792 
10 *391:59 *1721:CLK 5.488 
*END

*D_NET *392 0.00905293
*CONN
*I *1798:I I *D gf180mcu_fd_sc_mcu7t5v0__clkbuf_2
*I *1725:CLK I *D gf180mcu_fd_sc_mcu7t5v0__dffq_1
*I *1733:CLK I *D gf180mcu_fd_sc_mcu7t5v0__dffq_1
*I *1723:CLK I *D gf180mcu_fd_sc_mcu7t5v0__dffq_1
*I *1722:CLK I *D gf180mcu_fd_sc_mcu7t5v0__dffq_1
*I *1754:CLK I *D gf180mcu_fd_sc_mcu7t5v0__dffq_1
*I *1773:Z O *D gf180mcu_fd_sc_mcu7t5v0__clkbuf_8
*CAP
1 *1798:I 4.3163e-05
2 *1725:CLK 0.000369711
3 *1733:CLK 0
4 *1723:CLK 0
5 *1722:CLK 9.70907e-05
6 *1754:CLK 0.000143842
7 *1773:Z 0.000143842
8 *392:48 0.000540595
9 *392:44 0.000666577
10 *392:29 0.000616376
11 *392:18 0.000260937
12 *1722:CLK *1618:B2 1.02578e-05
13 *1725:CLK *1429:A1 2.49387e-05
14 *1725:CLK *1429:A2 1.34535e-05
15 *1725:CLK *1683:A1 2.05506e-05
16 *1754:CLK *1618:B2 0.000431543
17 *1754:CLK *453:86 0.000541725
18 *1754:CLK *453:93 0.000358632
19 *1798:I *466:97 1.72912e-05
20 *392:29 *1842:I 4.58601e-06
21 *392:29 *427:12 1.3758e-05
22 *392:29 *453:93 4.1381e-05
23 *392:44 *1675:A1 9.17202e-06
24 *392:44 *1675:A2 0.000678697
25 *392:44 *1679:A2 0.000190505
26 *392:44 *1724:CLK 0.000351431
27 *392:44 *1842:I 7.28466e-05
28 *392:44 *466:97 0.000291622
29 *392:48 *1643:A1 0.00031512
30 *392:48 *466:97 0.000159979
31 *1418:A2 *1725:CLK 4.02289e-06
32 *1620:A1 *1722:CLK 1.26013e-05
33 *1620:A1 *392:29 6.42313e-05
34 *1620:A1 *392:44 0.000160897
35 *1630:A2 *1725:CLK 1.02578e-05
36 *1643:B *1798:I 3.91978e-05
37 *1643:B *392:44 1.2018e-05
38 *1643:B *392:48 4.32846e-06
39 *1644:A2 *392:48 0.000246194
40 *1675:A3 *392:44 0.00013063
41 *1683:A3 *1725:CLK 0
42 *1772:I *1722:CLK 0.000167061
43 *1776:I *1725:CLK 8.08442e-05
44 *160:14 *392:44 1.53689e-05
45 *160:42 *1725:CLK 0.000504097
46 *160:42 *392:48 2.30624e-05
47 *160:51 *1725:CLK 0.000292098
48 *370:16 *1725:CLK 0.000665887
49 *371:12 *1725:CLK 1.53689e-05
50 *371:12 *392:44 4.76243e-05
51 *371:12 *392:48 0.000127516
*RES
1 *1773:Z *1754:CLK 11.736 
2 *1773:Z *392:18 4.5 
3 *392:18 *1722:CLK 5.792 
4 *392:18 *392:29 1.216 
5 *392:29 *1723:CLK 4.5 
6 *392:29 *392:44 14.396 
7 *392:44 *392:48 2.28 
8 *392:48 *1733:CLK 4.5 
9 *392:48 *1725:CLK 8.832 
10 *392:44 *1798:I 4.956 
*END

*D_NET *393 0.00650778
*CONN
*I *1738:CLK I *D gf180mcu_fd_sc_mcu7t5v0__dffq_1
*I *1691:CLK I *D gf180mcu_fd_sc_mcu7t5v0__dffq_1
*I *1688:CLK I *D gf180mcu_fd_sc_mcu7t5v0__dffq_1
*I *1739:CLK I *D gf180mcu_fd_sc_mcu7t5v0__dffq_1
*I *1799:I I *D gf180mcu_fd_sc_mcu7t5v0__clkbuf_2
*I *1737:CLK I *D gf180mcu_fd_sc_mcu7t5v0__dffq_1
*I *1774:Z O *D gf180mcu_fd_sc_mcu7t5v0__clkbuf_8
*CAP
1 *1738:CLK 0
2 *1691:CLK 0
3 *1688:CLK 0.000326993
4 *1739:CLK 0
5 *1799:I 4.97007e-05
6 *1737:CLK 0.000311035
7 *1774:Z 0.000118406
8 *393:43 0.000488638
9 *393:34 0.000266606
10 *393:12 0.000464649
11 *393:10 0.000406775
12 *393:6 0.000316307
13 *1688:CLK *477:44 0.000107215
14 *1688:CLK *480:10 9.27168e-05
15 *1688:CLK *481:14 0.000130588
16 *1688:CLK *482:39 0.000665973
17 *1688:CLK *483:24 0
18 *1799:I *484:41 8.73421e-05
19 *393:6 *1657:A1 0
20 *393:6 *468:59 0
21 *393:6 *484:41 0.000470343
22 *393:10 *1657:A1 0
23 *393:10 *480:6 0
24 *393:10 *480:10 0
25 *393:10 *484:41 0.000858374
26 *393:43 *480:10 0.000190667
27 *393:43 *481:14 1.20079e-05
28 *393:43 *484:41 0
29 *1424:B2 *1737:CLK 0.000222721
30 *1428:B2 *1799:I 0.000317503
31 *1519:A1 *1737:CLK 0.000206325
32 *1682:B2 *1737:CLK 9.10695e-05
33 *1688:D *1688:CLK 0
34 *1738:D *1737:CLK 0
35 *272:23 *1737:CLK 0.000195997
36 *272:23 *393:12 4.36613e-05
37 *272:23 *393:34 6.61664e-05
*RES
1 *1774:Z *393:6 5.792 
2 *393:6 *393:10 6.704 
3 *393:10 *393:12 0.684 
4 *393:12 *1737:CLK 12.116 
5 *393:12 *1799:I 9.836 
6 *393:10 *393:34 5.336 
7 *393:34 *1739:CLK 4.5 
8 *393:34 *393:43 1.368 
9 *393:43 *1688:CLK 16.768 
10 *393:43 *1691:CLK 4.5 
11 *393:6 *1738:CLK 4.5 
*END

*D_NET *394 0.00408945
*CONN
*I *1693:CLK I *D gf180mcu_fd_sc_mcu7t5v0__dffq_1
*I *1742:CLK I *D gf180mcu_fd_sc_mcu7t5v0__dffq_1
*I *1694:CLK I *D gf180mcu_fd_sc_mcu7t5v0__dffq_1
*I *1740:CLK I *D gf180mcu_fd_sc_mcu7t5v0__dffq_1
*I *1789:I I *D gf180mcu_fd_sc_mcu7t5v0__clkbuf_2
*I *1741:CLK I *D gf180mcu_fd_sc_mcu7t5v0__dffq_1
*I *1775:Z O *D gf180mcu_fd_sc_mcu7t5v0__clkbuf_8
*CAP
1 *1693:CLK 0.000153466
2 *1742:CLK 0.000140562
3 *1694:CLK 0.000174148
4 *1740:CLK 0.00010822
5 *1789:I 0
6 *1741:CLK 0.00020239
7 *1775:Z 0.000875665
8 *394:57 0.00038304
9 *394:24 0.000518335
10 *1693:CLK *1664:A1 0
11 *1693:CLK *467:86 9.11446e-05
12 *1694:CLK *484:18 0
13 *1740:CLK *484:18 0
14 *1740:CLK *484:41 0.000171918
15 *1741:CLK *1664:A1 0.000340927
16 *1742:CLK *484:18 8.45159e-05
17 *394:57 *484:18 7.57844e-05
18 *1428:B2 *1740:CLK 0.000171203
19 *1428:B2 *394:24 9.88736e-06
20 *1669:A1 *1741:CLK 3.62154e-05
21 *1669:A3 *394:24 5.22822e-05
22 *1694:D *1694:CLK 0
23 *1742:D *1741:CLK 3.86561e-05
24 *1742:D *1742:CLK 2.63817e-05
25 *1742:D *394:24 0.000432306
26 *1742:D *394:57 2.40328e-06
27 *380:25 *394:24 0
*RES
1 *1775:Z *1741:CLK 20.584 
2 *1775:Z *394:24 7.616 
3 *394:24 *1789:I 4.5 
4 *394:24 *1740:CLK 5.868 
5 *1775:Z *1694:CLK 9.988 
6 *1775:Z *394:57 5.488 
7 *394:57 *1742:CLK 5.64 
8 *394:57 *1693:CLK 14.64 
*END

*D_NET *395 0.0093637
*CONN
*I *1726:CLK I *D gf180mcu_fd_sc_mcu7t5v0__dffq_1
*I *1728:CLK I *D gf180mcu_fd_sc_mcu7t5v0__dffq_1
*I *1729:CLK I *D gf180mcu_fd_sc_mcu7t5v0__dffq_1
*I *1790:I I *D gf180mcu_fd_sc_mcu7t5v0__clkbuf_2
*I *1690:CLK I *D gf180mcu_fd_sc_mcu7t5v0__dffq_1
*I *1727:CLK I *D gf180mcu_fd_sc_mcu7t5v0__dffq_1
*I *1776:Z O *D gf180mcu_fd_sc_mcu7t5v0__clkbuf_8
*CAP
1 *1726:CLK 0
2 *1728:CLK 0
3 *1729:CLK 0.000537464
4 *1790:I 0
5 *1690:CLK 0.000142349
6 *1727:CLK 0
7 *1776:Z 0.000372819
8 *395:31 0.000326358
9 *395:27 0.000721474
10 *395:25 7.08301e-05
11 *395:18 0.000310241
12 *395:14 0.00061223
13 *1690:CLK *1538:S 9.67157e-05
14 *1690:CLK *1633:B2 3.08902e-05
15 *1690:CLK *458:19 0.000136871
16 *1729:CLK *434:10 0.000659607
17 *395:14 *1425:A2 0.000615527
18 *395:14 *1429:A2 7.67087e-05
19 *395:14 *1627:A1 0.000167321
20 *395:14 *1627:B2 4.45157e-06
21 *395:14 *1629:A2 6.48431e-05
22 *395:14 *1629:B2 8.55242e-05
23 *395:14 *453:119 6.04444e-06
24 *395:18 *1627:B2 8.02751e-06
25 *395:18 *1631:A2 1.52691e-05
26 *395:18 *1631:B2 0.000429161
27 *395:18 *454:25 0.00031512
28 *395:18 *458:6 1.03097e-05
29 *395:18 *458:19 7.54771e-06
30 *395:25 *1631:B2 5.4634e-05
31 *395:25 *1849:I 0.000502835
32 *395:25 *454:25 0.000858365
33 *395:25 *458:19 1.66121e-06
34 *395:25 *467:65 3.56172e-05
35 DAT_O[2] *1729:CLK 0.000494095
36 DAT_O[3] *1729:CLK 0.0001626
37 DAT_O[4] *1729:CLK 0.000240559
38 DAT_O[5] *1729:CLK 3.08902e-05
39 *1629:B1 *395:14 0.000134636
40 *1630:A2 *395:14 3.01945e-05
41 *1728:D *1729:CLK 0.000451288
42 *1728:D *395:31 0.000206325
43 *1774:I *395:31 0
44 *1776:I *395:14 2.96621e-05
45 *1833:I *395:14 0.000108813
46 *1833:I *395:18 1.5015e-05
47 *389:242 *395:14 0.00014082
48 *389:242 *395:18 4.19873e-05
*RES
1 *1776:Z *395:14 17.832 
2 *395:14 *395:18 2.432 
3 *395:18 *1727:CLK 4.5 
4 *395:18 *395:25 2.204 
5 *395:25 *395:27 4.5 
6 *395:27 *395:31 5.64 
7 *395:31 *1690:CLK 6.02 
8 *395:31 *1790:I 4.5 
9 *395:27 *1729:CLK 15.08 
10 *395:25 *1728:CLK 4.5 
11 *395:14 *1726:CLK 4.5 
*END

*D_NET *396 0.00868599
*CONN
*I *1731:CLK I *D gf180mcu_fd_sc_mcu7t5v0__dffq_1
*I *1730:CLK I *D gf180mcu_fd_sc_mcu7t5v0__dffq_1
*I *1692:CLK I *D gf180mcu_fd_sc_mcu7t5v0__dffq_1
*I *1734:CLK I *D gf180mcu_fd_sc_mcu7t5v0__dffq_1
*I *1732:CLK I *D gf180mcu_fd_sc_mcu7t5v0__dffq_1
*I *1791:I I *D gf180mcu_fd_sc_mcu7t5v0__clkbuf_2
*I *1777:Z O *D gf180mcu_fd_sc_mcu7t5v0__clkbuf_8
*CAP
1 *1731:CLK 9.12357e-05
2 *1730:CLK 9.78292e-05
3 *1692:CLK 0.000124548
4 *1734:CLK 0.000182004
5 *1732:CLK 0
6 *1791:I 0
7 *1777:Z 0.000357165
8 *396:58 0.000257068
9 *396:31 0.000654608
10 *396:23 0.000660121
11 *396:21 0.000200814
12 *396:12 0.000427008
13 *1692:CLK *1540:I0 0.000369763
14 *1692:CLK *444:33 1.82069e-05
15 *1692:CLK *483:14 1.519e-05
16 *1730:CLK *1637:B1 0.000163192
17 *1730:CLK *1639:A2 6.20052e-05
18 *1731:CLK *1637:B1 9.88736e-06
19 *1731:CLK *1639:B2 0.00013063
20 *1731:CLK *1832:I 7.14226e-05
21 *1731:CLK *457:23 0.000422015
22 *1734:CLK *1646:A1 0
23 *396:12 *1633:B2 0.000376901
24 *396:12 *458:19 0.000159108
25 *396:12 *467:80 0.000399793
26 *396:21 *1636:A1 1.5693e-05
27 *396:21 *417:14 2.23652e-05
28 *396:21 *467:80 8.04139e-05
29 *396:23 *467:80 1.33998e-05
30 *396:23 *467:86 4.1487e-05
31 *396:23 *483:12 0.000308225
32 *396:31 *1636:A1 1.17762e-05
33 *396:31 *1641:B1 5.48085e-05
34 *396:31 *1641:B2 0.000137776
35 *396:31 *467:86 5.66334e-05
36 *396:31 *468:74 0
37 *396:31 *483:12 0.00020862
38 *396:31 *483:14 2.22657e-05
39 *396:31 *483:55 0.000167152
40 *396:31 *484:8 2.96621e-05
41 *396:58 *1637:B1 0.000145096
42 *396:58 *483:12 8.84331e-05
43 *1634:A2 *396:12 6.85337e-05
44 *1636:A2 *1692:CLK 0.000759269
45 *1636:A2 *396:12 0.000225869
46 *1636:A2 *396:21 4.31377e-06
47 *1636:A2 *396:31 1.0973e-05
48 *1640:A2 *396:31 0.00026286
49 *1640:A2 *396:58 0.000154106
50 *1642:A2 *1734:CLK 5.86759e-05
51 *1642:A2 *396:31 1.63668e-05
52 *1728:D *396:12 9.60894e-06
53 *1729:D *396:21 0.000135062
54 *1729:D *396:23 3.35674e-05
55 *1729:D *396:58 0.000233061
56 *1732:D *1734:CLK 0
57 *1734:D *1734:CLK 5.93977e-05
58 *1734:D *396:31 0
*RES
1 *1777:Z *396:12 8.452 
2 *396:12 *1791:I 4.5 
3 *396:12 *396:21 5.184 
4 *396:21 *396:23 0.836 
5 *396:23 *396:31 8.68 
6 *396:31 *1732:CLK 4.5 
7 *396:31 *1734:CLK 5.868 
8 *396:23 *1692:CLK 11.052 
9 *396:21 *396:58 5.944 
10 *396:58 *1730:CLK 5.488 
11 *396:58 *1731:CLK 5.792 
*END

*D_NET *397 0.0079247
*CONN
*I *1702:CLK I *D gf180mcu_fd_sc_mcu7t5v0__dffq_1
*I *1787:I I *D gf180mcu_fd_sc_mcu7t5v0__clkbuf_2
*I *1686:CLK I *D gf180mcu_fd_sc_mcu7t5v0__dffq_1
*I *1704:CLK I *D gf180mcu_fd_sc_mcu7t5v0__dffq_1
*I *1701:CLK I *D gf180mcu_fd_sc_mcu7t5v0__dffq_1
*I *1697:CLK I *D gf180mcu_fd_sc_mcu7t5v0__dffq_1
*I *1778:Z O *D gf180mcu_fd_sc_mcu7t5v0__clkbuf_8
*CAP
1 *1702:CLK 0.00103612
2 *1787:I 0.000188358
3 *1686:CLK 0.000700933
4 *1704:CLK 0
5 *1701:CLK 0
6 *1697:CLK 0.000209922
7 *1778:Z 0.00147095
8 *397:30 0.00134169
9 *397:23 0.000838867
10 *397:10 0.000654499
11 *1702:CLK *1559:A1 0.00010559
12 *1702:CLK *1587:A1 0
13 *1702:CLK *1587:B 2.37626e-05
14 *1702:CLK *413:12 7.39242e-05
15 *1702:CLK *448:10 0
16 *1702:CLK *449:21 0
17 *1787:I *1559:A1 4.1381e-05
18 *1787:I *485:12 6.82811e-05
19 *397:30 *1582:A1 1.15275e-05
20 i2c_sda_out_pin_ctrl *397:30 3.73627e-05
21 *1528:I1 *1686:CLK 0
22 *1557:A2 *1702:CLK 0.000147129
23 *1557:A2 *1787:I 0.000142209
24 *1557:A2 *397:10 1.11891e-05
25 *1558:A2 *1787:I 9.3697e-06
26 *1560:A2 *1787:I 0
27 *1580:A2 *1686:CLK 0
28 *1580:A2 *397:30 0
29 *1582:A2 *397:30 0
30 *1582:B *397:23 0.000209639
31 *1582:B *397:30 7.49908e-05
32 *1686:D *1686:CLK 5.3266e-05
33 *1704:D *397:30 6.97952e-05
34 *1829:I *1702:CLK 9.15433e-05
35 *233:70 *1702:CLK 3.51308e-05
36 *233:78 *1702:CLK 1.76265e-06
37 *233:78 *1787:I 0.000235079
38 *244:14 *1686:CLK 0
39 *303:32 *1702:CLK 4.04309e-05
*RES
1 *1778:Z *397:10 15.248 
2 *397:10 *1697:CLK 5.716 
3 *397:10 *397:23 1.672 
4 *397:23 *1701:CLK 4.5 
5 *397:23 *397:30 4.332 
6 *397:30 *1704:CLK 4.5 
7 *397:30 *1686:CLK 8.832 
8 *1778:Z *1787:I 11.052 
9 *1778:Z *1702:CLK 24.992 
*END

*D_NET *398 0.0114286
*CONN
*I *1743:CLK I *D gf180mcu_fd_sc_mcu7t5v0__dffq_1
*I *1788:I I *D gf180mcu_fd_sc_mcu7t5v0__clkbuf_2
*I *1761:CLK I *D gf180mcu_fd_sc_mcu7t5v0__dffq_1
*I *1762:CLK I *D gf180mcu_fd_sc_mcu7t5v0__dffq_1
*I *1763:CLK I *D gf180mcu_fd_sc_mcu7t5v0__dffq_1
*I *1764:CLK I *D gf180mcu_fd_sc_mcu7t5v0__dffq_1
*I *1779:Z O *D gf180mcu_fd_sc_mcu7t5v0__clkbuf_8
*CAP
1 *1743:CLK 0.00103894
2 *1788:I 0
3 *1761:CLK 0.000400485
4 *1762:CLK 0.000127734
5 *1763:CLK 3.27596e-05
6 *1764:CLK 0.000185055
7 *1779:Z 0
8 *398:52 0.00123429
9 *398:14 0.000906906
10 *398:10 0.000901976
11 *398:8 0.00107199
12 *398:4 0.000781696
13 *1743:CLK *1744:CLK 0
14 *1743:CLK *1745:CLK 0.000395846
15 *1743:CLK *399:8 0
16 *1743:CLK *399:23 0.000526238
17 *1743:CLK *414:14 0.000277762
18 *1743:CLK *414:70 0.000237037
19 *1743:CLK *489:10 8.8425e-05
20 *1743:CLK *490:10 0
21 *1761:CLK *1475:A2 7.35508e-05
22 *1761:CLK *1484:C 0.00050796
23 *1761:CLK *500:10 9.45638e-06
24 *1762:CLK *500:10 0.000107848
25 *398:8 *1486:B 1.2018e-05
26 *398:8 *465:98 0.00151834
27 *398:8 *499:10 0.000105471
28 *398:8 *500:10 6.80238e-06
29 *398:10 *500:10 0
30 *398:14 *500:10 0
31 *1397:A1 *398:8 0
32 *1397:A1 *398:52 0
33 *1397:A2 *1743:CLK 0
34 *1397:A2 *398:52 0
35 *1476:A3 *1743:CLK 0.000110784
36 *1477:A2 *1743:CLK 4.22854e-06
37 *1477:A2 *398:8 2.64818e-05
38 *1477:A2 *398:52 3.6664e-05
39 *1482:B2 *398:8 3.36925e-05
40 *1484:B *1761:CLK 8.62306e-05
41 *1761:D *1761:CLK 0.000276717
42 *1762:D *1762:CLK 0
43 *1764:D *1763:CLK 1.91917e-06
44 *1764:D *1764:CLK 2.07594e-05
45 *1764:D *398:14 0.000103908
46 *188:18 *1743:CLK 9.86651e-06
47 *269:42 *1743:CLK 0.000168743
*RES
1 *1779:Z *398:4 4.5 
2 *398:4 *398:8 9.896 
3 *398:8 *398:10 0.532 
4 *398:10 *398:14 8.68 
5 *398:14 *1764:CLK 5.716 
6 *398:14 *1763:CLK 4.728 
7 *398:10 *1762:CLK 9.988 
8 *398:8 *1761:CLK 12.496 
9 *398:4 *398:52 1.292 
10 *398:52 *1788:I 4.5 
11 *398:52 *1743:CLK 22.924 
*END

*D_NET *399 0.00871945
*CONN
*I *1745:CLK I *D gf180mcu_fd_sc_mcu7t5v0__dffq_1
*I *1750:CLK I *D gf180mcu_fd_sc_mcu7t5v0__dffq_1
*I *1747:CLK I *D gf180mcu_fd_sc_mcu7t5v0__dffq_1
*I *1748:CLK I *D gf180mcu_fd_sc_mcu7t5v0__dffq_1
*I *1744:CLK I *D gf180mcu_fd_sc_mcu7t5v0__dffq_1
*I *1792:I I *D gf180mcu_fd_sc_mcu7t5v0__clkbuf_2
*I *1780:Z O *D gf180mcu_fd_sc_mcu7t5v0__clkbuf_8
*CAP
1 *1745:CLK 0.000264427
2 *1750:CLK 0.000681533
3 *1747:CLK 0
4 *1748:CLK 0
5 *1744:CLK 0.000208932
6 *1792:I 0
7 *1780:Z 0.000552208
8 *399:47 0.00100855
9 *399:36 0.000706902
10 *399:23 0.000984298
11 *399:8 0.00068326
12 *1744:CLK *413:64 0.000189282
13 *1745:CLK *1511:I3 1.15312e-05
14 *1745:CLK *1673:I0 2.64786e-05
15 *1750:CLK *1419:I0 2.09092e-05
16 *1750:CLK *1423:I0 0
17 *1750:CLK *1423:S 2.35105e-05
18 *1750:CLK *1509:I1 2.01639e-05
19 *1750:CLK *445:16 3.73627e-05
20 *1750:CLK *494:10 0
21 *399:23 *414:10 0
22 *399:23 *414:14 8.8425e-05
23 *399:23 *414:70 0.000462714
24 *399:47 *1423:S 0
25 *1419:I1 *1750:CLK 0.000263029
26 *1423:I1 *399:47 2.89664e-05
27 *1743:D *399:23 1.02578e-05
28 *1743:CLK *1744:CLK 0
29 *1743:CLK *1745:CLK 0.000395846
30 *1743:CLK *399:8 0
31 *1743:CLK *399:23 0.000526238
32 *1747:D *1750:CLK 9.34825e-05
33 *1748:D *399:47 0.00025334
34 *269:42 *1744:CLK 0.000139442
35 *269:42 *399:23 0.000107266
36 *269:42 *399:36 0.000554655
37 *269:42 *399:47 0.000376448
38 *279:14 *399:23 0
39 *389:23 *1745:CLK 0
40 *389:29 *1745:CLK 0
*RES
1 *1780:Z *399:8 6.324 
2 *399:8 *1792:I 4.5 
3 *399:8 *399:23 12.572 
4 *399:23 *1744:CLK 15.552 
5 *399:23 *399:36 3.268 
6 *399:36 *1748:CLK 4.5 
7 *399:36 *399:47 7.692 
8 *399:47 *1747:CLK 9 
9 *399:47 *1750:CLK 14.472 
10 *1780:Z *1745:CLK 11.356 
*END

*D_NET *400 0.00865609
*CONN
*I *1706:CLK I *D gf180mcu_fd_sc_mcu7t5v0__dffq_1
*I *1713:CLK I *D gf180mcu_fd_sc_mcu7t5v0__dffq_1
*I *1705:CLK I *D gf180mcu_fd_sc_mcu7t5v0__dffq_1
*I *1700:CLK I *D gf180mcu_fd_sc_mcu7t5v0__dffq_1
*I *1714:CLK I *D gf180mcu_fd_sc_mcu7t5v0__dffq_1
*I *1699:CLK I *D gf180mcu_fd_sc_mcu7t5v0__dffq_1
*I *1781:Z O *D gf180mcu_fd_sc_mcu7t5v0__clkbuf_8
*CAP
1 *1706:CLK 8.39942e-05
2 *1713:CLK 0.000371617
3 *1705:CLK 2.05736e-05
4 *1700:CLK 0
5 *1714:CLK 0
6 *1699:CLK 0.000189371
7 *1781:Z 0.000389961
8 *400:59 0.000642925
9 *400:46 0.000309592
10 *400:16 0.00122131
11 *400:10 0.00132019
12 *1705:CLK *407:16 4.27813e-05
13 *1705:CLK *487:22 0.000140167
14 *1706:CLK *464:8 0.000291377
15 *1713:CLK *407:16 0
16 *1713:CLK *464:8 0.000365092
17 *400:10 *1596:I1 0.000172142
18 *400:10 *409:18 0
19 *400:10 *467:92 0.000861613
20 *400:16 *1596:I1 1.98256e-05
21 *400:16 *1605:A2 0
22 *400:16 *1607:A1 0.000716809
23 *400:16 *1607:A2 0
24 *400:16 *420:82 2.41132e-05
25 *400:16 *464:20 0
26 *400:16 *467:92 0.00051088
27 *400:16 *467:98 0.000292381
28 *400:46 *409:18 8.55242e-05
29 *400:46 *467:92 9.45074e-05
30 *400:59 *467:86 0
31 *400:59 *467:92 1.85312e-05
32 *1488:A2 *400:16 0.000121119
33 *1700:D *400:10 0
34 *1714:D *400:16 1.81888e-05
35 *1781:I *400:46 0.00019685
36 *1781:I *400:59 0.000134655
37 *140:12 *400:59 0
38 *316:8 *1713:CLK 0
*RES
1 *1781:Z *400:10 12.192 
2 *400:10 *400:16 12.708 
3 *400:16 *1699:CLK 5.64 
4 *400:16 *1714:CLK 4.5 
5 *400:10 *1700:CLK 9 
6 *1781:Z *400:46 10.368 
7 *400:46 *1705:CLK 9.38 
8 *400:46 *400:59 5.944 
9 *400:59 *1713:CLK 7.008 
10 *400:59 *1706:CLK 5.336 
*END

*D_NET *401 0.00656631
*CONN
*I *1765:CLK I *D gf180mcu_fd_sc_mcu7t5v0__dffq_1
*I *1767:CLK I *D gf180mcu_fd_sc_mcu7t5v0__dffq_1
*I *1768:CLK I *D gf180mcu_fd_sc_mcu7t5v0__dffq_1
*I *1715:CLK I *D gf180mcu_fd_sc_mcu7t5v0__dffq_1
*I *1716:CLK I *D gf180mcu_fd_sc_mcu7t5v0__dffq_1
*I *1793:I I *D gf180mcu_fd_sc_mcu7t5v0__clkbuf_2
*I *1782:Z O *D gf180mcu_fd_sc_mcu7t5v0__clkbuf_8
*CAP
1 *1765:CLK 0.000377412
2 *1767:CLK 0.000121319
3 *1768:CLK 0
4 *1715:CLK 0.000238189
5 *1716:CLK 0.000484202
6 *1793:I 0
7 *1782:Z 0.000355555
8 *401:31 0.00130178
9 *401:20 0.000826137
10 *401:14 0.000399389
11 *401:12 0.0006033
12 *401:6 0.00106231
13 *1765:CLK *1765:D 0
14 *1767:CLK *1387:A2 0.00032464
15 *1767:CLK *475:10 4.50449e-05
16 *401:6 *1765:D 0
17 *401:20 *1596:I1 0
18 *401:20 *420:82 0
19 *401:31 *1606:A2 1.50588e-05
20 *1606:A1 *401:20 0
21 *1606:A1 *401:31 4.90495e-05
22 *1715:D *1715:CLK 0
23 *1715:D *401:31 0.000170431
24 *1767:D *1765:CLK 0
25 *1768:D *401:6 0
26 *1768:D *401:14 1.81888e-05
27 *132:16 *1767:CLK 2.23477e-05
28 *132:16 *401:12 0.000151957
29 *132:16 *401:20 0
*RES
1 *1782:Z *401:6 6.552 
2 *401:6 *401:12 11.356 
3 *401:12 *401:14 1.14 
4 *401:14 *401:20 10.292 
5 *401:20 *1793:I 4.5 
6 *401:20 *401:31 8.604 
7 *401:31 *1716:CLK 11.888 
8 *401:31 *1715:CLK 10.444 
9 *401:14 *1768:CLK 4.5 
10 *401:12 *1767:CLK 5.64 
11 *401:6 *1765:CLK 6.704 
*END

*D_NET *402 0.00654263
*CONN
*I *1709:CLK I *D gf180mcu_fd_sc_mcu7t5v0__dffq_1
*I *1736:CLK I *D gf180mcu_fd_sc_mcu7t5v0__dffq_1
*I *1749:CLK I *D gf180mcu_fd_sc_mcu7t5v0__dffq_1
*I *1687:CLK I *D gf180mcu_fd_sc_mcu7t5v0__dffq_1
*I *1708:CLK I *D gf180mcu_fd_sc_mcu7t5v0__dffq_1
*I *1794:I I *D gf180mcu_fd_sc_mcu7t5v0__clkbuf_2
*I *1783:Z O *D gf180mcu_fd_sc_mcu7t5v0__clkbuf_8
*CAP
1 *1709:CLK 2.92489e-05
2 *1736:CLK 0.000576738
3 *1749:CLK 0.000185254
4 *1687:CLK 0.000346087
5 *1708:CLK 0
6 *1794:I 9.84103e-05
7 *1783:Z 0.00037202
8 *402:47 0.000875758
9 *402:34 0.000998892
10 *402:30 0.000568287
11 *402:16 0.000438656
12 *402:10 0.000712266
13 *1736:CLK *445:10 0
14 *1736:CLK *477:10 0
15 *1534:S *402:34 4.62236e-05
16 *1687:D *402:34 0.000255714
17 *1708:D *1709:CLK 7.71175e-06
18 *1708:D *402:10 2.74753e-05
19 *1708:D *402:16 0
20 *1708:D *402:34 8.7332e-05
21 *1749:D *1749:CLK 1.81888e-05
22 *269:36 *1687:CLK 0
23 *272:12 *402:10 0.000352489
24 *272:12 *402:16 7.52312e-05
25 *272:12 *402:34 7.22169e-05
26 *381:12 *402:16 0
27 *383:6 *402:10 4.98138e-05
28 *383:10 *402:10 0.000348614
*RES
1 *1783:Z *402:10 12.192 
2 *402:10 *402:16 6.628 
3 *402:16 *1794:I 5.184 
4 *402:16 *1708:CLK 4.5 
5 *402:10 *402:30 4.5 
6 *402:30 *402:34 8.832 
7 *402:34 *1687:CLK 11.28 
8 *402:34 *402:47 0.684 
9 *402:47 *1749:CLK 10.14 
10 *402:47 *1736:CLK 12.876 
11 *402:30 *1709:CLK 4.728 
*END

*D_NET *403 0.00570191
*CONN
*I *1712:CLK I *D gf180mcu_fd_sc_mcu7t5v0__dffq_1
*I *1710:CLK I *D gf180mcu_fd_sc_mcu7t5v0__dffq_1
*I *1795:I I *D gf180mcu_fd_sc_mcu7t5v0__clkbuf_2
*I *1766:CLK I *D gf180mcu_fd_sc_mcu7t5v0__dffq_1
*I *1707:CLK I *D gf180mcu_fd_sc_mcu7t5v0__dffq_1
*I *1711:CLK I *D gf180mcu_fd_sc_mcu7t5v0__dffq_1
*I *1784:Z O *D gf180mcu_fd_sc_mcu7t5v0__clkbuf_8
*CAP
1 *1712:CLK 8.18982e-05
2 *1710:CLK 0
3 *1795:I 0.000213697
4 *1766:CLK 0.000189043
5 *1707:CLK 0.000599595
6 *1711:CLK 0
7 *1784:Z 0.000277259
8 *403:47 0.0004631
9 *403:23 0.00103204
10 *403:21 0.000601662
11 *403:19 0.000310761
12 *403:10 0.000397259
13 *1707:CLK *1596:I1 1.36808e-05
14 *1596:I0 *1766:CLK 4.2318e-06
15 *1596:I0 *403:47 3.67292e-05
16 *1596:S *1707:CLK 0
17 *1596:S *1766:CLK 1.91917e-06
18 *1596:S *403:47 9.3697e-06
19 *1597:I0 *1795:I 9.26705e-05
20 *1597:I0 *403:47 9.93671e-05
21 *1705:D *1707:CLK 4.07337e-05
22 *1706:D *1707:CLK 0.000239827
23 *1804:I *1707:CLK 4.18499e-05
24 *1804:I *1766:CLK 0
25 *140:12 *1707:CLK 8.16104e-05
26 *140:20 *1707:CLK 2.64666e-05
27 *140:20 *1712:CLK 5.17797e-05
28 *140:20 *403:21 6.15351e-05
29 *140:20 *403:23 0.000128185
30 *316:23 *403:47 5.14116e-06
31 *381:12 *1707:CLK 0.000220697
32 *381:43 *1707:CLK 0.000192756
33 *382:12 *1795:I 0.000187046
*RES
1 *1784:Z *403:10 7.008 
2 *403:10 *1711:CLK 4.5 
3 *403:10 *403:19 5.64 
4 *403:19 *403:21 0.836 
5 *403:21 *403:23 1.748 
6 *403:23 *1707:CLK 13.864 
7 *403:23 *1766:CLK 10.14 
8 *403:21 *403:47 6.704 
9 *403:47 *1795:I 6.4 
10 *403:47 *1710:CLK 4.5 
11 *403:19 *1712:CLK 9.684 
*END

*D_NET *404 0.0142379
*CONN
*I *1724:CLK I *D gf180mcu_fd_sc_mcu7t5v0__dffq_1
*I *1758:CLK I *D gf180mcu_fd_sc_mcu7t5v0__dffq_1
*I *1751:CLK I *D gf180mcu_fd_sc_mcu7t5v0__dffq_1
*I *1755:CLK I *D gf180mcu_fd_sc_mcu7t5v0__dffq_1
*I *1753:CLK I *D gf180mcu_fd_sc_mcu7t5v0__dffq_1
*I *1752:CLK I *D gf180mcu_fd_sc_mcu7t5v0__dffq_1
*I *1785:Z O *D gf180mcu_fd_sc_mcu7t5v0__clkbuf_8
*CAP
1 *1724:CLK 0.00018678
2 *1758:CLK 0.000153144
3 *1751:CLK 3.67755e-05
4 *1755:CLK 0.000162006
5 *1753:CLK 3.28034e-05
6 *1752:CLK 5.46724e-05
7 *1785:Z 0.000304537
8 *404:59 0.000396619
9 *404:34 0.000273741
10 *404:16 0.000948049
11 *404:10 0.00118337
12 *1724:CLK *1675:A2 0.000248677
13 *1753:CLK *1839:I 0
14 *1758:CLK *1473:B1 0.000306317
15 *404:16 *1452:A1 0.00200616
16 *404:16 *1839:I 0.000183334
17 *1381:I *404:16 7.72363e-05
18 *1393:A1 *404:16 0.000113002
19 *1414:A2 *1755:CLK 0.000912053
20 *1414:A2 *404:16 0
21 *1414:A2 *404:34 0.000257232
22 *1443:A2 *404:16 0.00036882
23 *1450:A2 *404:16 0.000518419
24 *1452:B *404:16 9.91989e-05
25 *1453:A1 *404:16 7.33011e-05
26 *1453:A2 *404:16 0.000290354
27 *1462:B2 *404:10 3.73535e-05
28 *1467:A2 *404:59 2.33477e-05
29 *1467:A4 *404:59 0.0001565
30 *1471:A1 *404:59 1.42281e-05
31 *1474:A2 *1758:CLK 0.000121396
32 *1620:A1 *1724:CLK 0.000898003
33 *1622:A1 *1724:CLK 0.000646187
34 *1622:A1 *404:59 8.84331e-05
35 *1723:D *1724:CLK 0
36 *1752:D *404:16 0
37 *1753:D *404:16 0.00011726
38 *1758:D *1758:CLK 2.11364e-05
39 *152:10 *404:16 0.000197048
40 *160:14 *1724:CLK 3.54279e-05
41 *160:14 *404:10 5.30223e-05
42 *160:14 *404:16 3.99967e-05
43 *189:17 *404:10 0.000204487
44 *189:17 *404:16 0.000279408
45 *189:32 *404:10 0.000194848
46 *366:69 *404:16 2.23385e-05
47 *366:71 *404:16 0.000110382
48 *369:16 *404:10 3.73535e-05
49 *370:49 *1724:CLK 0.000199473
50 *370:49 *404:59 0.000444428
51 *371:31 *1758:CLK 0.000419318
52 *389:115 *1755:CLK 0.000295968
53 *389:115 *404:34 4.25064e-05
54 *392:44 *1724:CLK 0.000351431
*RES
1 *1785:Z *404:10 11.432 
2 *404:10 *404:16 15.9 
3 *404:16 *1752:CLK 4.88 
4 *404:16 *1753:CLK 4.728 
5 *404:10 *404:34 5.336 
6 *404:34 *1755:CLK 7.084 
7 *404:34 *1751:CLK 4.728 
8 *1785:Z *404:59 10.292 
9 *404:59 *1758:CLK 11.052 
10 *404:59 *1724:CLK 12.8 
*END

*D_NET *405 0.0113176
*CONN
*I *1756:CLK I *D gf180mcu_fd_sc_mcu7t5v0__dffq_1
*I *1757:CLK I *D gf180mcu_fd_sc_mcu7t5v0__dffq_1
*I *1689:CLK I *D gf180mcu_fd_sc_mcu7t5v0__dffq_1
*I *1746:CLK I *D gf180mcu_fd_sc_mcu7t5v0__dffq_1
*I *1735:CLK I *D gf180mcu_fd_sc_mcu7t5v0__dffq_1
*I *1796:I I *D gf180mcu_fd_sc_mcu7t5v0__clkbuf_2
*I *1786:Z O *D gf180mcu_fd_sc_mcu7t5v0__clkbuf_8
*CAP
1 *1756:CLK 0.000133083
2 *1757:CLK 0
3 *1689:CLK 0.000284342
4 *1746:CLK 0
5 *1735:CLK 0.000273666
6 *1796:I 0.000184531
7 *1786:Z 5.49279e-05
8 *405:56 0.000224833
9 *405:41 0.000526538
10 *405:21 0.000705342
11 *405:19 0.000729321
12 *405:6 0.000386658
13 *1689:CLK *1464:A2 3.45571e-05
14 *1689:CLK *468:38 0.000975047
15 *1689:CLK *468:59 0.000649313
16 *1689:CLK *482:39 0.000424528
17 *1735:CLK *492:12 0
18 *1756:CLK *1464:A2 2.11364e-05
19 *1756:CLK *452:89 3.94593e-05
20 *1422:B1 *405:21 0.0014898
21 *1422:B1 *405:41 0.000610015
22 *1422:B1 *405:56 0.000625851
23 *1458:B *1689:CLK 0.000144093
24 *1466:A2 *1756:CLK 0.000181456
25 *1469:A2 *1796:I 2.84711e-05
26 *1469:A2 *405:19 1.57754e-05
27 *1471:A2 *1689:CLK 2.6126e-05
28 *1649:A1 *405:21 0
29 *1677:I1 *1735:CLK 6.81517e-05
30 *1677:I1 *405:21 5.45907e-06
31 *1680:A2 *405:21 0
32 *1680:A2 *405:41 0
33 *1680:A2 *405:56 0
34 *1684:A1 *405:19 2.74661e-05
35 *1684:A2 *405:19 2.6126e-05
36 *1685:I1 *405:21 0.000855235
37 *1755:D *1796:I 0
38 *1757:D *405:56 0.000403764
39 *150:43 *405:21 0.000317381
40 *161:46 *405:21 0.000135048
41 *169:27 *1735:CLK 0.000119866
42 *338:39 *405:21 0.000333388
43 *339:22 *405:21 1.26706e-05
44 *389:13 *1735:CLK 0
45 *389:13 *405:21 0
46 *389:105 *1796:I 2.22758e-05
47 *389:105 *405:19 0.000166561
48 *389:105 *405:21 3.50003e-05
49 *389:105 *405:41 2.03856e-05
50 *389:115 *1796:I 0
*RES
1 *1786:Z *405:6 4.88 
2 *405:6 *1796:I 5.716 
3 *405:6 *405:19 5.792 
4 *405:19 *405:21 6.612 
5 *405:21 *1735:CLK 10.976 
6 *405:21 *1746:CLK 9 
7 *405:19 *405:41 1.596 
8 *405:41 *1689:CLK 13.56 
9 *405:41 *405:56 6.096 
10 *405:56 *1757:CLK 4.5 
11 *405:56 *1756:CLK 5.64 
*END

*D_NET *406 0.00134757
*CONN
*I *1809:I I *D gf180mcu_fd_sc_mcu7t5v0__dlyc_1
*I *1765:Q O *D gf180mcu_fd_sc_mcu7t5v0__dffq_1
*CAP
1 *1809:I 0.000673783
2 *1765:Q 0.000673783
*RES
1 *1765:Q *1809:I 22.56 
*END

*D_NET *407 0.015376
*CONN
*I *1499:A1 I *D gf180mcu_fd_sc_mcu7t5v0__nand2_1
*I *1373:I I *D gf180mcu_fd_sc_mcu7t5v0__clkinv_1
*I *1493:A3 I *D gf180mcu_fd_sc_mcu7t5v0__and4_1
*I *1494:A3 I *D gf180mcu_fd_sc_mcu7t5v0__nand4_1
*I *1566:A1 I *D gf180mcu_fd_sc_mcu7t5v0__nand4_1
*I *1766:Q O *D gf180mcu_fd_sc_mcu7t5v0__dffq_1
*CAP
1 *1499:A1 0
2 *1373:I 0
3 *1493:A3 0
4 *1494:A3 6.69598e-05
5 *1566:A1 0
6 *1766:Q 0.00120466
7 *407:53 0.000544731
8 *407:37 0.000868625
9 *407:29 0.00065512
10 *407:16 0.00146893
11 *407:16 *464:8 3.26639e-05
12 *407:16 *467:86 6.26721e-05
13 *407:16 *467:92 6.73926e-05
14 *407:16 *487:22 0.00100629
15 *407:29 *1499:A2 0.000335667
16 *407:29 *1566:A3 0.00068708
17 *407:37 *459:27 8.74784e-05
18 *407:53 *1500:A1 0.000489911
19 *407:53 *1551:A1 1.31444e-05
20 *407:53 *416:52 0.000197186
21 *407:53 *416:61 0.000535132
22 *407:53 *459:14 8.04139e-05
23 *407:53 *487:60 9.57657e-05
24 *1493:A2 *1494:A3 7.83779e-05
25 *1493:A4 *1494:A3 7.50749e-05
26 *1494:A2 *1494:A3 0.000186796
27 *1494:A2 *407:53 8.15645e-05
28 *1501:A2 *407:37 0.000202854
29 *1510:A1 *407:53 5.84574e-05
30 *1512:A1 *407:53 0.000114424
31 *1512:A2 *407:53 3.08902e-05
32 *1513:B *407:53 0
33 *1527:A2 *407:53 3.03414e-05
34 *1543:A1 *407:37 1.16164e-05
35 *1543:A2 *407:53 2.57058e-06
36 *1543:B *407:37 0
37 *1548:A1 *407:37 0.000146811
38 *1550:A4 *1494:A3 3.15156e-05
39 *1705:D *407:16 0.000287801
40 *1705:CLK *407:16 4.27813e-05
41 *1713:CLK *407:16 0
42 *1834:I *407:53 0
43 *124:23 *407:53 0.000768906
44 *124:25 *407:53 0.000369462
45 *124:27 *407:53 0.000190317
46 *232:32 *1494:A3 1.5015e-05
47 *238:18 *1494:A3 1.73178e-05
48 *239:10 *407:37 0.000297766
49 *240:12 *407:37 4.99956e-05
50 *240:12 *407:53 0.000223261
51 *262:10 *407:16 0
52 *262:10 *407:29 0
53 *269:19 *407:16 0.000102192
54 *269:19 *407:29 0.000102192
55 *269:36 *407:37 0.00196302
56 *272:12 *407:29 0.000107861
57 *279:14 *407:53 0.00120904
58 *381:12 *407:29 2.96621e-05
59 *381:12 *407:37 4.8249e-05
*RES
1 *1766:Q *407:16 19.412 
2 *407:16 *1566:A1 9 
3 *407:16 *407:29 7.844 
4 *407:29 *407:37 15.232 
5 *407:37 *407:53 17.512 
6 *407:53 *1494:A3 5.412 
7 *407:53 *1493:A3 4.5 
8 *407:37 *1373:I 4.5 
9 *407:29 *1499:A1 4.5 
*END

*D_NET *408 0.00173236
*CONN
*I *1810:I I *D gf180mcu_fd_sc_mcu7t5v0__dlyc_1
*I *1768:Q O *D gf180mcu_fd_sc_mcu7t5v0__dffq_1
*CAP
1 *1810:I 0.000485596
2 *1768:Q 0.000485596
3 *1810:I *1596:I1 0
4 *1810:I *464:8 0
5 *1705:D *1810:I 0.000644146
6 *1804:I *1810:I 3.10758e-05
7 *140:12 *1810:I 8.59438e-05
*RES
1 *1768:Q *1810:I 21.952 
*END

*D_NET *409 0.00239593
*CONN
*I *1604:A1 I *D gf180mcu_fd_sc_mcu7t5v0__and2_1
*I *1576:A1 I *D gf180mcu_fd_sc_mcu7t5v0__nor3_1
*I *1700:Q O *D gf180mcu_fd_sc_mcu7t5v0__dffq_1
*CAP
1 *1604:A1 0
2 *1576:A1 0.000157978
3 *1700:Q 0.000510386
4 *409:18 0.000668364
5 *1576:A1 *464:16 0.000160944
6 *409:18 *1604:A2 0
7 *409:18 *464:10 0.000147092
8 *409:18 *464:16 4.84399e-05
9 *409:18 *487:22 0.000226045
10 *1576:A2 *1576:A1 0.000139333
11 *1577:B *1576:A1 0.000227501
12 *1713:D *409:18 2.43241e-05
13 *400:10 *409:18 0
14 *400:46 *409:18 8.55242e-05
*RES
1 *1700:Q *409:18 13.408 
2 *409:18 *1576:A1 10.976 
3 *409:18 *1604:A1 9 
*END

*D_NET *410 0.00248562
*CONN
*I *1605:A1 I *D gf180mcu_fd_sc_mcu7t5v0__and2_1
*I *1571:A1 I *D gf180mcu_fd_sc_mcu7t5v0__oai21_1
*I *1699:Q O *D gf180mcu_fd_sc_mcu7t5v0__dffq_1
*CAP
1 *1605:A1 0.000349668
2 *1571:A1 0.000160023
3 *1699:Q 0.000347238
4 *410:10 0.00085693
5 *1571:A1 *467:98 0
6 *1605:A1 *467:98 0
7 *410:10 *412:12 1.04132e-05
8 *1571:A2 *1571:A1 2.96621e-05
9 *1572:A1 *1571:A1 0.000167362
10 *1572:A1 *410:10 2.26535e-05
11 *1572:B *1571:A1 0.000222333
12 *1699:D *1571:A1 4.71447e-05
13 *1714:D *1605:A1 4.1381e-05
14 *295:18 *1571:A1 0.000124769
15 *295:18 *410:10 0.000106045
*RES
1 *1699:Q *410:10 15.704 
2 *410:10 *1571:A1 15.172 
3 *410:10 *1605:A1 6.704 
*END

*D_NET *411 0.010082
*CONN
*I *1374:I I *D gf180mcu_fd_sc_mcu7t5v0__clkinv_1
*I *1524:A1 I *D gf180mcu_fd_sc_mcu7t5v0__nor2_1
*I *1507:A1 I *D gf180mcu_fd_sc_mcu7t5v0__oai221_1
*I *1563:A1 I *D gf180mcu_fd_sc_mcu7t5v0__oai221_1
*I *1496:A1 I *D gf180mcu_fd_sc_mcu7t5v0__nand2_1
*I *1713:Q O *D gf180mcu_fd_sc_mcu7t5v0__dffq_1
*CAP
1 *1374:I 0
2 *1524:A1 2.20669e-05
3 *1507:A1 9.13234e-05
4 *1563:A1 0.000107747
5 *1496:A1 0.000241107
6 *1713:Q 0.000426044
7 *411:50 0.000227794
8 *411:22 0.000447402
9 *411:18 0.000311312
10 *411:16 0.000524405
11 *1496:A1 *1507:A2 4.03805e-05
12 *1507:A1 *1507:A2 2.65029e-05
13 *1563:A1 *412:91 9.17202e-06
14 *1506:A1 *1507:A1 0.000633622
15 *1506:A1 *411:50 0.000386369
16 *1507:B2 *1496:A1 1.34641e-06
17 *1507:B2 *1507:A1 0.000172537
18 *1507:B2 *411:50 0.000830084
19 *1523:A2 *411:16 6.72788e-05
20 *1523:A2 *411:18 6.5393e-05
21 *1523:A2 *411:22 0.000173755
22 *1547:A2 *411:16 0.000329336
23 *1547:A2 *411:18 0.000199573
24 *1548:A4 *1496:A1 0.000808181
25 *1548:A4 *1563:A1 0.000401466
26 *1555:A1 *411:16 0.00025949
27 *1565:A1 *1496:A1 4.21393e-05
28 *1565:A1 *1563:A1 5.72808e-05
29 *1569:B *1524:A1 7.83779e-05
30 *1570:B *1496:A1 0.000329996
31 *1570:B *1524:A1 5.33134e-06
32 *1573:A1 *411:16 0.000235631
33 *1573:B *411:16 0.000155025
34 *1577:A1 *411:16 0
35 *1713:D *411:16 0
36 *136:13 *1496:A1 4.58601e-06
37 *136:26 *1496:A1 2.21417e-05
38 *230:33 *1496:A1 2.11524e-05
39 *234:31 *411:16 0.000178892
40 *234:31 *411:18 0.000162457
41 *234:31 *411:22 0.000173755
42 *235:17 *411:50 0.000480472
43 *244:28 *1507:A1 0.00030593
44 *264:22 *1496:A1 1.33911e-06
45 *264:22 *1524:A1 2.6126e-05
46 *265:12 *411:16 0.000336126
47 *269:19 *411:16 0.00025099
48 *270:32 *1563:A1 2.69245e-05
49 *290:10 *1563:A1 2.6126e-05
50 *295:16 *411:16 0.000249048
51 *295:46 *411:16 3.01323e-05
52 *303:26 *1563:A1 7.83779e-05
*RES
1 *1713:Q *411:16 18.972 
2 *411:16 *411:18 1.14 
3 *411:18 *411:22 5.64 
4 *411:22 *1496:A1 11.812 
5 *411:22 *1563:A1 10.368 
6 *411:18 *411:50 6.856 
7 *411:50 *1507:A1 10.748 
8 *411:50 *1524:A1 9.228 
9 *411:16 *1374:I 4.5 
*END

*D_NET *412 0.0162937
*CONN
*I *1574:A1 I *D gf180mcu_fd_sc_mcu7t5v0__nor2_1
*I *1525:A2 I *D gf180mcu_fd_sc_mcu7t5v0__nand2_1
*I *1507:A2 I *D gf180mcu_fd_sc_mcu7t5v0__oai221_1
*I *1502:A2 I *D gf180mcu_fd_sc_mcu7t5v0__nor2_1
*I *1544:A2 I *D gf180mcu_fd_sc_mcu7t5v0__nor3_1
*I *1563:A2 I *D gf180mcu_fd_sc_mcu7t5v0__oai221_1
*I *1496:A2 I *D gf180mcu_fd_sc_mcu7t5v0__nand2_1
*I *1523:B I *D gf180mcu_fd_sc_mcu7t5v0__aoi21_1
*I *1375:I I *D gf180mcu_fd_sc_mcu7t5v0__clkinv_1
*I *1579:A1 I *D gf180mcu_fd_sc_mcu7t5v0__aoi21_1
*I *1714:Q O *D gf180mcu_fd_sc_mcu7t5v0__dffq_1
*CAP
1 *1574:A1 0
2 *1525:A2 3.28034e-05
3 *1507:A2 0.000345114
4 *1502:A2 0.000220327
5 *1544:A2 0
6 *1563:A2 0
7 *1496:A2 0.000305446
8 *1523:B 0
9 *1375:I 1.86261e-05
10 *1579:A1 0.000251255
11 *1714:Q 0.000289063
12 *412:91 0.000550173
13 *412:76 0.000394172
14 *412:32 0.000768551
15 *412:26 0.00064515
16 *412:24 0.000547986
17 *412:22 0.000296863
18 *412:18 0.000797733
19 *412:16 0.000648743
20 *412:12 0.000588861
21 *1507:A2 *1508:B 0.000187268
22 *1579:A1 *1551:A1 2.86762e-07
23 *1579:A1 *1855:I 0
24 *412:32 *1551:A1 1.60242e-05
25 *412:91 *487:22 0.000390052
26 *1495:A1 *412:18 0.000154756
27 *1495:A2 *1507:A2 0.000165769
28 *1496:A1 *1507:A2 4.03805e-05
29 *1503:A1 *1502:A2 1.02578e-05
30 *1503:A1 *412:91 8.02751e-06
31 *1507:A1 *1507:A2 2.65029e-05
32 *1507:B2 *1507:A2 0.000147162
33 *1507:B2 *412:91 0.000195775
34 *1507:C *1507:A2 0.000140663
35 *1523:A2 *412:16 7.14806e-05
36 *1523:A2 *412:18 0.00011163
37 *1525:A1 *412:16 2.05156e-05
38 *1525:A1 *412:18 0.000131651
39 *1527:A1 *1496:A2 3.30388e-05
40 *1527:A2 *1579:A1 0.000288247
41 *1527:A2 *412:32 8.9944e-05
42 *1528:I1 *1579:A1 1.11891e-05
43 *1542:B *412:91 0.000601733
44 *1548:A4 *412:76 0.000970654
45 *1548:A4 *412:91 0.000344905
46 *1563:A1 *412:91 9.17202e-06
47 *1565:A1 *412:18 8.55327e-05
48 *1565:A1 *412:22 0.00035308
49 *1565:A1 *412:24 8.40333e-05
50 *1565:A1 *412:26 0.000274468
51 *1565:A1 *412:91 4.29636e-06
52 *1566:A2 *1502:A2 6.66977e-05
53 *1566:A2 *412:91 2.6126e-05
54 *1569:B *1507:A2 0.000333325
55 *1569:B *412:22 1.03519e-05
56 *1569:B *412:24 1.19438e-05
57 *1570:B *1507:A2 0.000218989
58 *1570:B *412:18 2.92854e-05
59 *1570:B *412:22 3.07281e-05
60 *1570:C *1496:A2 2.02486e-05
61 *1575:A2 *412:12 1.04446e-05
62 *1575:A2 *412:16 5.97628e-05
63 *1575:A2 *412:18 0
64 *1575:A3 *412:12 0.000568817
65 *1579:B *1375:I 1.15312e-05
66 *1579:B *1579:A1 0.000101612
67 *1590:A1 *1375:I 2.6126e-05
68 *1590:A1 *412:32 7.45328e-07
69 *136:13 *1375:I 5.94067e-05
70 *136:13 *1496:A2 2.80796e-05
71 *136:13 *412:24 3.99044e-06
72 *136:13 *412:26 4.28179e-05
73 *136:13 *412:32 4.76331e-05
74 *230:14 *412:12 0.000136871
75 *230:33 *1496:A2 3.84145e-06
76 *233:12 *412:26 9.88736e-06
77 *233:12 *412:32 0.00037942
78 *233:24 *1496:A2 0
79 *236:21 *1496:A2 2.16852e-05
80 *236:44 *1496:A2 5.55596e-05
81 *236:44 *412:76 0.00098667
82 *242:6 *1502:A2 1.02578e-05
83 *242:24 *1502:A2 2.57971e-05
84 *244:8 *1579:A1 0
85 *244:28 *1507:A2 1.72953e-05
86 *245:67 *412:91 0.000192419
87 *264:22 *1496:A2 2.01749e-05
88 *264:37 *1496:A2 0.000124679
89 *275:8 *412:91 0.000288554
90 *277:14 *1507:A2 0.000193887
91 *290:10 *412:91 4.50449e-05
92 *295:18 *412:12 0
93 *295:46 *412:16 0.00038731
94 *303:26 *412:91 5.87561e-06
95 *410:10 *412:12 1.04132e-05
*RES
1 *1714:Q *412:12 16.084 
2 *412:12 *412:16 2.584 
3 *412:16 *412:18 2.508 
4 *412:18 *412:22 1.216 
5 *412:22 *412:24 0.684 
6 *412:24 *412:26 1.596 
7 *412:26 *412:32 7.996 
8 *412:32 *1579:A1 10.824 
9 *412:32 *1375:I 9.228 
10 *412:26 *1523:B 4.5 
11 *412:24 *1496:A2 15.4 
12 *412:22 *412:76 11.508 
13 *412:76 *1563:A2 4.5 
14 *412:76 *412:91 14.244 
15 *412:91 *1544:A2 4.5 
16 *412:91 *1502:A2 6.172 
17 *412:18 *1507:A2 17.3 
18 *412:16 *1525:A2 4.728 
19 *412:12 *1574:A1 4.5 
*END

*D_NET *413 0.0116653
*CONN
*I *1509:S0 I *D gf180mcu_fd_sc_mcu7t5v0__mux4_1
*I *1511:S0 I *D gf180mcu_fd_sc_mcu7t5v0__mux4_1
*I *1492:A2 I *D gf180mcu_fd_sc_mcu7t5v0__nor2_1
*I *1498:A4 I *D gf180mcu_fd_sc_mcu7t5v0__nand4_1
*I *1365:I I *D gf180mcu_fd_sc_mcu7t5v0__clkinv_1
*I *1581:A1 I *D gf180mcu_fd_sc_mcu7t5v0__oai21_1
*I *1701:Q O *D gf180mcu_fd_sc_mcu7t5v0__dffq_1
*CAP
1 *1509:S0 0.000552145
2 *1511:S0 9.29597e-05
3 *1492:A2 2.08335e-05
4 *1498:A4 0.000100995
5 *1365:I 0
6 *1581:A1 0
7 *1701:Q 0.000331658
8 *413:64 0.00155731
9 *413:51 0.00101022
10 *413:40 0.000648308
11 *413:27 0.000740314
12 *413:12 0.000601843
13 *1509:S0 *1419:I0 5.76373e-06
14 *1509:S0 *1677:I0 2.89225e-05
15 *1509:S0 *494:10 7.66819e-05
16 *1511:S0 *1511:I3 1.02578e-05
17 *1511:S0 *1677:I0 2.95081e-05
18 *413:12 *448:10 5.38563e-06
19 *413:12 *448:27 1.01183e-05
20 *413:27 *448:10 2.67896e-05
21 *413:27 *448:27 3.28542e-06
22 *413:40 *1559:A1 5.86674e-06
23 *413:64 *1492:A1 2.5943e-05
24 *413:64 *1513:A1 0.000297035
25 *413:64 *1586:A1 2.09451e-05
26 *413:64 *1677:S 6.46739e-05
27 *413:64 *414:22 4.14758e-05
28 *413:64 *414:24 7.17567e-05
29 *413:64 *415:31 0.000565308
30 *413:64 *490:10 0.000115937
31 *1498:A3 *1498:A4 8.18373e-05
32 *1513:A2 *1509:S0 0.000330269
33 *1581:B *413:27 0.000254221
34 *1582:A2 *413:12 0
35 *1584:A1 *1492:A2 1.93526e-05
36 *1584:A1 *1498:A4 0.000131212
37 *1584:A2 *1492:A2 8.04285e-05
38 *1584:A2 *413:64 0.000146949
39 *1590:A2 *413:40 0.000456157
40 *1590:A2 *413:51 0.000113362
41 *1590:A2 *413:64 2.23783e-05
42 *1593:B *413:27 9.67212e-05
43 *1593:B *413:40 1.40218e-05
44 *1677:I1 *413:64 2.27595e-05
45 *1702:CLK *413:12 7.39242e-05
46 *1744:D *413:64 0.000427531
47 *1744:CLK *413:64 0.000189282
48 *1745:D *1509:S0 4.29817e-05
49 *1745:D *1511:S0 4.31978e-05
50 *126:10 *413:40 0.000179116
51 *232:21 *1498:A4 3.3476e-05
52 *233:78 *413:12 3.63662e-05
53 *245:14 *413:64 5.10924e-05
54 *264:53 *413:27 0.000165038
55 *269:42 *413:64 0
56 *269:46 *413:27 0.000127097
57 *269:46 *413:40 0
58 *269:46 *413:51 0
59 *269:46 *413:64 0
60 *286:17 *413:12 0.000493324
61 *286:17 *413:27 8.04139e-05
62 *303:26 *1498:A4 0.000585585
63 *303:26 *413:40 0.000304965
*RES
1 *1701:Q *413:12 15.932 
2 *413:12 *1581:A1 4.5 
3 *413:12 *413:27 11.204 
4 *413:27 *1365:I 4.5 
5 *413:27 *413:40 8.528 
6 *413:40 *1498:A4 10.596 
7 *413:40 *413:51 0.684 
8 *413:51 *1492:A2 9.228 
9 *413:51 *413:64 13.24 
10 *413:64 *1511:S0 5.184 
11 *413:64 *1509:S0 8.68 
*END

*D_NET *414 0.0104876
*CONN
*I *1509:S1 I *D gf180mcu_fd_sc_mcu7t5v0__mux4_1
*I *1511:S1 I *D gf180mcu_fd_sc_mcu7t5v0__mux4_1
*I *1585:A1 I *D gf180mcu_fd_sc_mcu7t5v0__oai21_1
*I *1497:A3 I *D gf180mcu_fd_sc_mcu7t5v0__nor4_1
*I *1492:A1 I *D gf180mcu_fd_sc_mcu7t5v0__nor2_1
*I *1364:I I *D gf180mcu_fd_sc_mcu7t5v0__clkinv_1
*I *1702:Q O *D gf180mcu_fd_sc_mcu7t5v0__dffq_1
*CAP
1 *1509:S1 0.000599192
2 *1511:S1 0
3 *1585:A1 9.31164e-05
4 *1497:A3 8.52125e-05
5 *1492:A1 7.27914e-05
6 *1364:I 0
7 *1702:Q 0.000165366
8 *414:70 0.000904515
9 *414:24 0.000105284
10 *414:22 0.00049931
11 *414:14 0.000890902
12 *414:10 0.000886869
13 *1497:A3 *1497:A2 0.000231987
14 *1509:S1 *446:29 0.000493315
15 *1509:S1 *494:10 0
16 *1585:A1 *449:21 0.000158809
17 *414:22 *1363:I 5.75752e-06
18 *414:22 *1497:A2 8.81341e-06
19 *414:22 *1586:A1 0.000361006
20 *414:22 *415:27 4.8295e-05
21 *414:22 *415:31 0.000272143
22 *414:70 *446:29 0.000564624
23 *414:70 *489:10 0.000521672
24 *1497:A4 *1492:A1 0.000324241
25 *1497:A4 *1497:A3 0.000171927
26 *1510:A2 *1509:S1 2.65778e-05
27 *1552:A2 *414:22 0
28 *1556:S *1492:A1 2.96621e-05
29 *1584:A2 *1492:A1 8.05328e-06
30 *1586:B *414:22 2.74753e-05
31 *1590:A2 *1492:A1 9.52854e-05
32 *1673:I1 *414:70 0.000215438
33 *1743:D *414:10 2.5879e-05
34 *1743:D *414:14 8.56396e-05
35 *1743:D *414:70 0.000359088
36 *1743:CLK *414:14 0.000277762
37 *1743:CLK *414:70 0.000237037
38 *1783:I *1509:S1 0
39 *232:21 *1492:A1 3.73535e-05
40 *245:14 *1492:A1 0.000142801
41 *245:14 *1497:A3 1.17512e-05
42 *269:42 *1585:A1 0.000126947
43 *269:42 *414:14 0.000130752
44 *389:23 *1509:S1 0.000328218
45 *389:23 *414:70 0.000166393
46 *399:23 *414:10 0
47 *399:23 *414:14 8.8425e-05
48 *399:23 *414:70 0.000462714
49 *413:64 *1492:A1 2.5943e-05
50 *413:64 *414:22 4.14758e-05
51 *413:64 *414:24 7.17567e-05
*RES
1 *1702:Q *414:10 9.912 
2 *414:10 *414:14 3.8 
3 *414:14 *414:22 12.04 
4 *414:22 *414:24 0.38 
5 *414:24 *1364:I 9 
6 *414:24 *1492:A1 10.292 
7 *414:22 *1497:A3 10.292 
8 *414:14 *1585:A1 9.912 
9 *414:10 *414:70 10.58 
10 *414:70 *1511:S1 4.5 
11 *414:70 *1509:S1 9.136 
*END

*D_NET *415 0.00713199
*CONN
*I *1497:A2 I *D gf180mcu_fd_sc_mcu7t5v0__nor4_1
*I *1513:A1 I *D gf180mcu_fd_sc_mcu7t5v0__aoi21_1
*I *1363:I I *D gf180mcu_fd_sc_mcu7t5v0__clkinv_1
*I *1587:B I *D gf180mcu_fd_sc_mcu7t5v0__aoi21_1
*I *1703:Q O *D gf180mcu_fd_sc_mcu7t5v0__dffq_1
*CAP
1 *1497:A2 0.000140412
2 *1513:A1 0.000109773
3 *1363:I 0.000107495
4 *1587:B 0.00010607
5 *1703:Q 0.000349363
6 *415:31 0.000284624
7 *415:27 0.000462545
8 *415:8 0.000710211
9 *1587:B *1587:A1 8.15645e-05
10 *1587:B *449:8 7.83779e-05
11 *1587:B *449:21 0.000235808
12 *1497:A3 *1497:A2 0.000231987
13 *1552:A2 *1363:I 0.000104751
14 *1552:A2 *1513:A1 0.000974788
15 *1556:S *1497:A2 0
16 *1556:S *415:8 0.000243643
17 *1556:S *415:27 4.41397e-05
18 *1585:B *415:27 0.000187262
19 *1586:B *415:27 3.67398e-05
20 *1702:D *415:8 8.55242e-05
21 *1702:D *415:27 0.000361006
22 *1702:CLK *1587:B 2.37626e-05
23 *270:32 *1587:B 0
24 *270:40 *1587:B 0
25 *279:14 *1513:A1 0.000974788
26 *413:64 *1513:A1 0.000297035
27 *413:64 *415:31 0.000565308
28 *414:22 *1363:I 5.75752e-06
29 *414:22 *1497:A2 8.81341e-06
30 *414:22 *415:27 4.8295e-05
31 *414:22 *415:31 0.000272143
*RES
1 *1703:Q *415:8 7.236 
2 *415:8 *1587:B 14.564 
3 *415:8 *415:27 2.508 
4 *415:27 *415:31 5.944 
5 *415:31 *1363:I 10.292 
6 *415:31 *1513:A1 12.344 
7 *415:27 *1497:A2 5.944 
*END

*D_NET *416 0.0104098
*CONN
*I *1494:A1 I *D gf180mcu_fd_sc_mcu7t5v0__nand4_1
*I *1498:A1 I *D gf180mcu_fd_sc_mcu7t5v0__nand4_1
*I *1500:A1 I *D gf180mcu_fd_sc_mcu7t5v0__nor2_1
*I *1362:I I *D gf180mcu_fd_sc_mcu7t5v0__clkinv_1
*I *1550:A1 I *D gf180mcu_fd_sc_mcu7t5v0__nand4_1
*I *1493:A1 I *D gf180mcu_fd_sc_mcu7t5v0__and4_1
*I *1504:A1 I *D gf180mcu_fd_sc_mcu7t5v0__nor2_1
*I *1593:A1 I *D gf180mcu_fd_sc_mcu7t5v0__oai21_1
*I *1704:Q O *D gf180mcu_fd_sc_mcu7t5v0__dffq_1
*CAP
1 *1494:A1 0
2 *1498:A1 0.000163899
3 *1500:A1 0.00020302
4 *1362:I 0.000229975
5 *1550:A1 0
6 *1493:A1 0
7 *1504:A1 0.000152086
8 *1593:A1 0.000318191
9 *1704:Q 0
10 *416:92 0.000220353
11 *416:63 0.000229975
12 *416:61 0.000229009
13 *416:52 6.99307e-05
14 *416:35 0.000448373
15 *416:27 0.000789205
16 *416:4 0.000798597
17 *1362:I *1505:A2 9.81111e-06
18 *1362:I *487:36 7.45328e-07
19 *1500:A1 *487:60 0.000514804
20 *416:35 *1551:A1 1.71854e-05
21 *416:52 *1551:A1 5.93437e-05
22 *416:61 *1551:A1 1.61066e-05
23 *416:61 *487:32 0.000260709
24 *416:61 *487:60 0.000251816
25 *1493:A4 *1498:A1 2.6126e-05
26 *1493:A4 *1504:A1 2.6126e-05
27 *1494:A2 *416:35 1.11891e-05
28 *1494:A2 *416:52 1.11891e-05
29 *1497:A1 *1362:I 8.55242e-05
30 *1505:A1 *1362:I 1.72912e-05
31 *1527:A2 *1498:A1 0
32 *1527:A2 *416:27 0.000495688
33 *1527:A2 *416:35 2.06509e-05
34 *1527:A2 *416:92 4.70915e-05
35 *1551:A2 *1500:A1 6.95977e-05
36 *1551:A3 *1500:A1 0.000360997
37 *1562:A1 *1504:A1 2.57058e-06
38 *1562:A3 *1500:A1 0
39 *1579:A2 *1593:A1 0.000144053
40 *1579:A2 *416:27 0
41 *1580:A1 *1593:A1 0.000115382
42 *1588:A1 *1498:A1 0.000104577
43 *1588:A1 *416:27 0
44 *1588:A1 *416:92 0
45 *1590:A1 *1593:A1 5.01876e-05
46 *1590:A1 *416:27 0.000379274
47 *1591:A2 *416:27 4.01733e-06
48 *1592:B *1593:A1 3.64107e-05
49 *124:55 *1498:A1 8.54511e-05
50 *232:21 *1498:A1 0.000192074
51 *233:12 *416:35 0
52 *234:14 *1504:A1 0.000122904
53 *234:14 *416:35 2.34305e-05
54 *236:56 *1500:A1 0.000277821
55 *237:8 *1362:I 3.56086e-05
56 *237:8 *1500:A1 0.00041564
57 *238:18 *1498:A1 8.55242e-05
58 *238:18 *1504:A1 9.03134e-05
59 *245:50 *1504:A1 3.08902e-05
60 *245:54 *1504:A1 5.76373e-06
61 *281:6 *1500:A1 0
62 *303:26 *1498:A1 0.000317494
63 *303:26 *1504:A1 8.91905e-05
64 *303:26 *416:35 0.000424397
65 *407:53 *1500:A1 0.000489911
66 *407:53 *416:52 0.000197186
67 *407:53 *416:61 0.000535132
*RES
1 *1704:Q *416:4 4.5 
2 *416:4 *1593:A1 15.704 
3 *416:4 *416:27 8.68 
4 *416:27 *416:35 10.824 
5 *416:35 *1504:A1 10.672 
6 *416:35 *416:52 0.684 
7 *416:52 *1493:A1 9 
8 *416:52 *416:61 1.444 
9 *416:61 *416:63 4.5 
10 *416:63 *1550:A1 4.5 
11 *416:63 *1362:I 5.868 
12 *416:61 *1500:A1 12.496 
13 *416:27 *416:92 4.88 
14 *416:92 *1498:A1 15.552 
15 *416:92 *1494:A1 4.5 
*END

*D_NET *417 0.0149229
*CONN
*I *1425:A1 I *D gf180mcu_fd_sc_mcu7t5v0__nand3_1
*I *1421:A1 I *D gf180mcu_fd_sc_mcu7t5v0__nand2_1
*I *1683:A1 I *D gf180mcu_fd_sc_mcu7t5v0__nand3_1
*I *1429:A1 I *D gf180mcu_fd_sc_mcu7t5v0__nand3_1
*I *1417:A1 I *D gf180mcu_fd_sc_mcu7t5v0__nand3_1
*I *1675:A1 I *D gf180mcu_fd_sc_mcu7t5v0__nand3_1
*I *1671:A1 I *D gf180mcu_fd_sc_mcu7t5v0__nand2_1
*I *1679:A1 I *D gf180mcu_fd_sc_mcu7t5v0__nand3_1
*I *1811:Z O *D gf180mcu_fd_sc_mcu7t5v0__dlyb_1
*CAP
1 *1425:A1 0
2 *1421:A1 0
3 *1683:A1 0.00013925
4 *1429:A1 3.46972e-05
5 *1417:A1 3.52241e-05
6 *1675:A1 0.00012499
7 *1671:A1 2.51174e-05
8 *1679:A1 2.00116e-05
9 *1811:Z 0.0018854
10 *417:80 0.000265782
11 *417:67 0.000166812
12 *417:37 0.000150108
13 *417:28 0.00054791
14 *417:22 0.000587407
15 *417:20 0.000675175
16 *417:14 0.00254082
17 *1417:A1 *1417:A2 2.49387e-05
18 *1417:A1 *1421:A2 4.58601e-06
19 *1429:A1 *1429:A2 4.58601e-06
20 *1671:A1 *1473:B2 7.98484e-05
21 *1675:A1 *1671:A2 0
22 *1675:A1 *1679:A2 9.58227e-05
23 *1683:A1 *1429:A2 3.33508e-05
24 *417:14 *1636:A1 1.17762e-05
25 *417:14 *1637:B2 0.000137776
26 *417:14 *1639:B2 1.3758e-05
27 *417:14 *1641:B1 0
28 *417:14 *1645:B 0
29 *417:14 *1832:I 0.000503783
30 *417:14 *457:23 7.54445e-06
31 *417:14 *458:34 3.15134e-05
32 *417:14 *467:46 0.00182296
33 *417:14 *467:65 0.000562067
34 *417:14 *467:80 0.000125712
35 *417:14 *483:12 1.3758e-05
36 *417:20 *1421:A2 3.08902e-05
37 *417:20 *1473:B2 2.11796e-05
38 *417:20 *1536:I0 2.57058e-06
39 *417:20 *1627:B2 5.09837e-05
40 *417:20 *1628:A1 0.00015752
41 *417:20 *478:10 0
42 *417:20 *479:10 0
43 *417:22 *1421:A2 9.26705e-05
44 *417:22 *1473:B2 5.14116e-06
45 *417:28 *1417:A2 1.69506e-05
46 *417:28 *1473:B2 0.000136225
47 *417:28 *1644:A1 1.2339e-05
48 *417:67 *1421:A2 0.000207605
49 *417:80 *1417:A2 6.21288e-05
50 *417:80 *1421:A2 0.000408653
51 *1418:A2 *417:20 1.3458e-05
52 *1422:B1 *417:22 2.80879e-05
53 *1422:B1 *417:28 0.000268158
54 *1426:A2 *417:20 3.07734e-05
55 *1628:A2 *417:20 0.000134206
56 *1630:A2 *417:20 1.36289e-05
57 *1676:A2 *1671:A1 0.000272143
58 *1676:A2 *1675:A1 0.000342472
59 *1680:A2 *1679:A1 7.32209e-05
60 *1680:A2 *417:28 0.000659592
61 *1683:A3 *1683:A1 1.9924e-05
62 *1684:A2 *417:67 5.40492e-05
63 *1684:A2 *417:80 1.09905e-05
64 *1725:CLK *1429:A1 2.49387e-05
65 *1725:CLK *1683:A1 2.05506e-05
66 *1728:D *417:14 0.000246139
67 *1729:D *417:14 2.60089e-05
68 *1776:I *417:67 1.33998e-05
69 *160:42 *1675:A1 1.97747e-05
70 *160:42 *417:28 0
71 *160:51 *417:20 0
72 *327:31 *417:14 0
73 *370:16 *1683:A1 5.76373e-06
74 *371:12 *1671:A1 0.000263561
75 *371:12 *1675:A1 0.000473212
76 *371:12 *1683:A1 0
77 *392:44 *1675:A1 9.17202e-06
78 *396:21 *417:14 2.23652e-05
*RES
1 *1811:Z *417:14 31.984 
2 *417:14 *417:20 8.756 
3 *417:20 *417:22 0.38 
4 *417:22 *417:28 4.788 
5 *417:28 *1679:A1 4.728 
6 *417:28 *417:37 4.5 
7 *417:37 *1671:A1 9.912 
8 *417:37 *1675:A1 11.052 
9 *417:22 *417:67 5.184 
10 *417:67 *1417:A1 9.228 
11 *417:67 *417:80 5.64 
12 *417:80 *1429:A1 4.728 
13 *417:80 *1683:A1 5.564 
14 *417:20 *1421:A1 4.5 
15 *417:14 *1425:A1 9 
*END

*D_NET *418 0.00258797
*CONN
*I *1808:I I *D gf180mcu_fd_sc_mcu7t5v0__dlyb_1
*I *1812:Z O *D gf180mcu_fd_sc_mcu7t5v0__dlyb_1
*CAP
1 *1808:I 0.000531524
2 *1812:Z 0.000531524
3 *1808:I *1610:B2 8.55242e-05
4 *1808:I *1612:B2 0.000326528
5 *1808:I *1805:I 9.20963e-05
6 *1808:I *1837:I 0.000142809
7 *1808:I *424:10 0.000472602
8 *1808:I *460:66 2.97097e-05
9 *1808:I *465:12 2.29198e-06
10 *1808:I *468:101 0.000100156
11 *1717:CLK *1808:I 0.00014957
12 *1718:D *1808:I 0
13 *1719:D *1808:I 0.00012363
*RES
1 *1812:Z *1808:I 23.548 
*END

*D_NET *419 0.00455806
*CONN
*I *1371:I I *D gf180mcu_fd_sc_mcu7t5v0__clkinv_1
*I *1489:A1 I *D gf180mcu_fd_sc_mcu7t5v0__nand3_1
*I *1487:A1 I *D gf180mcu_fd_sc_mcu7t5v0__nand2_1
*I *1813:Z O *D gf180mcu_fd_sc_mcu7t5v0__dlyb_1
*CAP
1 *1371:I 0
2 *1489:A1 0.000224052
3 *1487:A1 2.73362e-05
4 *1813:Z 0.000291437
5 *419:18 0.000783748
6 *419:12 0.000823796
7 *1489:A1 *1487:A2 5.22865e-05
8 *1489:A1 *1606:A2 0.000539421
9 *1489:A1 *420:56 0.000536039
10 *1489:A1 *420:71 7.83779e-05
11 *1489:A1 *420:82 0.000186796
12 *419:18 *1606:A2 0.000431535
13 *1490:B *1489:A1 0.000367372
14 *1529:A2 *1489:A1 6.80238e-06
15 *1715:D *419:18 8.26254e-06
16 *227:6 *1489:A1 0.00011528
17 *230:14 *1489:A1 8.55242e-05
*RES
1 *1813:Z *419:12 15.476 
2 *419:12 *419:18 3.572 
3 *419:18 *1487:A1 4.728 
4 *419:18 *1489:A1 8.528 
5 *419:12 *1371:I 4.5 
*END

*D_NET *420 0.0372997
*CONN
*I *1534:I0 I *D gf180mcu_fd_sc_mcu7t5v0__mux2_2
*I *1569:A1 I *D gf180mcu_fd_sc_mcu7t5v0__aoi21_1
*I *1596:I1 I *D gf180mcu_fd_sc_mcu7t5v0__mux2_2
*I *1488:A1 I *D gf180mcu_fd_sc_mcu7t5v0__nor2_1
*I *1490:A1 I *D gf180mcu_fd_sc_mcu7t5v0__oai21_1
*I *1607:A1 I *D gf180mcu_fd_sc_mcu7t5v0__and2_1
*I *1489:A2 I *D gf180mcu_fd_sc_mcu7t5v0__nand3_1
*I *1551:A1 I *D gf180mcu_fd_sc_mcu7t5v0__oai31_1
*I *1814:Z O *D gf180mcu_fd_sc_mcu7t5v0__dlyb_1
*CAP
1 *1534:I0 0.0010417
2 *1569:A1 0
3 *1596:I1 0.00125694
4 *1488:A1 0.000108381
5 *1490:A1 0
6 *1607:A1 0.000180189
7 *1489:A2 3.28034e-05
8 *1551:A1 0.000867535
9 *1814:Z 0.0049681
10 *420:82 0.00159142
11 *420:71 0.000241265
12 *420:56 0.000269832
13 *420:47 0.000978454
14 *420:35 0.000913732
15 *420:33 0.00264411
16 *420:12 0.00739549
17 *1488:A1 *1606:A2 1.05195e-05
18 *1551:A1 *1545:A1 3.1394e-06
19 *1551:A1 *487:32 6.48194e-05
20 *1551:A1 *487:60 0.00040599
21 *1596:I1 *467:86 0.000740387
22 *1596:I1 *467:92 9e-05
23 *1607:A1 *1376:I 7.45328e-07
24 *1607:A1 *488:10 0
25 *420:47 *467:98 0.00060514
26 *420:56 *1376:I 1.91917e-06
27 *420:56 *467:98 4.24903e-05
28 *420:71 *1376:I 3.84832e-06
29 *420:82 *488:10 6.75854e-05
30 *1488:A2 *1488:A1 9.88736e-06
31 *1488:A2 *1607:A1 0.000151949
32 *1488:A2 *420:82 7.41951e-05
33 *1489:A1 *420:56 0.000536039
34 *1489:A1 *420:71 7.83779e-05
35 *1489:A1 *420:82 0.000186796
36 *1495:A1 *1534:I0 0.000126964
37 *1501:A1 *1534:I0 1.31444e-05
38 *1503:B1 *1534:I0 0.000135941
39 *1506:A1 *420:47 4.87601e-06
40 *1507:B2 *1534:I0 6.05166e-05
41 *1527:A2 *1551:A1 0
42 *1532:A1 *1534:I0 0.000260709
43 *1542:B *1534:I0 0.000444436
44 *1546:A1 *420:47 8.15645e-05
45 *1551:A2 *1551:A1 2.03665e-05
46 *1551:A3 *1551:A1 0.000101235
47 *1551:B *1551:A1 7.67644e-05
48 *1554:A2 *1534:I0 0.000324233
49 *1562:A3 *1551:A1 0
50 *1566:A2 *1534:I0 0.000213194
51 *1569:A2 *1534:I0 0.000495745
52 *1579:A1 *1551:A1 2.86762e-07
53 *1596:I0 *1596:I1 1.85245e-05
54 *1596:S *1596:I1 6.74997e-05
55 *1687:D *1534:I0 0.000206333
56 *1705:D *1596:I1 0
57 *1707:CLK *1596:I1 1.36808e-05
58 *1782:I *1488:A1 0
59 *1810:I *1596:I1 0
60 *1834:I *1551:A1 6.64889e-05
61 *135:8 *1534:I0 9.90652e-05
62 *135:32 *1534:I0 0.000266124
63 *140:20 *1596:I1 7.96395e-05
64 *227:6 *420:71 9.88736e-06
65 *227:6 *420:82 7.195e-05
66 *230:14 *420:47 0.00060514
67 *230:14 *420:56 0.000394484
68 *233:8 *1551:A1 4.35513e-05
69 *234:14 *1551:A1 0.0001877
70 *238:18 *1551:A1 0
71 *239:14 *1534:I0 0.000229147
72 *244:8 *1551:A1 0.00114628
73 *244:47 *1534:I0 1.41096e-05
74 *244:47 *420:35 1.75056e-06
75 *244:47 *420:47 1.56877e-05
76 *245:50 *1551:A1 0.000127519
77 *245:69 *1534:I0 0.000228445
78 *264:22 *420:33 0.000359159
79 *264:53 *420:12 0.0021843
80 *264:53 *420:33 0.000254152
81 *270:16 *1534:I0 1.13717e-05
82 *270:16 *420:35 1.53123e-05
83 *270:16 *420:47 8.75518e-05
84 *271:10 *1534:I0 0.000258279
85 *279:14 *1551:A1 6.16636e-05
86 *316:23 *1596:I1 4.27914e-05
87 *381:12 *1534:I0 0.000299332
88 *381:14 *1534:I0 0.000716571
89 *381:43 *1596:I1 0.00013771
90 *400:10 *1596:I1 0.000172142
91 *400:16 *1596:I1 1.98256e-05
92 *400:16 *1607:A1 0.000716809
93 *400:16 *420:82 2.41132e-05
94 *401:20 *1596:I1 0
95 *401:20 *420:82 0
96 *407:53 *1551:A1 1.31444e-05
97 *412:32 *1551:A1 1.60242e-05
98 *416:35 *1551:A1 1.71854e-05
99 *416:52 *1551:A1 5.93437e-05
100 *416:61 *1551:A1 1.61066e-05
*RES
1 *1814:Z *420:12 33.412 
2 *420:12 *1551:A1 21.86 
3 *420:12 *420:33 10.352 
4 *420:33 *420:35 0.228 
5 *420:35 *420:47 20.72 
6 *420:47 *1489:A2 4.728 
7 *420:47 *420:56 1.596 
8 *420:56 *1607:A1 15.476 
9 *420:56 *420:71 0.228 
10 *420:71 *1490:A1 4.5 
11 *420:71 *420:82 6.324 
12 *420:82 *1488:A1 9.532 
13 *420:82 *1596:I1 19.868 
14 *420:35 *1569:A1 9 
15 *420:33 *1534:I0 21.236 
*END

*D_NET *421 0.00364974
*CONN
*I *1610:B2 I *D gf180mcu_fd_sc_mcu7t5v0__aoi22_1
*I *1836:I I *D gf180mcu_fd_sc_mcu7t5v0__dlyb_1
*I *1717:Q O *D gf180mcu_fd_sc_mcu7t5v0__dffq_1
*CAP
1 *1610:B2 0.000355891
2 *1836:I 0.000314834
3 *1717:Q 4.71632e-05
4 *421:8 0.000717889
5 *1610:B2 *1610:B1 2.96621e-05
6 *1610:B2 *1611:A1 7.73662e-05
7 *1610:B2 *1614:B1 7.47365e-06
8 *1610:B2 *465:25 7.11225e-05
9 *1610:B2 *468:38 1.18988e-05
10 *1836:I *1614:B1 3.60313e-05
11 *1836:I *1614:B2 0.000780483
12 *421:8 *1614:B1 5.76063e-06
13 ADDR_O[0] *1836:I 0
14 ADDR_O[3] *1836:I 0
15 *1457:A2 *1610:B2 0
16 *1611:A2 *1610:B2 0.000115626
17 *1617:A2 *1836:I 0.00015172
18 *1717:D *1610:B2 0.000580759
19 *1717:D *1836:I 8.55242e-05
20 *1808:I *1610:B2 8.55242e-05
21 *191:46 *1610:B2 2.6126e-05
22 *367:12 *1836:I 0.000107858
23 *367:31 *1836:I 4.10312e-05
*RES
1 *1717:Q *421:8 4.88 
2 *421:8 *1836:I 17.072 
3 *421:8 *1610:B2 7.768 
*END

*D_NET *422 0.00336019
*CONN
*I *1837:I I *D gf180mcu_fd_sc_mcu7t5v0__dlyb_1
*I *1612:B2 I *D gf180mcu_fd_sc_mcu7t5v0__aoi22_1
*I *1718:Q O *D gf180mcu_fd_sc_mcu7t5v0__dffq_1
*CAP
1 *1837:I 7.99497e-06
2 *1612:B2 0.000219489
3 *1718:Q 0.000188332
4 *422:8 0.000415815
5 *1612:B2 *424:10 0.00033338
6 *1612:B2 *468:6 0.000128339
7 *1612:B2 *468:38 5.82304e-06
8 *1837:I *424:10 0.000115621
9 *1615:A2 *1612:B2 2.57864e-06
10 *1615:A2 *422:8 0.000303303
11 *1719:D *422:8 0.000127259
12 *1719:CLK *1612:B2 9.20629e-05
13 *1719:CLK *422:8 0.000417123
14 *1797:I *1612:B2 0.000340961
15 *1808:I *1612:B2 0.000326528
16 *1808:I *1837:I 0.000142809
17 *208:16 *1612:B2 0.000192769
*RES
1 *1718:Q *422:8 11.508 
2 *422:8 *1612:B2 11.888 
3 *422:8 *1837:I 9.38 
*END

*D_NET *423 0.00625279
*CONN
*I *1838:I I *D gf180mcu_fd_sc_mcu7t5v0__dlyb_1
*I *1614:B2 I *D gf180mcu_fd_sc_mcu7t5v0__aoi22_1
*I *1719:Q O *D gf180mcu_fd_sc_mcu7t5v0__dffq_1
*CAP
1 *1838:I 0.0003576
2 *1614:B2 0.000332342
3 *1719:Q 0
4 *423:4 0.000689943
5 *1614:B2 *466:57 0.000342528
6 *1838:I *466:57 5.20981e-05
7 ADDR_O[0] *1614:B2 0.000918586
8 ADDR_O[1] *1838:I 7.04824e-05
9 ADDR_O[3] *1614:B2 0.00264948
10 *1617:A2 *1838:I 0
11 *1619:A2 *1838:I 3.67323e-05
12 *1718:D *1838:I 7.24161e-06
13 *1718:CLK *1838:I 1.52691e-05
14 *1836:I *1614:B2 0.000780483
*RES
1 *1719:Q *423:4 4.5 
2 *423:4 *1614:B2 22.012 
3 *423:4 *1838:I 15.78 
*END

*D_NET *424 0.00570435
*CONN
*I *1616:B2 I *D gf180mcu_fd_sc_mcu7t5v0__aoi22_1
*I *1839:I I *D gf180mcu_fd_sc_mcu7t5v0__dlyb_1
*I *1720:Q O *D gf180mcu_fd_sc_mcu7t5v0__dffq_1
*CAP
1 *1616:B2 0
2 *1839:I 0.000694152
3 *1720:Q 0.000640824
4 *424:10 0.00133498
5 *1839:I *1368:I 2.07505e-05
6 *1839:I *453:46 2.95445e-05
7 *1839:I *460:66 2.11881e-05
8 *424:10 *1805:I 0.000159281
9 *424:10 *460:66 1.97166e-05
10 ADDR_O[3] *1839:I 0
11 *1382:I *1839:I 0
12 *1443:A1 *1839:I 9.26705e-05
13 *1443:A2 *1839:I 0.000186829
14 *1450:A2 *1839:I 0.00045797
15 *1457:A3 *1839:I 8.65967e-06
16 *1612:B2 *424:10 0.00033338
17 *1615:A2 *1839:I 1.28891e-05
18 *1615:A2 *424:10 0.000267957
19 *1616:A1 *1839:I 0.000151949
20 *1617:A2 *1839:I 1.94858e-05
21 *1617:A2 *424:10 0.00024155
22 *1718:CLK *424:10 1.52691e-05
23 *1753:D *1839:I 1.20961e-05
24 *1753:CLK *1839:I 0
25 *1808:I *424:10 0.000472602
26 *1837:I *424:10 0.000115621
27 *197:25 *1839:I 0.000119807
28 *367:31 *1839:I 9.1848e-05
29 *404:16 *1839:I 0.000183334
*RES
1 *1720:Q *424:10 15.992 
2 *424:10 *1839:I 14.852 
3 *424:10 *1616:B2 9 
*END

*D_NET *425 0.00325683
*CONN
*I *1840:I I *D gf180mcu_fd_sc_mcu7t5v0__dlyb_1
*I *1618:B2 I *D gf180mcu_fd_sc_mcu7t5v0__aoi22_1
*I *1721:Q O *D gf180mcu_fd_sc_mcu7t5v0__dffq_1
*CAP
1 *1840:I 0.000324518
2 *1618:B2 0.000287137
3 *1721:Q 0
4 *425:4 0.000611655
5 *1618:B2 *453:86 1.17512e-05
6 *1618:B2 *466:57 3.58062e-05
7 *1618:B2 *466:97 0.000107261
8 *1840:I *1620:B2 0.000417315
9 *1840:I *1841:I 0.000251625
10 *1840:I *453:16 0.000243562
11 *1840:I *466:57 1.42543e-05
12 *1721:D *1840:I 6.31437e-06
13 *1722:CLK *1618:B2 1.02578e-05
14 *1754:CLK *1618:B2 0.000431543
15 *1772:I *1618:B2 0.00026592
16 *1772:I *1840:I 5.71067e-05
17 *1812:I *1840:I 0.000103814
18 *391:44 *1840:I 7.69927e-05
*RES
1 *1721:Q *425:4 4.5 
2 *425:4 *1618:B2 7.388 
3 *425:4 *1840:I 16.768 
*END

*D_NET *426 0.00646665
*CONN
*I *1841:I I *D gf180mcu_fd_sc_mcu7t5v0__dlyb_1
*I *1620:B2 I *D gf180mcu_fd_sc_mcu7t5v0__aoi22_1
*I *1722:Q O *D gf180mcu_fd_sc_mcu7t5v0__dffq_1
*CAP
1 *1841:I 0.00063336
2 *1620:B2 0.000213376
3 *1722:Q 0.000487533
4 *426:12 0.00133427
5 *1620:B2 *1843:I 0
6 *1620:B2 *453:16 0.000373799
7 *1841:I *1617:A1 0
8 *1841:I *453:16 0.000315035
9 ADDR_O[2] *1841:I 7.59633e-05
10 ADDR_O[4] *426:12 6.65506e-05
11 ADDR_O[5] *426:12 0.000707866
12 ADDR_O[7] *426:12 8.55819e-05
13 *1619:A2 *1620:B2 0.000588208
14 *1720:D *1841:I 2.73945e-05
15 *1721:D *1620:B2 4.01364e-05
16 *1721:D *1841:I 0.000118459
17 *1800:I *1841:I 0
18 *1812:I *1620:B2 3.60988e-06
19 *1812:I *426:12 0.000359295
20 *1840:I *1620:B2 0.000417315
21 *1840:I *1841:I 0.000251625
22 *391:59 *1620:B2 4.47565e-05
23 *391:59 *426:12 0.000322519
*RES
1 *1722:Q *426:12 13.94 
2 *426:12 *1620:B2 11.888 
3 *426:12 *1841:I 13.94 
*END

*D_NET *427 0.00263622
*CONN
*I *1842:I I *D gf180mcu_fd_sc_mcu7t5v0__dlyb_1
*I *1622:B2 I *D gf180mcu_fd_sc_mcu7t5v0__aoi22_1
*I *1723:Q O *D gf180mcu_fd_sc_mcu7t5v0__dffq_1
*CAP
1 *1842:I 7.11763e-05
2 *1622:B2 0
3 *1723:Q 0.000649772
4 *427:12 0.000720948
5 *1842:I *453:93 5.75052e-05
6 *1842:I *453:100 2.58957e-05
7 *427:12 *453:93 3.73535e-05
8 ADDR_O[6] *427:12 0
9 ADDR_O[7] *427:12 0.000142809
10 *1722:D *427:12 0
11 *1723:D *427:12 0.000622387
12 *1772:I *427:12 2.07689e-05
13 *160:14 *1842:I 0.000196417
14 *392:29 *1842:I 4.58601e-06
15 *392:29 *427:12 1.3758e-05
16 *392:44 *1842:I 7.28466e-05
*RES
1 *1723:Q *427:12 18.212 
2 *427:12 *1622:B2 4.5 
3 *427:12 *1842:I 5.488 
*END

*D_NET *428 0.00589586
*CONN
*I *1671:A2 I *D gf180mcu_fd_sc_mcu7t5v0__nand2_1
*I *1815:Z O *D gf180mcu_fd_sc_mcu7t5v0__dlyb_1
*CAP
1 *1671:A2 0.000952702
2 *1815:Z 0.000952702
3 *1671:A2 *1473:B2 4.50449e-05
4 *1671:A2 *1679:A2 0.00163228
5 *1671:A2 *1843:I 0.0011426
6 *1671:A2 *453:119 0.000135735
7 *1671:A2 *466:97 0
8 *1625:A2 *1671:A2 0.000143101
9 *1643:B *1671:A2 0.00016965
10 *1675:A1 *1671:A2 0
11 *1675:A3 *1671:A2 0.000351308
12 *1676:A2 *1671:A2 0.000355471
13 *1680:A2 *1671:A2 1.52768e-05
14 *1724:D *1671:A2 0
15 *1801:I *1671:A2 0
16 *327:14 *1671:A2 0
*RES
1 *1815:Z *1671:A2 37.412 
*END

*D_NET *429 0.00440789
*CONN
*I *1843:I I *D gf180mcu_fd_sc_mcu7t5v0__dlyb_1
*I *1624:B2 I *D gf180mcu_fd_sc_mcu7t5v0__aoi22_1
*I *1724:Q O *D gf180mcu_fd_sc_mcu7t5v0__dffq_1
*CAP
1 *1843:I 0.000642855
2 *1624:B2 0.000364133
3 *1724:Q 0.000307868
4 *429:8 0.00131486
5 *1624:B2 *1675:A2 0.000257943
6 *1624:B2 *453:119 4.29636e-06
7 *1843:I *1675:A2 0.000142194
8 *1843:I *466:97 0
9 ADDR_O[6] *1843:I 7.5579e-05
10 *1619:A2 *1843:I 0
11 *1620:A1 *1624:B2 3.22131e-05
12 *1620:B2 *1843:I 0
13 *1671:A2 *1843:I 0.0011426
14 *1722:D *1843:I 0
15 *1800:I *1843:I 0
16 *1801:I *1843:I 0
17 *1815:I *429:8 2.20475e-05
18 *1816:I *429:8 0
19 *160:14 *1624:B2 9.26705e-05
20 *327:14 *1624:B2 8.64281e-06
21 *372:12 *1624:B2 0
*RES
1 *1724:Q *429:8 10.9 
2 *429:8 *1624:B2 11.888 
3 *429:8 *1843:I 14.396 
*END

*D_NET *430 0.0154265
*CONN
*I *1844:I I *D gf180mcu_fd_sc_mcu7t5v0__dlyb_1
*I *1769:I I *D gf180mcu_fd_sc_mcu7t5v0__buf_1
*I *1643:A1 I *D gf180mcu_fd_sc_mcu7t5v0__aoi21_1
*I *1733:Q O *D gf180mcu_fd_sc_mcu7t5v0__dffq_1
*CAP
1 *1844:I 0.000106998
2 *1769:I 0.000625186
3 *1643:A1 0.000327157
4 *1733:Q 0.000222581
5 *430:25 0.00297697
6 *430:8 0.00279452
7 *1769:I *1641:A1 0
8 *1769:I *1641:B2 2.89888e-05
9 *1769:I *1853:I 0.001076
10 *1769:I *484:12 6.03845e-05
11 *1844:I *1645:A2 0
12 *1844:I *1852:I 2.74753e-05
13 *1844:I *1853:I 0.000255722
14 *430:25 *1417:A2 0.000920146
15 *430:25 *1421:A2 0.000124318
16 *430:25 *1425:A2 0.00034448
17 *430:25 *1641:A1 0
18 *430:25 *1645:A2 0
19 *430:25 *1845:I 0.000307983
20 *430:25 *1846:I 0.00174526
21 *430:25 *1847:I 0.000370277
22 *430:25 *1848:I 0.00055952
23 *430:25 *1850:I 0.000205682
24 *430:25 *1851:I 0.000858374
25 *430:25 *1852:I 3.73535e-05
26 CYC_O *1844:I 0
27 CYC_O *430:25 0
28 DAT_O[1] *430:25 0
29 DAT_O[2] *430:25 0
30 DAT_O[3] *430:25 0
31 DAT_O[6] *430:25 0
32 DAT_O[7] *430:25 0
33 WE_O *1769:I 0
34 *1642:A2 *1769:I 1.70306e-05
35 *1724:D *1643:A1 5.27305e-05
36 *1726:D *430:25 1.27163e-05
37 *1729:D *430:25 0.000197929
38 *1732:D *1769:I 0
39 *1733:D *1643:A1 0.000142809
40 *1801:I *430:25 0.000252879
41 *1818:I *430:8 0.000151957
42 *1819:I *430:8 0
43 *371:12 *1643:A1 0.000307974
44 *392:48 *1643:A1 0.00031512
*RES
1 *1733:Q *430:8 10.596 
2 *430:8 *1643:A1 11.812 
3 *430:8 *430:25 26.008 
4 *430:25 *1769:I 19.504 
5 *430:25 *1844:I 5.488 
*END

*D_NET *431 0.00428719
*CONN
*I *1845:I I *D gf180mcu_fd_sc_mcu7t5v0__dlyb_1
*I *1627:A1 I *D gf180mcu_fd_sc_mcu7t5v0__aoi22_1
*I *1725:Q O *D gf180mcu_fd_sc_mcu7t5v0__dffq_1
*CAP
1 *1845:I 7.71179e-05
2 *1627:A1 0.000252609
3 *1725:Q 0.000495446
4 *431:10 0.000825173
5 *1627:A1 *1425:A2 0.000660764
6 *1627:A1 *1627:A2 0.000203975
7 *1627:A1 *1629:A1 0.000146597
8 *1627:A1 *432:12 1.90639e-05
9 *431:10 *432:12 0.00012377
10 DAT_O[0] *431:10 3.16765e-06
11 *1425:A3 *1627:A1 8.55242e-05
12 *1630:A2 *1627:A1 0.000380822
13 *1776:I *1627:A1 5.95125e-05
14 *1801:I *1845:I 3.94662e-05
15 *1801:I *431:10 0.000126269
16 *1821:I *431:10 3.73535e-05
17 *1822:I *431:10 0.000275258
18 *395:14 *1627:A1 0.000167321
19 *430:25 *1845:I 0.000307983
*RES
1 *1725:Q *431:10 12.952 
2 *431:10 *1627:A1 12.952 
3 *431:10 *1845:I 9.836 
*END

*D_NET *432 0.00479677
*CONN
*I *1846:I I *D gf180mcu_fd_sc_mcu7t5v0__dlyb_1
*I *1629:A1 I *D gf180mcu_fd_sc_mcu7t5v0__aoi22_1
*I *1726:Q O *D gf180mcu_fd_sc_mcu7t5v0__dffq_1
*CAP
1 *1846:I 0.000211654
2 *1629:A1 0.000201112
3 *1726:Q 0.000377441
4 *432:12 0.000790208
5 *1846:I *1847:I 0.000796594
6 DAT_O[0] *432:12 0.000154451
7 *1627:A1 *1629:A1 0.000146597
8 *1627:A1 *432:12 1.90639e-05
9 *1726:D *1846:I 8.17308e-05
10 *1801:I *432:12 0.000148889
11 *389:242 *1846:I 0
12 *430:25 *1846:I 0.00174526
13 *431:10 *432:12 0.00012377
*RES
1 *1726:Q *432:12 12.116 
2 *432:12 *1629:A1 10.596 
3 *432:12 *1846:I 13.484 
*END

*D_NET *433 0.00416756
*CONN
*I *1847:I I *D gf180mcu_fd_sc_mcu7t5v0__dlyb_1
*I *1631:A1 I *D gf180mcu_fd_sc_mcu7t5v0__aoi22_1
*I *1727:Q O *D gf180mcu_fd_sc_mcu7t5v0__dffq_1
*CAP
1 *1847:I 0.00042517
2 *1631:A1 0.000170501
3 *1727:Q 0.00040552
4 *433:10 0.00100119
5 *1631:A1 *454:8 0.000523959
6 *1631:A1 *454:25 2.9536e-05
7 DAT_O[1] *433:10 0.000384379
8 DAT_O[2] *433:10 2.09451e-05
9 DAT_O[4] *1847:I 3.94905e-05
10 *1846:I *1847:I 0.000796594
11 *389:242 *1847:I 0
12 *430:25 *1847:I 0.000370277
*RES
1 *1727:Q *433:10 11.888 
2 *433:10 *1631:A1 10.748 
3 *433:10 *1847:I 13.18 
*END

*D_NET *434 0.00427179
*CONN
*I *1848:I I *D gf180mcu_fd_sc_mcu7t5v0__dlyb_1
*I *1633:A1 I *D gf180mcu_fd_sc_mcu7t5v0__aoi22_1
*I *1728:Q O *D gf180mcu_fd_sc_mcu7t5v0__dffq_1
*CAP
1 *1848:I 7.36611e-05
2 *1633:A1 0.000550342
3 *1728:Q 0.000460253
4 *434:10 0.00108426
5 *1633:A1 *1633:A2 7.83779e-05
6 *1633:A1 *1635:A1 0.000241395
7 *1633:A1 *454:29 5.10924e-05
8 *1633:A1 *458:19 0.00018435
9 DAT_O[2] *434:10 2.74661e-05
10 DAT_O[3] *1848:I 1.71429e-05
11 DAT_O[4] *1633:A1 0
12 DAT_O[4] *434:10 0
13 DAT_O[5] *434:10 6.04444e-06
14 *1728:D *1633:A1 3.48261e-05
15 *1729:D *1848:I 0.000149579
16 *1729:CLK *434:10 0.000659607
17 *1774:I *1633:A1 9.38804e-05
18 *430:25 *1848:I 0.00055952
*RES
1 *1728:Q *434:10 12.344 
2 *434:10 *1633:A1 12.952 
3 *434:10 *1848:I 10.444 
*END

*D_NET *435 0.00314968
*CONN
*I *1635:A1 I *D gf180mcu_fd_sc_mcu7t5v0__aoi22_1
*I *1849:I I *D gf180mcu_fd_sc_mcu7t5v0__dlyb_1
*I *1729:Q O *D gf180mcu_fd_sc_mcu7t5v0__dffq_1
*CAP
1 *1635:A1 0.000165525
2 *1849:I 0.000246906
3 *1729:Q 5.50669e-05
4 *435:8 0.000467498
5 *1635:A1 *1633:B2 5.76749e-06
6 *1635:A1 *1635:A2 0.000364611
7 *1635:A1 *1635:B1 0
8 *1635:A1 *444:33 5.1289e-05
9 *1635:A1 *454:29 0.000171993
10 *1849:I *454:25 0.000289689
11 *1849:I *467:65 0.000109841
12 *435:8 *454:25 2.96621e-05
13 *1633:A1 *1635:A1 0.000241395
14 *1636:A2 *1635:A1 4.50449e-05
15 *1728:D *1849:I 0.000279801
16 *1728:D *435:8 1.97747e-05
17 *1774:I *1635:A1 0.000102985
18 *395:25 *1849:I 0.000502835
*RES
1 *1729:Q *435:8 4.956 
2 *435:8 *1849:I 7.844 
3 *435:8 *1635:A1 15.932 
*END

*D_NET *436 0.00253812
*CONN
*I *1850:I I *D gf180mcu_fd_sc_mcu7t5v0__dlyb_1
*I *1637:A1 I *D gf180mcu_fd_sc_mcu7t5v0__aoi22_1
*I *1730:Q O *D gf180mcu_fd_sc_mcu7t5v0__dffq_1
*CAP
1 *1850:I 0.000163778
2 *1637:A1 0.000292938
3 *1730:Q 0.000322987
4 *436:10 0.000779703
5 *1637:A1 *1637:B1 0.000139333
6 *1637:A1 *1639:A2 6.95986e-05
7 *1637:A1 *454:57 1.5015e-05
8 *1850:I *1639:A2 0
9 *1850:I *1851:I 2.6126e-05
10 *436:10 *437:10 0
11 DAT_O[6] *436:10 6.22815e-05
12 DAT_O[7] *436:10 0
13 *1729:D *1637:A1 3.91889e-05
14 *1729:D *436:10 2.45791e-05
15 *1730:D *1637:A1 0.000396912
16 *430:25 *1850:I 0.000205682
*RES
1 *1730:Q *436:10 11.128 
2 *436:10 *1637:A1 11.888 
3 *436:10 *1850:I 10.292 
*END

*D_NET *437 0.00323542
*CONN
*I *1851:I I *D gf180mcu_fd_sc_mcu7t5v0__dlyb_1
*I *1639:A1 I *D gf180mcu_fd_sc_mcu7t5v0__aoi22_1
*I *1731:Q O *D gf180mcu_fd_sc_mcu7t5v0__dffq_1
*CAP
1 *1851:I 0.000210633
2 *1639:A1 0.000171425
3 *1731:Q 0.000343262
4 *437:10 0.00072532
5 *1851:I *1645:A2 0
6 *1851:I *454:84 0
7 DAT_O[5] *437:10 0.000147313
8 DAT_O[6] *437:10 0.000134564
9 DAT_O[7] *437:10 0.000197186
10 *1729:D *1639:A1 0.000317455
11 *1729:D *437:10 0.000103757
12 *1731:D *1639:A1 0
13 *1850:I *1851:I 2.6126e-05
14 *430:25 *1851:I 0.000858374
15 *436:10 *437:10 0
*RES
1 *1731:Q *437:10 11.888 
2 *437:10 *1639:A1 10.748 
3 *437:10 *1851:I 11.204 
*END

*D_NET *438 0.0021102
*CONN
*I *1852:I I *D gf180mcu_fd_sc_mcu7t5v0__dlyb_1
*I *1641:A1 I *D gf180mcu_fd_sc_mcu7t5v0__aoi22_1
*I *1732:Q O *D gf180mcu_fd_sc_mcu7t5v0__dffq_1
*CAP
1 *1852:I 0.000156311
2 *1641:A1 0.000384681
3 *1732:Q 0
4 *438:4 0.000540992
5 *1641:A1 *1641:A2 0.000564327
6 *1641:A1 *1641:B1 1.31444e-05
7 *1641:A1 *1645:A2 0.000379283
8 *1852:I *1645:A2 6.63508e-06
9 *1769:I *1641:A1 0
10 *1844:I *1852:I 2.74753e-05
11 *430:25 *1641:A1 0
12 *430:25 *1852:I 3.73535e-05
*RES
1 *1732:Q *438:4 4.5 
2 *438:4 *1641:A1 17.604 
3 *438:4 *1852:I 5.716 
*END

*D_NET *439 0.00301968
*CONN
*I *1675:A2 I *D gf180mcu_fd_sc_mcu7t5v0__nand3_1
*I *1816:Z O *D gf180mcu_fd_sc_mcu7t5v0__dlyb_1
*CAP
1 *1675:A2 0.000586633
2 *1816:Z 0.000586633
3 *1675:A2 *466:97 0
4 ADDR_O[6] *1675:A2 5.76373e-06
5 *1620:A1 *1675:A2 0.000315319
6 *1624:B2 *1675:A2 0.000257943
7 *1723:D *1675:A2 0
8 *1724:CLK *1675:A2 0.000248677
9 *1843:I *1675:A2 0.000142194
10 *160:14 *1675:A2 0.000180191
11 *160:29 *1675:A2 1.4689e-05
12 *160:42 *1675:A2 2.9378e-06
13 *392:44 *1675:A2 0.000678697
*RES
1 *1816:Z *1675:A2 23.7 
*END

*D_NET *440 0.00288722
*CONN
*I *1853:I I *D gf180mcu_fd_sc_mcu7t5v0__dlyb_1
*I *1769:Z O *D gf180mcu_fd_sc_mcu7t5v0__buf_1
*CAP
1 *1853:I 0.00070938
2 *1769:Z 0.00070938
3 *1853:I *1645:A2 5.67567e-05
4 *1853:I *441:6 0
5 CYC_O *1853:I 0
6 WE_O *1853:I 7.99821e-05
7 *1732:D *1853:I 0
8 *1769:I *1853:I 0.001076
9 *1844:I *1853:I 0.000255722
*RES
1 *1769:Z *1853:I 25.448 
*END

*D_NET *441 0.00163712
*CONN
*I *1645:A1 I *D gf180mcu_fd_sc_mcu7t5v0__aoi21_1
*I *1854:I I *D gf180mcu_fd_sc_mcu7t5v0__dlyb_1
*I *1734:Q O *D gf180mcu_fd_sc_mcu7t5v0__dffq_1
*CAP
1 *1645:A1 0
2 *1854:I 0.000205278
3 *1734:Q 7.69791e-05
4 *441:6 0.000282257
5 *441:6 *1645:A2 0.000139149
6 *1646:A2 *1854:I 0.000490931
7 *1811:I *1854:I 1.81333e-05
8 *1811:I *441:6 0.000424397
9 *1853:I *441:6 0
*RES
1 *1734:Q *441:6 5.64 
2 *441:6 *1854:I 16.008 
3 *441:6 *1645:A1 4.5 
*END

*D_NET *442 0.00676527
*CONN
*I *1528:I0 I *D gf180mcu_fd_sc_mcu7t5v0__mux2_2
*I *1855:I I *D gf180mcu_fd_sc_mcu7t5v0__dlyb_1
*I *1385:I I *D gf180mcu_fd_sc_mcu7t5v0__clkinv_1
*I *1686:Q O *D gf180mcu_fd_sc_mcu7t5v0__dffq_1
*CAP
1 *1528:I0 0
2 *1855:I 0.000423615
3 *1385:I 0.000592969
4 *1686:Q 0.000308557
5 *442:23 0.000489329
6 *442:8 0.000967239
7 *1855:I *1593:A2 0.000114964
8 *1855:I *448:27 0.00032464
9 *1508:A1 *442:8 3.02683e-05
10 *1527:A1 *1855:I 0
11 *1527:A2 *1855:I 0
12 *1528:S *1855:I 9.26705e-05
13 *1528:S *442:23 0.000441055
14 *1570:C *442:8 0
15 *1579:A1 *1855:I 0
16 *1579:B *1855:I 0
17 *1580:A1 *1855:I 8.55242e-05
18 *1580:A2 *1855:I 3.62081e-05
19 *1580:B *1855:I 0.000787065
20 *1582:A2 *1855:I 0.000119079
21 *1592:B *1855:I 5.55144e-05
22 *1594:A2 *1855:I 0.000730625
23 *233:24 *442:8 9.93353e-05
24 *244:8 *442:8 0
25 *244:14 *1385:I 0.000340568
26 *244:14 *1855:I 4.13055e-05
27 *244:14 *442:23 8.30183e-05
28 *244:76 *1855:I 0.000601724
*RES
1 *1686:Q *442:8 11.052 
2 *442:8 *1385:I 13.104 
3 *442:8 *442:23 5.64 
4 *442:23 *1855:I 11.264 
5 *442:23 *1528:I0 4.5 
*END

*D_NET *443 0.000903125
*CONN
*I *1856:I I *D gf180mcu_fd_sc_mcu7t5v0__dlyb_1
*I *1385:ZN O *D gf180mcu_fd_sc_mcu7t5v0__clkinv_1
*CAP
1 *1856:I 0.000411508
2 *1385:ZN 0.000411508
3 i2c_sda_out_pin_ctrl_n *1856:I 2.05953e-05
4 *1572:A2 *1856:I 5.95128e-05
*RES
1 *1385:ZN *1856:I 11.736 
*END

*D_NET *444 0.00956565
*CONN
*I *1540:S I *D gf180mcu_fd_sc_mcu7t5v0__mux2_2
*I *1541:S I *D gf180mcu_fd_sc_mcu7t5v0__mux2_2
*I *1539:S I *D gf180mcu_fd_sc_mcu7t5v0__mux2_2
*I *1538:S I *D gf180mcu_fd_sc_mcu7t5v0__mux2_2
*I *1537:S I *D gf180mcu_fd_sc_mcu7t5v0__mux2_2
*I *1824:Z O *D gf180mcu_fd_sc_mcu7t5v0__buf_2
*CAP
1 *1540:S 0
2 *1541:S 0.000301701
3 *1539:S 0.000231744
4 *1538:S 0.000591995
5 *1537:S 0
6 *1824:Z 0.000208356
7 *444:37 0.000595668
8 *444:33 0.000464186
9 *444:14 0.000398388
10 *1538:S *1538:I0 0.0006213
11 *1538:S *458:19 0
12 *1538:S *481:32 1.53689e-05
13 *1539:S *467:86 0.000119798
14 *1539:S *468:59 0.000787074
15 *1539:S *468:70 1.20079e-05
16 *1539:S *482:70 1.18942e-05
17 *1539:S *484:18 0.000251771
18 *1539:S *484:41 0
19 *1541:S *1541:I0 0.000665988
20 *1541:S *1541:I1 1.0313e-05
21 *1541:S *468:70 0.000780699
22 *1541:S *468:74 1.08681e-05
23 *1541:S *484:18 3.64967e-05
24 *444:14 *1537:I0 9.23657e-05
25 *444:14 *1631:B1 0
26 *444:14 *1631:B2 4.1227e-05
27 *444:14 *458:19 0.000255714
28 *444:14 *481:32 2.88187e-05
29 *444:33 *1538:I0 1.02578e-05
30 *444:33 *1539:I0 8.55242e-05
31 *444:33 *1540:I0 8.80166e-05
32 *444:33 *1633:B2 0
33 *444:33 *1635:B1 0.00020108
34 *444:33 *481:41 0.000794212
35 *444:33 *483:14 8.71673e-05
36 *444:33 *483:24 0.000143197
37 *444:37 *467:86 0.000397569
38 *1632:A2 *444:14 0.000111858
39 *1635:A1 *444:33 5.1289e-05
40 *1636:A2 *444:33 3.45824e-05
41 *1690:D *1538:S 2.02279e-05
42 *1690:CLK *1538:S 9.67157e-05
43 *1692:CLK *444:33 1.82069e-05
44 *1730:D *1539:S 1.5961e-05
45 *1730:D *444:37 0.000388757
46 *1775:I *1541:S 0.000340826
47 *1824:I *444:14 0.000146465
*RES
1 *1824:Z *444:14 15.856 
2 *444:14 *1537:S 4.5 
3 *444:14 *1538:S 6.704 
4 *1538:S *444:33 8.832 
5 *444:33 *444:37 6.552 
6 *444:37 *1539:S 11.888 
7 *444:37 *1541:S 13.18 
8 *444:33 *1540:S 4.5 
*END

*D_NET *445 0.00436075
*CONN
*I *1427:S I *D gf180mcu_fd_sc_mcu7t5v0__mux2_2
*I *1419:S I *D gf180mcu_fd_sc_mcu7t5v0__mux2_2
*I *1423:S I *D gf180mcu_fd_sc_mcu7t5v0__mux2_2
*I *1825:Z O *D gf180mcu_fd_sc_mcu7t5v0__buf_2
*CAP
1 *1427:S 7.57584e-05
2 *1419:S 0
3 *1423:S 0.00054067
4 *1825:Z 0.000277674
5 *445:16 0.000894142
6 *445:10 0.000706905
7 *1427:S *1427:I0 7.57844e-05
8 *445:10 *495:10 0.000333388
9 *445:16 *1427:I0 8.02751e-06
10 *445:16 *1509:I1 8.45236e-05
11 *1419:I1 *1423:S 3.93428e-05
12 *1419:I1 *445:16 0.000197159
13 *1423:I1 *1423:S 2.57058e-06
14 *1427:I1 *1427:S 0.000164594
15 *1427:I1 *445:10 0.000140935
16 *1427:I1 *445:16 0.00014396
17 *1736:D *445:10 2.97354e-06
18 *1736:CLK *445:10 0
19 *1747:D *1423:S 0.000611472
20 *1750:CLK *1423:S 2.35105e-05
21 *1750:CLK *445:16 3.73627e-05
22 *399:47 *1423:S 0
*RES
1 *1825:Z *445:10 16.008 
2 *445:10 *445:16 7.692 
3 *445:16 *1423:S 13.256 
4 *445:16 *1419:S 9 
5 *445:10 *1427:S 5.488 
*END

*D_NET *446 0.00707701
*CONN
*I *1681:S I *D gf180mcu_fd_sc_mcu7t5v0__mux2_2
*I *1677:S I *D gf180mcu_fd_sc_mcu7t5v0__mux2_2
*I *1673:S I *D gf180mcu_fd_sc_mcu7t5v0__mux2_2
*I *1826:Z O *D gf180mcu_fd_sc_mcu7t5v0__buf_2
*CAP
1 *1681:S 3.47114e-05
2 *1677:S 0.000208386
3 *1673:S 0.000284727
4 *1826:Z 0.000509349
5 *446:29 0.000476571
6 *446:12 0.00102755
7 *1677:S *1677:I0 8.55242e-05
8 *446:12 *463:125 8.21221e-05
9 *446:29 *1511:I1 8.74908e-05
10 *446:29 *1681:I0 0
11 *1403:A1 *446:12 4.29636e-06
12 *1469:A2 *1673:S 6.61128e-05
13 *1469:A2 *446:12 0.00115309
14 *1509:S1 *446:29 0.000493315
15 *1626:A2 *446:12 2.61316e-05
16 *1673:I1 *1673:S 0.000162632
17 *1673:I1 *446:12 8.62306e-05
18 *1677:I1 *1677:S 0.000482003
19 *1677:I1 *1681:S 0.000200343
20 *1681:I1 *1681:S 0.000158809
21 *1685:S *446:12 0.000540471
22 *1745:D *1677:S 0.000186941
23 *1745:D *1681:S 2.95445e-05
24 *339:22 *446:12 4.28994e-06
25 *389:23 *1673:S 5.35195e-05
26 *389:23 *446:29 3.55257e-06
27 *413:64 *1677:S 6.46739e-05
28 *414:70 *446:29 0.000564624
*RES
1 *1826:Z *446:12 18.364 
2 *446:12 *1673:S 15.628 
3 *446:12 *446:29 7.312 
4 *446:29 *1677:S 11.736 
5 *446:29 *1681:S 9.988 
*END

*D_NET *447 0.0100358
*CONN
*I *1603:S I *D gf180mcu_fd_sc_mcu7t5v0__mux2_2
*I *1602:S I *D gf180mcu_fd_sc_mcu7t5v0__mux2_2
*I *1601:S I *D gf180mcu_fd_sc_mcu7t5v0__mux2_2
*I *1600:S I *D gf180mcu_fd_sc_mcu7t5v0__mux2_2
*I *1599:S I *D gf180mcu_fd_sc_mcu7t5v0__mux2_2
*I *1827:Z O *D gf180mcu_fd_sc_mcu7t5v0__buf_2
*CAP
1 *1603:S 0.00050016
2 *1602:S 0
3 *1601:S 0.000496014
4 *1600:S 0
5 *1599:S 0.000250814
6 *1827:Z 0.000200257
7 *447:52 0.000633744
8 *447:23 0.000558616
9 *447:8 0.000647257
10 *1601:S *464:58 0.000793987
11 *447:8 *464:58 0
12 *1514:A2 *1603:S 1.5015e-05
13 *1514:A2 *447:52 0.000193231
14 *1515:A2 *447:8 0.00110913
15 *1515:A2 *447:23 0.000580622
16 *1518:A2 *1603:S 0
17 *1598:I0 *447:8 0.000382331
18 *1598:I1 *447:8 0.000213194
19 *1599:I0 *1599:S 0.000118466
20 *1599:I1 *1599:S 4.92411e-05
21 *1600:I0 *1601:S 9.26705e-05
22 *1600:I0 *447:23 0.000369754
23 *1600:I1 *1599:S 7.98054e-05
24 *1600:I1 *447:23 3.82104e-05
25 *1601:I0 *447:52 9.88736e-06
26 *1602:I1 *1603:S 6.17803e-05
27 *1602:I1 *447:52 0.000484567
28 *1603:I0 *1603:S 7.02034e-05
29 *1709:D *1599:S 0.000848846
30 *1710:D *1601:S 0
31 *1781:I *1601:S 8.76905e-05
32 *262:10 *447:8 0
33 *262:10 *447:23 0
34 *316:14 *447:8 0.000587475
35 *379:10 *1603:S 4.33001e-05
36 *379:16 *447:52 1.72008e-05
37 *383:10 *1599:S 0.000107732
38 *386:12 *1601:S 1.75634e-05
39 *386:18 *447:52 0.000310356
40 *387:12 *1603:S 3.25235e-05
41 *389:164 *1601:S 3.41282e-05
*RES
1 *1827:Z *447:8 13.332 
2 *447:8 *1599:S 12.268 
3 *447:8 *447:23 6.932 
4 *447:23 *1600:S 4.5 
5 *447:23 *1601:S 16.996 
6 *1601:S *447:52 6.552 
7 *447:52 *1602:S 4.5 
8 *447:52 *1603:S 16.844 
*END

*D_NET *448 0.00692528
*CONN
*I *1581:A2 I *D gf180mcu_fd_sc_mcu7t5v0__oai21_1
*I *1593:A2 I *D gf180mcu_fd_sc_mcu7t5v0__oai21_1
*I *1594:A1 I *D gf180mcu_fd_sc_mcu7t5v0__aoi21_1
*I *1582:A1 I *D gf180mcu_fd_sc_mcu7t5v0__aoi21_1
*I *1828:Z O *D gf180mcu_fd_sc_mcu7t5v0__clkbuf_1
*CAP
1 *1581:A2 0
2 *1593:A2 0.000157967
3 *1594:A1 0
4 *1582:A1 0.000177716
5 *1828:Z 0.000460805
6 *448:27 0.00025083
7 *448:12 0.000322295
8 *448:10 0.000512521
9 *1579:A2 *1593:A2 2.30862e-05
10 *1581:B *448:10 0.000107357
11 *1582:A2 *1582:A1 0.000103377
12 *1582:A2 *448:27 1.2018e-05
13 *1582:B *1582:A1 0.00119524
14 *1582:B *448:10 6.35236e-05
15 *1582:B *448:12 0.000254094
16 *1592:B *1593:A2 0.000147313
17 *1594:B *1593:A2 0.000402707
18 *1701:D *1582:A1 0.00026286
19 *1702:CLK *448:10 0
20 *1703:D *448:10 0.000356013
21 *1704:D *1582:A1 5.23469e-05
22 *1855:I *1593:A2 0.000114964
23 *1855:I *448:27 0.00032464
24 *233:70 *448:10 0.000586224
25 *233:78 *448:10 0.000352247
26 *269:46 *448:10 0.000451718
27 *286:17 *1593:A2 2.57058e-06
28 *286:17 *448:27 0
29 *303:32 *448:10 0.000173734
30 *397:30 *1582:A1 1.15275e-05
31 *413:12 *448:10 5.38563e-06
32 *413:12 *448:27 1.01183e-05
33 *413:27 *448:10 2.67896e-05
34 *413:27 *448:27 3.28542e-06
*RES
1 *1828:Z *448:10 14.32 
2 *448:10 *448:12 0.684 
3 *448:12 *1582:A1 12.192 
4 *448:12 *448:27 5.488 
5 *448:27 *1594:A1 4.5 
6 *448:27 *1593:A2 6.78 
7 *448:10 *1581:A2 9 
*END

*D_NET *449 0.00280659
*CONN
*I *1586:A1 I *D gf180mcu_fd_sc_mcu7t5v0__aoi21_1
*I *1585:A2 I *D gf180mcu_fd_sc_mcu7t5v0__oai21_1
*I *1587:A1 I *D gf180mcu_fd_sc_mcu7t5v0__aoi21_1
*I *1829:Z O *D gf180mcu_fd_sc_mcu7t5v0__clkbuf_1
*CAP
1 *1586:A1 0.000111166
2 *1585:A2 0
3 *1587:A1 3.88732e-05
4 *1829:Z 9.11098e-05
5 *449:21 0.000228445
6 *449:8 0.000247262
7 *1556:S *449:8 0.000483787
8 *1585:A1 *449:21 0.000158809
9 *1586:B *1586:A1 0.00026198
10 *1587:B *1587:A1 8.15645e-05
11 *1587:B *449:8 7.83779e-05
12 *1587:B *449:21 0.000235808
13 *1702:D *1586:A1 6.75633e-05
14 *1702:CLK *1587:A1 0
15 *1702:CLK *449:21 0
16 *1829:I *1587:A1 1.11891e-05
17 *1829:I *449:8 7.88344e-05
18 *269:42 *1586:A1 3.41317e-05
19 *269:42 *449:21 3.2834e-05
20 *269:46 *1587:A1 9.50253e-05
21 *269:46 *449:21 8.78761e-05
22 *270:40 *449:8 0
23 *413:64 *1586:A1 2.09451e-05
24 *414:22 *1586:A1 0.000361006
*RES
1 *1829:Z *449:8 10.292 
2 *449:8 *1587:A1 9.532 
3 *449:8 *449:21 5.792 
4 *449:21 *1585:A2 4.5 
5 *449:21 *1586:A1 15.096 
*END

*D_NET *450 0.00296151
*CONN
*I *1679:A2 I *D gf180mcu_fd_sc_mcu7t5v0__nand3_1
*I *1817:Z O *D gf180mcu_fd_sc_mcu7t5v0__dlyb_1
*CAP
1 *1679:A2 0.000366443
2 *1817:Z 0.000366443
3 *1679:A2 *1683:A2 7.83779e-05
4 *1643:B *1679:A2 4.17826e-05
5 *1671:A2 *1679:A2 0.00163228
6 *1675:A1 *1679:A2 9.58227e-05
7 *1676:A2 *1679:A2 1.89825e-05
8 *1680:A2 *1679:A2 8.55327e-05
9 *1724:D *1679:A2 1.98468e-05
10 *160:29 *1679:A2 2.22657e-05
11 *371:12 *1679:A2 4.32287e-05
12 *392:44 *1679:A2 0.000190505
*RES
1 *1817:Z *1679:A2 22.712 
*END

*D_NET *451 0.00583481
*CONN
*I *1657:A2 I *D gf180mcu_fd_sc_mcu7t5v0__nand2_1
*I *1668:A2 I *D gf180mcu_fd_sc_mcu7t5v0__nand2_1
*I *1662:A2 I *D gf180mcu_fd_sc_mcu7t5v0__nand2_1
*I *1660:A2 I *D gf180mcu_fd_sc_mcu7t5v0__aoi21_1
*I *1659:A2 I *D gf180mcu_fd_sc_mcu7t5v0__oai21_1
*I *1823:Z O *D gf180mcu_fd_sc_mcu7t5v0__buf_2
*CAP
1 *1657:A2 3.28034e-05
2 *1668:A2 0.000173686
3 *1662:A2 0
4 *1660:A2 0
5 *1659:A2 0.000126487
6 *1823:Z 0.000345711
7 *451:45 0.000309803
8 *451:38 0.000264589
9 *451:12 0.000348219
10 *451:10 0.000728719
11 *1659:A2 *1659:B 0.000257608
12 *1659:A2 *464:75 2.6126e-05
13 *1659:A2 *477:44 0.00017557
14 *1668:A2 *1662:A1 5.27712e-05
15 *1668:A2 *1668:A1 0.000142209
16 *451:12 *464:73 0.000137776
17 *451:12 *464:75 0.000742679
18 *451:38 *1662:A1 9.26705e-05
19 *451:38 *464:73 0.000375464
20 *451:45 *1662:A1 5.76373e-06
21 *1428:B2 *1668:A2 0.000238061
22 *1428:B2 *451:12 0
23 *1428:B2 *451:38 0
24 *1517:A1 *451:10 9.34764e-05
25 *1519:A1 *451:10 0
26 *1658:A2 *451:10 0.000324225
27 *1658:A3 *451:12 1.3758e-05
28 *1658:A3 *451:38 0.000286471
29 *1658:A3 *451:45 4.50449e-05
30 *1660:A1 *1659:A2 2.49648e-05
31 *1660:B *1659:A2 0.000130864
32 *1660:B *451:12 7.24161e-06
33 *1682:B2 *1659:A2 8.04139e-05
34 *1682:B2 *451:10 4.4998e-05
35 *1682:B2 *451:12 4.33265e-05
36 *1739:D *1659:A2 1.03271e-05
37 *1740:D *1668:A2 8.03447e-05
38 *1740:D *451:45 0
39 *272:23 *1659:A2 0
40 *376:10 *451:10 7.26363e-05
*RES
1 *1823:Z *451:10 16.312 
2 *451:10 *451:12 2.356 
3 *451:12 *1659:A2 15.248 
4 *451:12 *1660:A2 4.5 
5 *451:10 *451:38 2.356 
6 *451:38 *1662:A2 4.5 
7 *451:38 *451:45 0.836 
8 *451:45 *1668:A2 6.552 
9 *451:45 *1657:A2 4.728 
*END

*D_NET *452 0.0143596
*CONN
*I *1464:A2 I *D gf180mcu_fd_sc_mcu7t5v0__nor2_1
*I *1456:A2 I *D gf180mcu_fd_sc_mcu7t5v0__nor2_1
*I *1442:A2 I *D gf180mcu_fd_sc_mcu7t5v0__oai211_1
*I *1452:A2 I *D gf180mcu_fd_sc_mcu7t5v0__oai21_1
*I *1447:A2 I *D gf180mcu_fd_sc_mcu7t5v0__oai221_1
*I *1473:B1 I *D gf180mcu_fd_sc_mcu7t5v0__oai32_1
*I *1471:B2 I *D gf180mcu_fd_sc_mcu7t5v0__aoi22_1
*I *1462:A2 I *D gf180mcu_fd_sc_mcu7t5v0__oai22_1
*I *1857:Z O *D gf180mcu_fd_sc_mcu7t5v0__buf_2
*CAP
1 *1464:A2 0.000172801
2 *1456:A2 2.73362e-05
3 *1442:A2 0
4 *1452:A2 0.000110673
5 *1447:A2 5.71808e-05
6 *1473:B1 0.000269769
7 *1471:B2 0.000492445
8 *1462:A2 0
9 *1857:Z 3.28489e-05
10 *452:89 0.000347367
11 *452:55 0.00114544
12 *452:51 0.00103225
13 *452:27 0.000887406
14 *452:14 0.000634511
15 *452:8 0.000449611
16 *1447:A2 *1672:B2 0.000105536
17 *1452:A2 *1672:B2 7.09482e-05
18 *1464:A2 *1464:A1 3.2657e-05
19 *1464:A2 *482:39 3.98682e-05
20 *1473:B1 *1473:B2 0.000139891
21 *1399:A2 *452:55 3.2657e-05
22 *1438:A3 *452:14 0.00172718
23 *1438:A3 *452:27 0.000227493
24 *1442:A1 *452:14 0.000430575
25 *1445:B *1452:A2 2.13476e-05
26 *1447:A1 *452:8 9.26705e-05
27 *1447:A1 *452:14 0.000371061
28 *1447:A1 *452:55 0.000259918
29 *1447:B1 *1447:A2 0.000123745
30 *1447:B1 *1452:A2 0.000147092
31 *1453:B *1452:A2 0.000253072
32 *1458:B *1464:A2 1.20079e-05
33 *1458:B *1471:B2 1.15275e-05
34 *1458:B *452:89 7.59985e-05
35 *1462:B1 *452:27 0.000335667
36 *1463:A2 *452:27 0.000287898
37 *1465:A3 *452:27 0.000305938
38 *1466:A1 *1471:B2 0.000111858
39 *1466:A2 *1464:A2 0
40 *1466:A2 *1471:B2 3.83835e-06
41 *1466:A3 *1471:B2 2.17248e-05
42 *1469:A2 *452:14 0.000442385
43 *1469:A2 *452:27 0.000104681
44 *1471:A1 *1471:B2 3.15412e-05
45 *1471:B1 *1471:B2 0.000159419
46 *1673:I1 *452:14 0.00024908
47 *1676:A2 *1471:B2 4.17169e-06
48 *1676:A2 *1473:B1 6.43234e-05
49 *1689:CLK *1464:A2 3.45571e-05
50 *1756:CLK *1464:A2 2.11364e-05
51 *1756:CLK *452:89 3.94593e-05
52 *1758:CLK *1473:B1 0.000306317
53 *150:6 *452:55 2.89664e-05
54 *150:43 *452:14 2.57058e-06
55 *150:43 *452:55 2.57971e-05
56 *152:20 *452:55 0.000192755
57 *194:18 *452:55 0
58 *214:8 *1471:B2 0.000530905
59 *327:14 *1473:B1 2.97097e-05
60 *327:14 *452:14 0.000110995
61 *327:14 *452:27 0.00015708
62 *338:20 *452:55 0.000205765
63 *365:12 *452:14 7.24696e-05
64 *365:28 *452:55 0.000104795
65 *369:14 *1471:B2 5.2414e-05
66 *369:14 *452:27 5.70962e-05
67 *370:16 *1471:B2 0.000103252
68 *370:26 *1471:B2 0.000239887
69 *370:26 *452:27 2.41598e-05
70 *371:31 *1473:B1 6.21337e-05
*RES
1 *1857:Z *452:8 4.956 
2 *452:8 *452:14 11.948 
3 *452:14 *1462:A2 9 
4 *452:14 *452:27 4.104 
5 *452:27 *1471:B2 13.028 
6 *452:27 *1473:B1 11.508 
7 *452:8 *452:51 0.38 
8 *452:51 *452:55 11.568 
9 *452:55 *1447:A2 9.836 
10 *452:55 *1452:A2 10.824 
11 *452:51 *1442:A2 4.5 
12 *1471:B2 *452:89 5.564 
13 *452:89 *1456:A2 4.728 
14 *452:89 *1464:A2 5.792 
*END

*D_NET *453 0.0204357
*CONN
*I *1620:B1 I *D gf180mcu_fd_sc_mcu7t5v0__aoi22_1
*I *1629:A2 I *D gf180mcu_fd_sc_mcu7t5v0__aoi22_1
*I *1627:A2 I *D gf180mcu_fd_sc_mcu7t5v0__aoi22_1
*I *1624:B1 I *D gf180mcu_fd_sc_mcu7t5v0__aoi22_1
*I *1622:B1 I *D gf180mcu_fd_sc_mcu7t5v0__aoi22_1
*I *1618:B1 I *D gf180mcu_fd_sc_mcu7t5v0__aoi22_1
*I *1612:B1 I *D gf180mcu_fd_sc_mcu7t5v0__aoi22_1
*I *1610:B1 I *D gf180mcu_fd_sc_mcu7t5v0__aoi22_1
*I *1616:B1 I *D gf180mcu_fd_sc_mcu7t5v0__aoi22_1
*I *1614:B1 I *D gf180mcu_fd_sc_mcu7t5v0__aoi22_1
*I *1800:Z O *D gf180mcu_fd_sc_mcu7t5v0__dlyb_1
*CAP
1 *1620:B1 0
2 *1629:A2 0.000272753
3 *1627:A2 1.90104e-05
4 *1624:B1 0
5 *1622:B1 0
6 *1618:B1 0
7 *1612:B1 0
8 *1610:B1 2.7692e-05
9 *1616:B1 0
10 *1614:B1 0.000230321
11 *1800:Z 0.000359896
12 *453:119 0.00138856
13 *453:100 0.00122571
14 *453:93 0.000343938
15 *453:86 0.000394116
16 *453:46 0.000568754
17 *453:34 0.000647675
18 *453:26 0.000567107
19 *453:20 0.000506514
20 *453:16 0.000401758
21 *1614:B1 *460:47 5.02133e-05
22 *1614:B1 *460:66 1.02578e-05
23 *1629:A2 *1429:A2 1.11891e-05
24 *1629:A2 *467:14 0
25 *453:20 *1620:A2 0.00051482
26 *453:20 *466:51 1.80144e-05
27 *453:20 *466:97 0.000554321
28 *453:26 *1620:A2 5.66631e-05
29 *453:26 *460:87 0.000428011
30 *453:26 *460:91 0.00091424
31 *453:26 *466:40 2.62889e-05
32 *453:26 *466:51 0.00017745
33 *453:34 *1610:A2 1.36999e-05
34 *453:34 *460:87 7.29129e-05
35 *453:34 *465:25 2.11475e-05
36 *453:34 *466:10 2.27233e-05
37 *453:46 *460:66 1.19441e-05
38 *453:86 *1622:A2 2.03665e-05
39 *453:86 *460:99 0.000236424
40 *453:93 *1622:A2 9.77302e-05
41 *453:119 *1425:A2 3.45305e-05
42 *453:119 *467:46 0.000246065
43 *1391:A1 *1610:B1 0
44 *1425:A3 *453:119 0.000120304
45 *1472:A1 *453:100 0.000122313
46 *1474:A1 *453:93 6.80238e-06
47 *1610:B2 *1610:B1 2.96621e-05
48 *1610:B2 *1614:B1 7.47365e-06
49 *1611:A2 *1610:B1 2.6126e-05
50 *1615:A2 *1614:B1 0.000132619
51 *1616:A1 *453:46 0.000388484
52 *1617:A2 *1614:B1 0.000112824
53 *1618:A1 *453:86 1.5015e-05
54 *1618:A1 *453:93 3.11202e-05
55 *1618:B2 *453:86 1.17512e-05
56 *1619:A2 *453:16 0.000519226
57 *1619:A2 *453:20 0
58 *1620:A1 *453:119 0
59 *1620:B2 *453:16 0.000373799
60 *1621:A2 *453:20 6.38438e-05
61 *1621:A2 *453:26 0.000103978
62 *1622:A1 *453:93 1.5015e-05
63 *1622:A1 *453:100 0.000118147
64 *1624:B2 *453:119 4.29636e-06
65 *1625:A2 *453:119 0.000438313
66 *1627:A1 *1627:A2 0.000203975
67 *1628:A2 *453:119 1.93003e-05
68 *1630:A2 *1629:A2 8.18373e-05
69 *1643:A2 *453:119 2.39959e-05
70 *1671:A2 *453:119 0.000135735
71 *1718:D *453:46 4.16285e-05
72 *1721:D *453:16 0.000244828
73 *1726:D *1629:A2 3.2711e-05
74 *1754:CLK *453:86 0.000541725
75 *1754:CLK *453:93 0.000358632
76 *1772:I *453:16 0.00018206
77 *1776:I *1627:A2 9.27021e-05
78 *1776:I *1629:A2 9.7011e-05
79 *1836:I *1614:B1 3.60313e-05
80 *1839:I *453:46 2.95445e-05
81 *1840:I *453:16 0.000243562
82 *1841:I *453:16 0.000315035
83 *1842:I *453:93 5.75052e-05
84 *1842:I *453:100 2.58957e-05
85 *160:14 *453:100 0.000772874
86 *160:14 *453:119 7.32209e-05
87 *191:46 *453:34 0.000195096
88 *191:46 *453:46 0.00036911
89 *208:16 *453:34 0.000201258
90 *208:16 *453:46 5.28542e-05
91 *327:14 *453:119 0.00161424
92 *327:31 *1629:A2 2.08565e-06
93 *327:31 *453:119 8.28549e-06
94 *367:31 *1614:B1 2.80203e-05
95 *368:43 *453:46 0.000304736
96 *372:12 *453:100 1.5015e-05
97 *372:12 *453:119 2.41829e-05
98 *372:14 *453:100 6.73926e-05
99 *389:242 *1629:A2 0.000119195
100 *391:44 *453:16 2.71882e-05
101 *391:59 *453:16 0.000507951
102 *392:29 *453:93 4.1381e-05
103 *395:14 *1629:A2 6.48431e-05
104 *395:14 *453:119 6.04444e-06
105 *421:8 *1614:B1 5.76063e-06
106 *427:12 *453:93 3.73535e-05
*RES
1 *1800:Z *453:16 18.82 
2 *453:16 *453:20 6.248 
3 *453:20 *453:26 4.18 
4 *453:26 *453:34 10.976 
5 *453:34 *453:46 16.464 
6 *453:46 *1614:B1 6.4 
7 *453:46 *1616:B1 4.5 
8 *453:34 *1610:B1 9.228 
9 *453:26 *1612:B1 9 
10 *453:20 *453:86 6.704 
11 *453:86 *1618:B1 4.5 
12 *453:86 *453:93 2.204 
13 *453:93 *1622:B1 4.5 
14 *453:93 *453:100 2.204 
15 *453:100 *1624:B1 4.5 
16 *453:100 *453:119 24.596 
17 *453:119 *1627:A2 9.532 
18 *453:119 *1629:A2 11.128 
19 *453:16 *1620:B1 4.5 
*END

*D_NET *454 0.0107029
*CONN
*I *1645:A2 I *D gf180mcu_fd_sc_mcu7t5v0__aoi21_1
*I *1641:A2 I *D gf180mcu_fd_sc_mcu7t5v0__aoi22_1
*I *1639:A2 I *D gf180mcu_fd_sc_mcu7t5v0__aoi22_1
*I *1637:A2 I *D gf180mcu_fd_sc_mcu7t5v0__aoi22_1
*I *1633:A2 I *D gf180mcu_fd_sc_mcu7t5v0__aoi22_1
*I *1635:A2 I *D gf180mcu_fd_sc_mcu7t5v0__aoi22_1
*I *1631:A2 I *D gf180mcu_fd_sc_mcu7t5v0__aoi22_1
*I *1801:Z O *D gf180mcu_fd_sc_mcu7t5v0__dlyb_1
*CAP
1 *1645:A2 0.000395429
2 *1641:A2 0.00011557
3 *1639:A2 0.00071918
4 *1637:A2 0
5 *1633:A2 1.08147e-05
6 *1635:A2 0.00016864
7 *1631:A2 2.81194e-05
8 *1801:Z 8.25227e-05
9 *454:84 0.000888464
10 *454:57 0.000576383
11 *454:29 0.000266868
12 *454:25 0.000713481
13 *454:8 0.000502042
14 *1635:A2 *1635:B1 7.979e-05
15 *1635:A2 *458:34 0.000120322
16 *1639:A2 *1637:B1 4.0645e-06
17 *1641:A2 *1641:B1 0.000101246
18 *1641:A2 *1645:B 6.31406e-05
19 *1641:A2 *457:19 0.000173033
20 *1645:A2 *1645:B 7.43203e-06
21 *454:29 *458:34 0.000136128
22 *454:57 *1832:I 2.35455e-05
23 *454:57 *458:34 7.88344e-05
24 *454:84 *1645:B 3.78032e-05
25 *454:84 *457:23 3.69565e-05
26 *1631:A1 *454:8 0.000523959
27 *1631:A1 *454:25 2.9536e-05
28 *1632:A2 *454:25 9.52854e-05
29 *1633:A1 *1633:A2 7.83779e-05
30 *1633:A1 *454:29 5.10924e-05
31 *1635:A1 *1635:A2 0.000364611
32 *1635:A1 *454:29 0.000171993
33 *1637:A1 *1639:A2 6.95986e-05
34 *1637:A1 *454:57 1.5015e-05
35 *1638:A2 *454:29 0
36 *1641:A1 *1641:A2 0.000564327
37 *1641:A1 *1645:A2 0.000379283
38 *1727:D *454:8 3.0934e-05
39 *1727:D *454:25 5.07443e-05
40 *1728:D *1633:A2 7.83779e-05
41 *1728:D *454:57 2.9378e-06
42 *1730:CLK *1639:A2 6.20052e-05
43 *1731:D *1641:A2 1.18942e-05
44 *1811:I *1645:A2 0.000416007
45 *1844:I *1645:A2 0
46 *1849:I *454:25 0.000289689
47 *1850:I *1639:A2 0
48 *1851:I *1645:A2 0
49 *1851:I *454:84 0
50 *1852:I *1645:A2 6.63508e-06
51 *1853:I *1645:A2 5.67567e-05
52 *389:242 *1631:A2 2.85944e-05
53 *389:242 *454:25 0.000637893
54 *395:18 *1631:A2 1.52691e-05
55 *395:18 *454:25 0.00031512
56 *395:25 *454:25 0.000858365
57 *430:25 *1645:A2 0
58 *435:8 *454:25 2.96621e-05
59 *441:6 *1645:A2 0.000139149
*RES
1 *1801:Z *454:8 10.292 
2 *454:8 *1631:A2 9.228 
3 *454:8 *454:25 10.2 
4 *454:25 *454:29 5.336 
5 *454:29 *1635:A2 10.9 
6 *454:29 *1633:A2 9.228 
7 *454:25 *454:57 1.748 
8 *454:57 *1637:A2 4.5 
9 *454:57 *1639:A2 6.856 
10 *1639:A2 *454:84 6.856 
11 *454:84 *1641:A2 16.312 
12 *454:84 *1645:A2 8.528 
*END

*D_NET *455 0.00744625
*CONN
*I *1416:A2 I *D gf180mcu_fd_sc_mcu7t5v0__oai221_1
*I *1424:A2 I *D gf180mcu_fd_sc_mcu7t5v0__oai221_1
*I *1674:A2 I *D gf180mcu_fd_sc_mcu7t5v0__oai221_1
*I *1678:A2 I *D gf180mcu_fd_sc_mcu7t5v0__oai221_1
*I *1428:A2 I *D gf180mcu_fd_sc_mcu7t5v0__oai221_1
*I *1682:A2 I *D gf180mcu_fd_sc_mcu7t5v0__oai221_1
*I *1415:A2 I *D gf180mcu_fd_sc_mcu7t5v0__nand2_1
*I *1830:Z O *D gf180mcu_fd_sc_mcu7t5v0__buf_2
*CAP
1 *1416:A2 0.000232318
2 *1424:A2 0
3 *1674:A2 0
4 *1678:A2 3.23883e-05
5 *1428:A2 0
6 *1682:A2 0
7 *1415:A2 0.00013188
8 *1830:Z 0.000135662
9 *455:57 8.05944e-05
10 *455:53 0.000155265
11 *455:47 0.000381653
12 *455:40 0.000280792
13 *455:31 0.000253254
14 *455:12 0.000282281
15 *1415:A2 *1420:A1 0.000835906
16 *1416:A2 *1416:A1 1.02578e-05
17 *1416:A2 *1469:A1 1.09283e-05
18 *1416:A2 *480:10 0
19 *1416:A2 *484:41 6.48288e-05
20 *1678:A2 *1653:A1 0.000422786
21 *455:12 *1452:A1 0
22 *455:40 *1428:A1 9.88736e-06
23 *455:40 *1469:A1 0
24 *455:47 *1428:A1 3.73627e-05
25 *455:47 *1469:A1 0
26 *455:53 *1424:A1 0.000326528
27 *455:53 *484:41 5.71282e-05
28 *1415:A1 *1415:A2 6.17803e-05
29 *1416:B2 *455:53 9.88736e-06
30 *1416:C *455:53 0.00048737
31 *1416:C *455:57 0.000190571
32 *1419:I1 *455:40 8.2456e-05
33 *1420:B2 *1415:A2 1.91183e-05
34 *1422:A2 *1415:A2 2.8125e-06
35 *1428:B2 *455:53 1.3758e-05
36 *1430:A2 *455:40 0
37 *1431:I1 *1416:A2 1.37841e-05
38 *1431:I1 *455:40 0.000105823
39 *1676:A1 *1415:A2 5.27389e-05
40 *1682:B1 *455:40 5.88975e-06
41 *1682:C *455:12 0.000120843
42 *1682:C *455:31 0.000114041
43 *1682:C *455:40 0.000289725
44 *1684:A1 *455:12 8.39e-05
45 *1684:A1 *455:31 4.98138e-05
46 *1684:A1 *455:40 8.55327e-05
47 *161:55 *1678:A2 5.75052e-05
48 *161:59 *455:57 0.000569196
49 *173:12 *1678:A2 0.000308746
50 *173:30 *455:57 0.000213186
51 *173:41 *455:53 6.0726e-05
52 *173:41 *455:57 0.000156492
53 *173:47 *455:40 1.91917e-06
54 *173:47 *455:47 7.30761e-05
55 *173:47 *455:53 4.26303e-05
56 *389:87 *1415:A2 0.000431231
*RES
1 *1830:Z *455:12 5.716 
2 *455:12 *1415:A2 16.464 
3 *455:12 *455:31 0.38 
4 *455:31 *1682:A2 4.5 
5 *455:31 *455:40 2.432 
6 *455:40 *1428:A2 4.5 
7 *455:40 *455:47 0.532 
8 *455:47 *455:53 6.476 
9 *455:53 *455:57 6.4 
10 *455:57 *1678:A2 5.64 
11 *455:57 *1674:A2 4.5 
12 *455:53 *1424:A2 9 
13 *455:47 *1416:A2 5.868 
*END

*D_NET *456 0.00430246
*CONN
*I *1435:A2 I *D gf180mcu_fd_sc_mcu7t5v0__nand2_1
*I *1410:A2 I *D gf180mcu_fd_sc_mcu7t5v0__nand2_1
*I *1439:A3 I *D gf180mcu_fd_sc_mcu7t5v0__nand4_1
*I *1831:Z O *D gf180mcu_fd_sc_mcu7t5v0__clkbuf_1
*CAP
1 *1435:A2 0.000119648
2 *1410:A2 0
3 *1439:A3 0
4 *1831:Z 0.000284662
5 *456:25 0.000363757
6 *456:12 0.000528771
7 *456:12 *1402:A1 0.00018513
8 *456:12 *502:50 0.000299348
9 *456:25 *463:113 5.14116e-06
10 *456:25 *502:50 0.000228218
11 *1435:A1 *1435:A2 0.000830151
12 *1435:A1 *456:25 8.84331e-05
13 *1673:I1 *456:25 0
14 *1802:I *456:12 0.000194746
15 *1802:I *456:25 0.000317503
16 *1831:I *456:12 0.000185224
17 *160:14 *456:12 7.21615e-05
18 *165:41 *1435:A2 0.000386379
19 *165:41 *456:25 0.000213186
*RES
1 *1831:Z *456:12 7.692 
2 *456:12 *1439:A3 4.5 
3 *456:12 *456:25 7.008 
4 *456:25 *1410:A2 9 
5 *456:25 *1435:A2 11.052 
*END

*D_NET *457 0.00611282
*CONN
*I *1645:B I *D gf180mcu_fd_sc_mcu7t5v0__aoi21_1
*I *1639:B1 I *D gf180mcu_fd_sc_mcu7t5v0__aoi22_1
*I *1637:B1 I *D gf180mcu_fd_sc_mcu7t5v0__aoi22_1
*I *1641:B1 I *D gf180mcu_fd_sc_mcu7t5v0__aoi22_1
*I *1832:Z O *D gf180mcu_fd_sc_mcu7t5v0__clkbuf_1
*CAP
1 *1645:B 0.000469027
2 *1639:B1 0
3 *1637:B1 0.000134261
4 *1641:B1 0.000141601
5 *1832:Z 0
6 *457:23 0.000288343
7 *457:19 0.000706334
8 *457:6 0.000224826
9 *1637:B1 *1639:B2 2.6126e-05
10 *1637:B1 *1832:I 0.000828204
11 WE_O *1645:B 4.13816e-05
12 *1637:A1 *1637:B1 0.000139333
13 *1639:A2 *1637:B1 4.0645e-06
14 *1640:A2 *1637:B1 0.000190317
15 *1641:A1 *1641:B1 1.31444e-05
16 *1641:A2 *1641:B1 0.000101246
17 *1641:A2 *1645:B 6.31406e-05
18 *1641:A2 *457:19 0.000173033
19 *1642:A2 *1641:B1 6.48283e-06
20 *1645:A2 *1645:B 7.43203e-06
21 *1729:D *1637:B1 1.6003e-05
22 *1730:CLK *1637:B1 0.000163192
23 *1731:D *1641:B1 0.000158342
24 *1731:D *1645:B 6.49038e-05
25 *1731:D *457:19 0.000140973
26 *1731:CLK *1637:B1 9.88736e-06
27 *1731:CLK *457:23 0.000422015
28 *1811:I *1645:B 0.001297
29 *396:31 *1641:B1 5.48085e-05
30 *396:58 *1637:B1 0.000145096
31 *417:14 *1641:B1 0
32 *417:14 *1645:B 0
33 *417:14 *457:23 7.54445e-06
34 *454:84 *1645:B 3.78032e-05
35 *454:84 *457:23 3.69565e-05
*RES
1 *1832:Z *457:6 9 
2 *457:6 *1641:B1 10.672 
3 *457:6 *457:19 1.292 
4 *457:19 *457:23 5.944 
5 *457:23 *1637:B1 16.236 
6 *457:23 *1639:B1 4.5 
7 *457:19 *1645:B 13.56 
*END

*D_NET *458 0.00803162
*CONN
*I *1832:I I *D gf180mcu_fd_sc_mcu7t5v0__clkbuf_1
*I *1635:B1 I *D gf180mcu_fd_sc_mcu7t5v0__aoi22_1
*I *1633:B1 I *D gf180mcu_fd_sc_mcu7t5v0__aoi22_1
*I *1631:B1 I *D gf180mcu_fd_sc_mcu7t5v0__aoi22_1
*I *1833:Z O *D gf180mcu_fd_sc_mcu7t5v0__clkbuf_1
*CAP
1 *1832:I 0.000255512
2 *1635:B1 0.0002534
3 *1633:B1 3.28034e-05
4 *1631:B1 0.000158209
5 *1833:Z 0.000106486
6 *458:34 0.000654167
7 *458:19 0.000618165
8 *458:6 0.000704802
9 *1631:B1 *1627:B2 2.10121e-05
10 *1635:B1 *467:65 0.000199636
11 *1832:I *1637:B2 0.000137776
12 *1832:I *1639:B2 4.21132e-05
13 *458:19 *1538:I0 0
14 *458:19 *1631:B2 3.84276e-05
15 *458:19 *1633:B2 0.00011528
16 *458:19 *467:65 0.00126378
17 *1538:S *458:19 0
18 *1632:A2 *1631:B1 9.08447e-05
19 *1633:A1 *458:19 0.00018435
20 *1635:A1 *1635:B1 0
21 *1635:A2 *1635:B1 7.979e-05
22 *1635:A2 *458:34 0.000120322
23 *1636:A2 *1635:B1 3.23271e-05
24 *1637:B1 *1832:I 0.000828204
25 *1638:A2 *1635:B1 0.000196389
26 *1690:CLK *458:19 0.000136871
27 *1727:D *1631:B1 0
28 *1728:D *1633:B1 0
29 *1728:D *458:19 2.01461e-05
30 *1728:D *458:34 0.000167459
31 *1731:CLK *1832:I 7.14226e-05
32 *1824:I *458:19 9.27021e-05
33 *395:18 *458:6 1.03097e-05
34 *395:18 *458:19 7.54771e-06
35 *395:25 *458:19 1.66121e-06
36 *396:12 *458:19 0.000159108
37 *417:14 *1832:I 0.000503783
38 *417:14 *458:34 3.15134e-05
39 *444:14 *1631:B1 0
40 *444:14 *458:19 0.000255714
41 *444:33 *1635:B1 0.00020108
42 *454:29 *458:34 0.000136128
43 *454:57 *1832:I 2.35455e-05
44 *454:57 *458:34 7.88344e-05
*RES
1 *1833:Z *458:6 5.032 
2 *458:6 *1631:B1 14.64 
3 *458:6 *458:19 5.7 
4 *458:19 *1633:B1 4.728 
5 *458:19 *458:34 10.52 
6 *458:34 *1635:B1 16.236 
7 *458:34 *1832:I 8.3 
*END

*D_NET *459 0.00626886
*CONN
*I *1499:A2 I *D gf180mcu_fd_sc_mcu7t5v0__nand2_1
*I *1566:A3 I *D gf180mcu_fd_sc_mcu7t5v0__nand4_1
*I *1545:A2 I *D gf180mcu_fd_sc_mcu7t5v0__nand3_1
*I *1834:Z O *D gf180mcu_fd_sc_mcu7t5v0__clkbuf_1
*CAP
1 *1499:A2 4.47697e-05
2 *1566:A3 9.70747e-05
3 *1545:A2 0
4 *1834:Z 0.000235342
5 *459:27 0.000876145
6 *459:14 0.000969642
7 *459:14 *1545:A1 0.000321674
8 *459:27 *1545:A1 9.88736e-06
9 *1500:A2 *459:14 0.000104535
10 *1501:A2 *459:27 8.69929e-05
11 *1503:B1 *459:27 4.94368e-05
12 *1503:C *459:27 0.000125279
13 *1512:A1 *459:14 1.29413e-05
14 *1533:A2 *459:27 0.000240894
15 *1543:A2 *459:27 2.57058e-06
16 *1548:A1 *459:27 6.29048e-05
17 *1548:A3 *459:14 0.000147305
18 *1548:A3 *459:27 0.00022245
19 *1834:I *459:14 7.87465e-05
20 *236:56 *459:14 0.000113333
21 *236:74 *459:27 0.000153727
22 *239:10 *459:27 0.000186709
23 *240:8 *459:14 0.00015813
24 *242:24 *459:27 3.106e-05
25 *269:19 *1566:A3 0.000514796
26 *269:36 *1499:A2 0.000153266
27 *269:36 *1566:A3 7.34706e-05
28 *272:12 *1499:A2 5.13643e-06
29 *407:29 *1499:A2 0.000335667
30 *407:29 *1566:A3 0.00068708
31 *407:37 *459:27 8.74784e-05
32 *407:53 *459:14 8.04139e-05
*RES
1 *1834:Z *459:14 16.616 
2 *459:14 *1545:A2 4.5 
3 *459:14 *459:27 10.656 
4 *459:27 *1566:A3 10.748 
5 *459:27 *1499:A2 9.988 
*END

*D_NET *460 0.0203292
*CONN
*I *1612:A2 I *D gf180mcu_fd_sc_mcu7t5v0__aoi22_1
*I *1609:B I *D gf180mcu_fd_sc_mcu7t5v0__aoi21_1
*I *1620:A2 I *D gf180mcu_fd_sc_mcu7t5v0__aoi22_1
*I *1622:A2 I *D gf180mcu_fd_sc_mcu7t5v0__aoi22_1
*I *1618:A2 I *D gf180mcu_fd_sc_mcu7t5v0__aoi22_1
*I *1610:A2 I *D gf180mcu_fd_sc_mcu7t5v0__aoi22_1
*I *1616:A2 I *D gf180mcu_fd_sc_mcu7t5v0__aoi22_1
*I *1614:A2 I *D gf180mcu_fd_sc_mcu7t5v0__aoi22_1
*I *1483:A2 I *D gf180mcu_fd_sc_mcu7t5v0__nor2_1
*I *1475:A2 I *D gf180mcu_fd_sc_mcu7t5v0__nand2_1
*I *1802:Z O *D gf180mcu_fd_sc_mcu7t5v0__dlyb_1
*CAP
1 *1612:A2 0
2 *1609:B 0.000184121
3 *1620:A2 1.94415e-05
4 *1622:A2 0.0002782
5 *1618:A2 0
6 *1610:A2 0.000105585
7 *1616:A2 0
8 *1614:A2 6.45412e-05
9 *1483:A2 0.000167827
10 *1475:A2 0.00022338
11 *1802:Z 5.50889e-05
12 *460:99 0.000485249
13 *460:91 0.000232874
14 *460:87 0.000404252
15 *460:70 0.00036507
16 *460:66 0.000500387
17 *460:47 0.000499079
18 *460:34 0.000481252
19 *460:21 0.000641765
20 *460:8 0.000380125
21 *1475:A2 *1475:A1 8.80472e-05
22 *1475:A2 *1484:C 0.000237959
23 *1475:A2 *465:98 0.000255235
24 *1475:A2 *500:10 0.000115434
25 *1475:A2 *500:25 5.1886e-05
26 *1475:A2 *501:23 4.66935e-05
27 *1483:A2 *1483:A1 0.00021702
28 *1609:B *462:57 5.04498e-05
29 *1609:B *466:18 8.10057e-05
30 *1610:A2 *465:25 0.000460419
31 *1622:A2 *1468:A1 0
32 *460:8 *1409:A1 4.58601e-06
33 *460:8 *1484:A1 4.33819e-05
34 *460:21 *501:10 0.000142237
35 *460:21 *501:23 0.000122771
36 *460:34 *1368:I 0.00176178
37 *460:34 *501:10 0.00110028
38 *460:66 *466:10 6.88249e-05
39 *460:66 *468:38 0.00034051
40 *460:87 *466:10 0.000238012
41 *460:87 *466:18 5.26936e-05
42 *460:87 *466:40 0.000279004
43 *460:99 *1468:A1 0
44 *460:99 *462:57 0
45 *1443:A1 *460:34 0.000698449
46 *1451:A1 *1614:A2 0.00022449
47 *1451:A1 *460:47 0.000339999
48 *1451:A1 *460:66 0.00016754
49 *1453:A2 *460:34 0.000550902
50 *1457:A3 *460:66 0.000251148
51 *1474:A1 *1622:A2 0.000185903
52 *1474:A2 *1622:A2 2.40654e-06
53 *1484:A2 *460:8 0.00018927
54 *1484:B *1475:A2 0.000340241
55 *1484:B *1483:A2 2.05156e-05
56 *1484:B *460:21 0.000419527
57 *1486:A1 *1475:A2 5.08139e-05
58 *1612:A1 *1610:A2 0.000569188
59 *1612:A1 *460:87 3.19219e-05
60 *1613:A2 *460:87 2.2499e-05
61 *1614:B1 *460:47 5.02133e-05
62 *1614:B1 *460:66 1.02578e-05
63 *1616:A1 *460:66 2.88798e-05
64 *1617:A2 *460:47 2.74753e-05
65 *1618:A1 *1622:A2 4.61352e-05
66 *1621:A2 *1620:A2 0.000569196
67 *1621:A2 *460:87 1.92743e-06
68 *1621:A2 *460:91 0.00090738
69 *1718:D *460:66 0.000649046
70 *1761:D *460:21 5.19228e-05
71 *1761:CLK *1475:A2 7.35508e-05
72 *1808:I *460:66 2.97097e-05
73 *1839:I *460:66 2.11881e-05
74 *367:12 *1614:A2 3.08902e-05
75 *367:31 *1614:A2 0.000368683
76 *367:31 *460:34 3.74778e-05
77 *367:31 *460:47 0.00012749
78 *424:10 *460:66 1.97166e-05
79 *453:20 *1620:A2 0.00051482
80 *453:26 *1620:A2 5.66631e-05
81 *453:26 *460:87 0.000428011
82 *453:26 *460:91 0.00091424
83 *453:34 *1610:A2 1.36999e-05
84 *453:34 *460:87 7.29129e-05
85 *453:46 *460:66 1.19441e-05
86 *453:86 *1622:A2 2.03665e-05
87 *453:86 *460:99 0.000236424
88 *453:93 *1622:A2 9.77302e-05
*RES
1 *1802:Z *460:8 9.532 
2 *460:8 *1475:A2 12.344 
3 *460:8 *460:21 1.596 
4 *460:21 *1483:A2 10.444 
5 *460:21 *460:34 12.176 
6 *460:34 *1614:A2 5.792 
7 *460:34 *460:47 0.988 
8 *460:47 *1616:A2 4.5 
9 *460:47 *460:66 13.636 
10 *460:66 *460:70 4.728 
11 *460:70 *1610:A2 10.672 
12 *460:70 *460:87 7.084 
13 *460:87 *460:91 6.704 
14 *460:91 *460:99 6.096 
15 *460:99 *1618:A2 4.5 
16 *460:99 *1622:A2 6.704 
17 *460:91 *1620:A2 10.444 
18 *460:87 *1609:B 5.792 
19 *460:66 *1612:A2 4.5 
*END

*D_NET *461 0.00203402
*CONN
*I *1683:A2 I *D gf180mcu_fd_sc_mcu7t5v0__nand3_1
*I *1818:Z O *D gf180mcu_fd_sc_mcu7t5v0__dlyb_1
*CAP
1 *1683:A2 0.000708893
2 *1818:Z 0.000708893
3 *1683:A2 *1417:A2 0.000124318
4 *1683:A2 *1421:A2 2.07594e-05
5 *1683:A2 *1425:A2 1.15244e-05
6 *1679:A2 *1683:A2 7.83779e-05
7 *1724:D *1683:A2 9.13298e-05
8 *1801:I *1683:A2 0
9 *370:16 *1683:A2 1.80215e-05
10 *371:12 *1683:A2 0.000271904
*RES
1 *1818:Z *1683:A2 14.396 
*END

*D_NET *462 0.0122974
*CONN
*I *1468:A1 I *D gf180mcu_fd_sc_mcu7t5v0__aoi21_1
*I *1609:A2 I *D gf180mcu_fd_sc_mcu7t5v0__aoi21_1
*I *1454:A1 I *D gf180mcu_fd_sc_mcu7t5v0__aoi21_1
*I *1460:A1 I *D gf180mcu_fd_sc_mcu7t5v0__aoi21_1
*I *1608:A2 I *D gf180mcu_fd_sc_mcu7t5v0__nand2_1
*I *1835:Z O *D gf180mcu_fd_sc_mcu7t5v0__buf_2
*CAP
1 *1468:A1 0.000251646
2 *1609:A2 0
3 *1454:A1 3.68215e-05
4 *1460:A1 0.000285818
5 *1608:A2 5.46724e-05
6 *1835:Z 0.000977774
7 *462:57 0.000707924
8 *462:42 0.000579539
9 *462:16 0.000553005
10 *462:10 0.00127673
11 *1468:A1 *466:18 0
12 *462:10 *1368:I 0.000118698
13 *462:10 *465:44 4.29636e-06
14 *1390:A4 *1468:A1 0.000300828
15 *1412:A2 *462:16 0
16 *1412:B *462:10 0
17 *1414:A2 *462:16 0
18 *1433:A2 *462:10 6.92278e-05
19 *1455:A1 *1454:A1 2.74661e-05
20 *1455:A1 *462:16 6.32969e-05
21 *1455:A2 *1454:A1 0.000135056
22 *1458:B *1460:A1 0.00116241
23 *1458:C *1460:A1 0
24 *1459:A2 *1460:A1 0
25 *1474:A2 *1468:A1 0.000604316
26 *1608:A1 *462:16 0.000255722
27 *1609:A1 *462:10 1.54907e-05
28 *1609:A1 *462:42 4.58242e-05
29 *1609:A1 *462:57 0.000138853
30 *1609:B *462:57 5.04498e-05
31 *1610:A1 *462:10 0.000211154
32 *1610:A1 *462:42 0.000104335
33 *1618:A1 *1468:A1 3.33053e-05
34 *1621:A2 *1454:A1 3.46661e-05
35 *1621:A2 *1460:A1 0.000100365
36 *1621:A2 *462:16 0
37 *1621:A2 *462:57 6.13775e-05
38 *1622:A2 *1468:A1 0
39 *1643:A2 *462:16 0.000141194
40 *1648:A2 *462:10 3.81981e-05
41 *1754:D *462:57 0.000353717
42 *1773:I *1460:A1 0.000161264
43 *148:12 *1460:A1 0.000342528
44 *148:14 *462:16 0
45 *149:12 *462:10 0.00100561
46 *152:20 *462:10 8.48177e-05
47 *155:25 *462:10 0.000127353
48 *158:41 *462:10 0.000187584
49 *191:14 *462:10 0.000126319
50 *191:46 *1454:A1 1.5015e-05
51 *208:31 *1460:A1 1.18344e-05
52 *318:10 *462:57 1.24993e-05
53 *366:37 *462:10 0.000104577
54 *366:54 *462:10 0.000464815
55 *368:10 *462:42 1.38028e-05
56 *368:10 *462:57 4.88658e-05
57 *369:16 *1460:A1 0.000769513
58 *369:28 *1468:A1 2.68145e-05
59 *460:99 *1468:A1 0
60 *460:99 *462:57 0
*RES
1 *1835:Z *462:10 17.968 
2 *462:10 *462:16 6.324 
3 *462:16 *1608:A2 4.88 
4 *462:16 *1460:A1 18.364 
5 *462:10 *462:42 0.836 
6 *462:42 *1454:A1 9.532 
7 *462:42 *462:57 8.3 
8 *462:57 *1609:A2 4.5 
9 *462:57 *1468:A1 7.008 
*END

*D_NET *463 0.0161214
*CONN
*I *1399:C I *D gf180mcu_fd_sc_mcu7t5v0__aoi211_1
*I *1626:A3 I *D gf180mcu_fd_sc_mcu7t5v0__nor3_1
*I *1422:B2 I *D gf180mcu_fd_sc_mcu7t5v0__aoi22_1
*I *1403:A2 I *D gf180mcu_fd_sc_mcu7t5v0__nand2_1
*I *1400:A2 I *D gf180mcu_fd_sc_mcu7t5v0__or2_1
*I *1404:A2 I *D gf180mcu_fd_sc_mcu7t5v0__xnor2_1
*I *1378:I I *D gf180mcu_fd_sc_mcu7t5v0__clkinv_1
*I *1485:A3 I *D gf180mcu_fd_sc_mcu7t5v0__nand3_1
*I *1401:A2 I *D gf180mcu_fd_sc_mcu7t5v0__nand2_1
*I *1405:A2 I *D gf180mcu_fd_sc_mcu7t5v0__xor2_1
*I *1803:Z O *D gf180mcu_fd_sc_mcu7t5v0__dlyb_1
*CAP
1 *1399:C 8.84968e-05
2 *1626:A3 0
3 *1422:B2 0.000593043
4 *1403:A2 0
5 *1400:A2 3.28034e-05
6 *1404:A2 0.000224198
7 *1378:I 6.32254e-05
8 *1485:A3 0.000292744
9 *1401:A2 0.000148901
10 *1405:A2 0.000638825
11 *1803:Z 0
12 *463:125 0.000859864
13 *463:113 0.000498782
14 *463:103 0.000544656
15 *463:69 0.000344992
16 *463:57 0.000483787
17 *463:6 0.000325766
18 *1400:A2 *1409:A1 0
19 *1401:A2 *1401:A1 5.32176e-05
20 *1401:A2 *1672:B2 9.64018e-06
21 *1405:A2 *1401:A1 7.86933e-05
22 *1405:A2 *1409:A1 0.000377606
23 *1422:B2 *1361:I 7.61651e-05
24 *1485:A3 *502:14 2.17248e-05
25 *1485:A3 *502:31 0.000116225
26 *463:57 *1409:A1 0.000173883
27 *463:57 *1409:C 8.55327e-05
28 *463:57 *465:46 8.84331e-05
29 *463:57 *500:38 2.84827e-05
30 *463:57 *500:47 0.000576536
31 *463:57 *500:51 1.2339e-05
32 *463:69 *500:51 7.43365e-05
33 *463:69 *502:31 1.94858e-05
34 *463:69 *502:50 0.000143608
35 *463:103 *1402:A1 0.00025099
36 *463:103 *500:51 1.5015e-05
37 *463:103 *500:66 1.4351e-05
38 *463:113 *1626:A1 0.00035467
39 *463:113 *491:6 0
40 *463:113 *502:50 0
41 *1403:A1 *1422:B2 9.52854e-05
42 *1403:A1 *463:125 0.000705383
43 *1408:A2 *463:69 0.00025761
44 *1408:B1 *1378:I 2.75234e-05
45 *1408:B1 *463:69 4.02664e-05
46 *1409:B *463:57 0.000139333
47 *1409:B *463:69 0.000133135
48 *1411:A1 *1399:C 4.61352e-05
49 *1435:A1 *463:113 0.000635409
50 *1439:A2 *463:103 5.44937e-05
51 *1440:A2 *1399:C 1.7295e-05
52 *1442:A1 *1422:B2 0.000327795
53 *1446:A3 *1401:A2 1.09493e-05
54 *1469:A2 *1422:B2 0.000130519
55 *1469:A2 *463:125 7.59218e-05
56 *1476:A1 *463:103 7.95976e-05
57 *1476:A2 *463:103 9.22116e-06
58 *1477:A1 *1485:A3 0.000165035
59 *1477:A2 *463:103 0
60 *1479:A3 *1401:A2 0
61 *1479:A3 *1405:A2 0
62 *1486:A1 *1485:A3 4.50449e-05
63 *1626:A2 *463:113 4.50449e-05
64 *1650:A1 *1422:B2 5.55793e-05
65 *1650:B *1422:B2 3.08902e-05
66 *1673:I1 *463:125 0.000126947
67 *1677:I1 *1422:B2 9.20566e-06
68 *1680:A1 *1422:B2 4.61156e-05
69 *1685:S *463:125 6.36953e-05
70 *1802:I *1401:A2 3.68392e-05
71 *1802:I *1405:A2 0
72 *1802:I *463:113 7.9995e-05
73 *1831:I *463:69 1.34535e-05
74 *1857:I *1399:C 0.000960109
75 *1857:I *463:103 8.62813e-05
76 *138:34 *463:113 2.05156e-05
77 *138:47 *463:113 8.43066e-05
78 *138:47 *463:125 0.00041397
79 *139:12 *463:103 5.27305e-05
80 *147:23 *1378:I 0.000458141
81 *147:23 *463:69 0.000374373
82 *150:43 *1422:B2 0.000223246
83 *158:10 *463:57 4.03922e-06
84 *160:14 *1399:C 0.000934495
85 *160:14 *463:103 0.000316364
86 *161:14 *1422:B2 0.000108749
87 *162:29 *463:103 0.000170197
88 *164:8 *1378:I 5.40431e-05
89 *167:8 *463:57 5.76373e-06
90 *188:18 *463:103 5.35554e-05
91 *188:31 *463:103 0.000114952
92 *327:14 *463:125 0.000134113
93 *339:22 *1399:C 0.000249413
94 *446:12 *463:125 8.21221e-05
95 *456:25 *463:113 5.14116e-06
*RES
1 *1803:Z *463:6 9 
2 *463:6 *1405:A2 10.672 
3 *463:6 *1401:A2 10.064 
4 *1405:A2 *1485:A3 11.432 
5 *1405:A2 *463:57 16.16 
6 *463:57 *463:69 7.92 
7 *463:69 *1378:I 10.14 
8 *463:69 *1404:A2 9 
9 *463:57 *1400:A2 4.728 
10 *1404:A2 *463:103 11.736 
11 *463:103 *463:113 7.692 
12 *463:113 *463:125 17.072 
13 *463:125 *1403:A2 9 
14 *463:125 *1422:B2 14.548 
15 *463:113 *1626:A3 4.5 
16 *463:103 *1399:C 12.192 
*END

*D_NET *464 0.02541
*CONN
*I *1658:A1 I *D gf180mcu_fd_sc_mcu7t5v0__nand3_1
*I *1654:B I *D gf180mcu_fd_sc_mcu7t5v0__oai21_1
*I *1652:C I *D gf180mcu_fd_sc_mcu7t5v0__oai211_1
*I *1649:B I *D gf180mcu_fd_sc_mcu7t5v0__oai21_1
*I *1659:B I *D gf180mcu_fd_sc_mcu7t5v0__oai21_1
*I *1663:A1 I *D gf180mcu_fd_sc_mcu7t5v0__nand3_1
*I *1604:A2 I *D gf180mcu_fd_sc_mcu7t5v0__and2_1
*I *1529:A1 I *D gf180mcu_fd_sc_mcu7t5v0__nand2_1
*I *1607:A2 I *D gf180mcu_fd_sc_mcu7t5v0__and2_1
*I *1605:A2 I *D gf180mcu_fd_sc_mcu7t5v0__and2_1
*I *1804:Z O *D gf180mcu_fd_sc_mcu7t5v0__dlyb_1
*CAP
1 *1658:A1 0
2 *1654:B 0
3 *1652:C 0
4 *1649:B 0.000345105
5 *1659:B 6.25908e-05
6 *1663:A1 3.07899e-05
7 *1604:A2 0.000100656
8 *1529:A1 1.74651e-05
9 *1607:A2 0.00022151
10 *1605:A2 0.000183245
11 *1804:Z 0.000388361
12 *464:96 0.00101797
13 *464:86 0.000858357
14 *464:75 0.00029591
15 *464:73 0.000382387
16 *464:58 0.00222147
17 *464:20 0.000947299
18 *464:16 0.00116906
19 *464:10 0.00101065
20 *464:8 0.00254544
21 *1605:A2 *467:98 0
22 *1607:A2 *467:98 0
23 *1649:B *477:22 0.00137937
24 *464:16 *467:92 0
25 *464:20 *467:98 0
26 *464:73 *1662:A1 0.000524168
27 *464:86 *477:44 2.86154e-05
28 *1420:B2 *1659:B 0.000424388
29 *1420:B2 *464:73 0.000746647
30 *1420:B2 *464:75 0.000742679
31 *1423:I1 *1649:B 0.000172906
32 *1424:B2 *1663:A1 0.000196417
33 *1424:B2 *464:58 0.0001088
34 *1431:I1 *1649:B 0.000209318
35 *1447:A1 *1649:B 0.000510095
36 *1489:A3 *1607:A2 0
37 *1515:A2 *464:58 0
38 *1516:A1 *464:58 0.000234429
39 *1516:A2 *464:58 6.61664e-05
40 *1518:A1 *464:73 0
41 *1522:A2 *464:58 1.61066e-05
42 *1522:A4 *464:58 0
43 *1575:A1 *1529:A1 5.46425e-05
44 *1575:A1 *464:16 1.11891e-05
45 *1575:A1 *464:20 5.47917e-05
46 *1576:A1 *464:16 0.000160944
47 *1576:A2 *464:16 0.00020772
48 *1577:B *464:16 3.0928e-05
49 *1577:C *1529:A1 1.91917e-06
50 *1598:I1 *464:58 0
51 *1601:S *464:58 0.000793987
52 *1652:B *1649:B 3.08902e-05
53 *1655:A1 *464:86 1.3575e-05
54 *1655:A1 *464:96 9.7926e-05
55 *1659:A2 *1659:B 0.000257608
56 *1659:A2 *464:75 2.6126e-05
57 *1660:B *1659:B 1.02153e-05
58 *1663:A2 *1663:A1 5.48978e-05
59 *1663:A3 *464:73 0.000621285
60 *1664:A2 *1663:A1 7.24161e-06
61 *1667:A2 *464:73 0.000142065
62 *1682:B2 *1659:B 7.45328e-07
63 *1700:D *1529:A1 0
64 *1705:D *464:8 0.000461616
65 *1706:CLK *464:8 0.000291377
66 *1713:D *464:10 0
67 *1713:CLK *464:8 0.000365092
68 *1737:D *464:86 0.000340241
69 *1737:D *464:96 0.000208791
70 *1740:D *1663:A1 1.02578e-05
71 *1740:D *464:73 1.59984e-05
72 *1781:I *464:10 0.000373378
73 *1781:I *464:16 0.000133397
74 *1781:I *464:58 0.000668686
75 *1810:I *464:8 0
76 *230:14 *464:20 9.50338e-05
77 *272:23 *464:86 0.000300145
78 *316:14 *464:58 0
79 *339:44 *464:86 0.000142809
80 *339:57 *464:86 0.000714522
81 *339:68 *464:73 9.61205e-06
82 *339:75 *464:73 1.15275e-05
83 *379:16 *464:58 0
84 *380:25 *464:73 0
85 *386:12 *464:58 0
86 *386:18 *464:58 4.63165e-05
87 *400:16 *1605:A2 0
88 *400:16 *1607:A2 0
89 *400:16 *464:20 0
90 *407:16 *464:8 3.26639e-05
91 *409:18 *1604:A2 0
92 *409:18 *464:10 0.000147092
93 *409:18 *464:16 4.84399e-05
94 *447:8 *464:58 0
95 *451:12 *464:73 0.000137776
96 *451:12 *464:75 0.000742679
97 *451:38 *464:73 0.000375464
*RES
1 *1804:Z *464:8 12.724 
2 *464:8 *464:10 2.964 
3 *464:10 *464:16 4.028 
4 *464:16 *464:20 7.616 
5 *464:20 *1605:A2 5.564 
6 *464:20 *1607:A2 5.868 
7 *464:16 *1529:A1 9.152 
8 *464:10 *1604:A2 9.532 
9 *464:8 *464:58 14.516 
10 *464:58 *1663:A1 9.532 
11 *464:58 *464:73 9.82 
12 *464:73 *464:75 2.052 
13 *464:75 *1659:B 5.64 
14 *464:75 *464:86 7.768 
15 *464:86 *464:96 17.148 
16 *464:96 *1649:B 18.82 
17 *464:96 *1652:C 4.5 
18 *464:86 *1654:B 9 
19 *464:73 *1658:A1 4.5 
*END

*D_NET *465 0.0211211
*CONN
*I *1409:C I *D gf180mcu_fd_sc_mcu7t5v0__aoi211_1
*I *1479:A1 I *D gf180mcu_fd_sc_mcu7t5v0__or3_1
*I *1484:C I *D gf180mcu_fd_sc_mcu7t5v0__aoi211_1
*I *1486:B I *D gf180mcu_fd_sc_mcu7t5v0__aoi21_1
*I *1480:A2 I *D gf180mcu_fd_sc_mcu7t5v0__oai33_1
*I *1482:A2 I *D gf180mcu_fd_sc_mcu7t5v0__oai32_1
*I *1481:A2 I *D gf180mcu_fd_sc_mcu7t5v0__nor2_1
*I *1478:A2 I *D gf180mcu_fd_sc_mcu7t5v0__nor2_1
*I *1613:A1 I *D gf180mcu_fd_sc_mcu7t5v0__nor2_1
*I *1611:A1 I *D gf180mcu_fd_sc_mcu7t5v0__nor2_1
*I *1805:Z O *D gf180mcu_fd_sc_mcu7t5v0__dlyb_1
*CAP
1 *1409:C 0.000115396
2 *1479:A1 1.03765e-05
3 *1484:C 8.6958e-05
4 *1486:B 2.39509e-05
5 *1480:A2 2.6696e-05
6 *1482:A2 3.52608e-05
7 *1481:A2 0
8 *1478:A2 7.65413e-05
9 *1613:A1 0
10 *1611:A1 3.80275e-05
11 *1805:Z 0.000576346
12 *465:98 0.000398796
13 *465:66 0.000559169
14 *465:54 0.000595577
15 *465:52 0.000190971
16 *465:48 0.000499085
17 *465:46 0.000200072
18 *465:44 0.00105812
19 *465:25 0.000969773
20 *465:12 0.000706508
21 *1409:C *1409:A1 3.08902e-05
22 *1479:A1 *500:47 3.73627e-05
23 *1479:A1 *502:31 8.55327e-05
24 *1482:A2 *1369:I 4.97712e-06
25 *1484:C *1484:A1 5.75752e-06
26 *1611:A1 *468:38 0.000184412
27 *465:12 *466:10 9.64018e-06
28 *465:12 *466:40 5.37854e-05
29 *465:12 *466:51 8.52502e-05
30 *465:12 *466:57 8.0391e-05
31 *465:25 *468:38 0.00029239
32 *465:98 *1475:A1 3.00299e-05
33 ADDR_O[1] *465:12 0.000139333
34 *1409:A2 *465:44 0.000140696
35 *1433:A2 *465:44 0.000101603
36 *1435:A1 *1409:C 0
37 *1448:A1 *465:44 0.000387765
38 *1448:A2 *465:44 0.000656364
39 *1475:A2 *1484:C 0.000237959
40 *1475:A2 *465:98 0.000255235
41 *1477:A1 *465:98 0.000207411
42 *1477:A2 *465:98 3.17733e-05
43 *1478:A1 *465:54 0
44 *1478:A1 *465:66 4.47747e-05
45 *1479:A3 *465:44 9.52854e-05
46 *1480:A3 *1480:A2 1.3758e-05
47 *1480:A3 *465:54 7.70742e-05
48 *1481:A1 *465:66 6.16135e-05
49 *1482:A1 *465:66 0.000204231
50 *1482:A3 *465:54 2.22758e-05
51 *1482:A3 *465:66 4.58601e-06
52 *1482:B1 *1480:A2 2.23385e-05
53 *1482:B1 *465:54 0.000149579
54 *1482:B2 *465:52 1.45899e-05
55 *1486:A1 *1486:B 2.96621e-05
56 *1486:A1 *465:98 2.74772e-05
57 *1486:A2 *1484:C 1.3758e-05
58 *1610:A2 *465:25 0.000460419
59 *1610:B2 *1611:A1 7.73662e-05
60 *1610:B2 *465:25 7.11225e-05
61 *1612:A1 *465:25 0.000157164
62 *1612:A1 *465:44 0.000614667
63 *1647:A2 *465:44 1.46098e-05
64 *1717:CLK *465:12 0.000148542
65 *1718:D *465:12 0.00144659
66 *1760:D *465:66 3.80424e-06
67 *1761:CLK *1484:C 0.00050796
68 *1764:D *1478:A2 0
69 *1808:I *465:12 2.29198e-06
70 *152:37 *465:44 1.12113e-05
71 *155:25 *465:44 0.000947256
72 *155:25 *465:46 0.000346848
73 *155:25 *465:48 0.000605532
74 *155:25 *465:52 0.000390043
75 *158:10 *1409:C 1.46159e-05
76 *158:10 *465:44 0
77 *158:10 *465:46 0
78 *158:10 *465:48 0
79 *158:28 *465:44 0
80 *158:41 *465:44 0
81 *167:8 *1409:C 2.9378e-06
82 *186:8 *465:44 0.000712243
83 *191:14 *465:44 9.39206e-05
84 *191:46 *465:25 0.000836935
85 *191:46 *465:44 0.000117977
86 *208:16 *465:12 0.000456973
87 *223:10 *465:52 7.20635e-05
88 *224:8 *465:48 0.000151957
89 *224:8 *465:52 0.000943478
90 *338:20 *465:44 6.49724e-05
91 *366:37 *465:44 1.26341e-05
92 *366:54 *465:44 6.4188e-05
93 *366:67 *465:44 3.37805e-05
94 *398:8 *1486:B 1.2018e-05
95 *398:8 *465:98 0.00151834
96 *453:34 *465:25 2.11475e-05
97 *462:10 *465:44 4.29636e-06
98 *463:57 *1409:C 8.55327e-05
99 *463:57 *465:46 8.84331e-05
*RES
1 *1805:Z *465:12 19.884 
2 *465:12 *1611:A1 5.032 
3 *465:12 *465:25 7.388 
4 *465:25 *1613:A1 9 
5 *465:25 *465:44 19.64 
6 *465:44 *465:46 0.988 
7 *465:46 *465:48 1.596 
8 *465:48 *465:52 6.856 
9 *465:52 *465:54 0.988 
10 *465:54 *465:66 12.04 
11 *465:66 *1478:A2 5.032 
12 *465:66 *1481:A2 4.5 
13 *465:54 *1482:A2 4.728 
14 *465:52 *1480:A2 4.728 
15 *465:48 *465:98 8.908 
16 *465:98 *1486:B 4.728 
17 *465:98 *1484:C 15.02 
18 *465:46 *1479:A1 9.228 
19 *465:44 *1409:C 9.836 
*END

*D_NET *466 0.0201027
*CONN
*I *1644:A1 I *D gf180mcu_fd_sc_mcu7t5v0__nor2_1
*I *1625:A1 I *D gf180mcu_fd_sc_mcu7t5v0__nor2_1
*I *1617:A1 I *D gf180mcu_fd_sc_mcu7t5v0__nor2_1
*I *1619:A1 I *D gf180mcu_fd_sc_mcu7t5v0__nor2_1
*I *1615:A1 I *D gf180mcu_fd_sc_mcu7t5v0__nor2_1
*I *1623:A1 I *D gf180mcu_fd_sc_mcu7t5v0__nor2_1
*I *1621:A1 I *D gf180mcu_fd_sc_mcu7t5v0__nor2_1
*I *1806:Z O *D gf180mcu_fd_sc_mcu7t5v0__dlyb_1
*CAP
1 *1644:A1 0.000183435
2 *1625:A1 0
3 *1617:A1 0.000192028
4 *1619:A1 0
5 *1615:A1 0
6 *1623:A1 0.000108726
7 *1621:A1 6.73823e-05
8 *1806:Z 0.00017279
9 *466:97 0.00146471
10 *466:57 0.000735385
11 *466:51 0.00207198
12 *466:40 0.00032775
13 *466:18 0.000481597
14 *466:10 0.000558682
15 *1623:A1 *468:38 1.97747e-05
16 ADDR_O[0] *1617:A1 0.000809807
17 ADDR_O[0] *466:57 0.000921092
18 ADDR_O[1] *466:57 0.000293782
19 ADDR_O[2] *1617:A1 1.15275e-05
20 ADDR_O[3] *1617:A1 0.000478097
21 ADDR_O[3] *466:57 0.000287297
22 ADDR_O[5] *1617:A1 0.00019064
23 ADDR_O[6] *466:97 0.000456283
24 *1458:A1 *1623:A1 0.000576782
25 *1467:A4 *1623:A1 6.97569e-05
26 *1468:A1 *466:18 0
27 *1609:B *466:18 8.10057e-05
28 *1614:B2 *466:57 0.000342528
29 *1617:A2 *1617:A1 4.50449e-05
30 *1618:A1 *466:18 2.63488e-06
31 *1618:B2 *466:57 3.58062e-05
32 *1618:B2 *466:97 0.000107261
33 *1619:A2 *466:97 0.000317494
34 *1620:A1 *466:97 0.000622723
35 *1621:A2 *1621:A1 9.87535e-06
36 *1643:A2 *1621:A1 0.000566421
37 *1643:A2 *466:18 0.000225376
38 *1643:B *466:97 9.72694e-05
39 *1644:A2 *466:97 1.92171e-06
40 *1671:A2 *466:97 0
41 *1675:A2 *466:97 0
42 *1675:A3 *466:97 0.00013063
43 *1680:A2 *1644:A1 0.000133858
44 *1718:D *466:51 3.8206e-05
45 *1718:D *466:57 0.00130471
46 *1722:D *1621:A1 0.000476632
47 *1722:D *466:18 0.00025099
48 *1722:D *466:97 0.000248576
49 *1724:D *466:97 0.000349441
50 *1772:I *466:57 0
51 *1797:I *1623:A1 7.3227e-05
52 *1797:I *466:10 0.000340501
53 *1798:I *466:97 1.72912e-05
54 *1812:I *1617:A1 8.0352e-06
55 *1812:I *466:97 0.00018681
56 *1838:I *466:57 5.20981e-05
57 *1840:I *466:57 1.42543e-05
58 *1841:I *1617:A1 0
59 *1843:I *466:97 0
60 *148:12 *1621:A1 2.39679e-05
61 *160:42 *1644:A1 0.000162726
62 *160:42 *466:97 2.09793e-05
63 *208:16 *466:10 2.73998e-05
64 *208:16 *466:18 0.00081152
65 *208:23 *1623:A1 0.000136932
66 *208:23 *466:18 8.0934e-05
67 *371:12 *466:97 0.000148022
68 *392:44 *466:97 0.000291622
69 *392:48 *466:97 0.000159979
70 *417:28 *1644:A1 1.2339e-05
71 *453:20 *466:51 1.80144e-05
72 *453:20 *466:97 0.000554321
73 *453:26 *466:40 2.62889e-05
74 *453:26 *466:51 0.00017745
75 *453:34 *466:10 2.27233e-05
76 *460:66 *466:10 6.88249e-05
77 *460:87 *466:10 0.000238012
78 *460:87 *466:18 5.26936e-05
79 *460:87 *466:40 0.000279004
80 *465:12 *466:10 9.64018e-06
81 *465:12 *466:40 5.37854e-05
82 *465:12 *466:51 8.52502e-05
83 *465:12 *466:57 8.0391e-05
*RES
1 *1806:Z *466:10 10.672 
2 *466:10 *466:18 12.496 
3 *466:18 *1621:A1 10.672 
4 *466:18 *1623:A1 10.748 
5 *466:10 *466:40 0.988 
6 *466:40 *1615:A1 9 
7 *466:40 *466:51 6.856 
8 *466:51 *466:57 12.1 
9 *466:57 *1619:A1 9 
10 *466:57 *1617:A1 12.648 
11 *466:51 *466:97 30.996 
12 *466:97 *1625:A1 4.5 
13 *466:97 *1644:A1 6.552 
*END

*D_NET *467 0.0336648
*CONN
*I *1636:A1 I *D gf180mcu_fd_sc_mcu7t5v0__nor2_1
*I *1379:I I *D gf180mcu_fd_sc_mcu7t5v0__clkinv_1
*I *1606:A2 I *D gf180mcu_fd_sc_mcu7t5v0__nor2_1
*I *1530:A1 I *D gf180mcu_fd_sc_mcu7t5v0__nor2_1
*I *1531:A1 I *D gf180mcu_fd_sc_mcu7t5v0__or2_1
*I *1508:B I *D gf180mcu_fd_sc_mcu7t5v0__aoi21_1
*I *1634:A1 I *D gf180mcu_fd_sc_mcu7t5v0__nor2_1
*I *1632:A1 I *D gf180mcu_fd_sc_mcu7t5v0__nor2_1
*I *1630:A1 I *D gf180mcu_fd_sc_mcu7t5v0__nor2_1
*I *1628:A1 I *D gf180mcu_fd_sc_mcu7t5v0__nor2_1
*I *1807:Z O *D gf180mcu_fd_sc_mcu7t5v0__dlyb_1
*CAP
1 *1636:A1 0.000161872
2 *1379:I 0
3 *1606:A2 0.000483841
4 *1530:A1 9.40743e-05
5 *1531:A1 0
6 *1508:B 0.000467269
7 *1634:A1 0
8 *1632:A1 0
9 *1630:A1 0
10 *1628:A1 0.00014389
11 *1807:Z 0.000429283
12 *467:102 0.000664398
13 *467:98 0.000945498
14 *467:92 0.00177657
15 *467:86 0.00322381
16 *467:80 0.00297173
17 *467:65 0.000659426
18 *467:46 0.000880616
19 *467:18 0.000173413
20 *467:14 0.000904474
21 *1628:A1 *1473:B2 0.000203407
22 *1628:A1 *1807:I 0.00044869
23 *467:14 *1425:A2 0.000370526
24 *467:14 *1429:A2 4.02477e-06
25 *467:14 *1807:I 2.29887e-05
26 *467:46 *479:80 0.000742294
27 *467:86 *1662:A1 0
28 *467:86 *482:27 0
29 *467:86 *483:12 3.62261e-05
30 *467:86 *487:22 5.42128e-05
31 *467:92 *487:22 6.73926e-05
32 *1418:A2 *1628:A1 0.000208426
33 *1418:A2 *467:18 3.35674e-05
34 *1424:B2 *467:86 0
35 *1425:A3 *467:46 4.00744e-05
36 *1488:A1 *1606:A2 1.05195e-05
37 *1488:A2 *1606:A2 1.75512e-05
38 *1489:A1 *1606:A2 0.000539421
39 *1489:A3 *467:98 9.58397e-05
40 *1490:B *1606:A2 0.000137785
41 *1507:A2 *1508:B 0.000187268
42 *1507:C *1508:B 0.000192419
43 *1508:A2 *1508:B 2.48822e-05
44 *1518:A1 *467:86 0.000155983
45 *1521:A2 *467:86 0.000190367
46 *1526:C *1508:B 7.24161e-06
47 *1531:A2 *1508:B 2.05156e-05
48 *1531:A2 *1530:A1 0
49 *1531:A2 *467:102 3.08902e-05
50 *1539:S *467:86 0.000119798
51 *1546:A2 *1508:B 1.11169e-05
52 *1546:A2 *467:102 0
53 *1570:C *1508:B 5.0126e-05
54 *1571:A1 *467:98 0
55 *1571:A2 *467:102 5.75752e-06
56 *1572:A2 *1508:B 3.10417e-05
57 *1572:A2 *467:102 0
58 *1575:A1 *467:92 5.14736e-06
59 *1576:A2 *467:92 4.35276e-05
60 *1596:I0 *467:86 1.63527e-05
61 *1596:I1 *467:86 0.000740387
62 *1596:I1 *467:92 9e-05
63 *1605:A1 *467:98 0
64 *1605:A2 *467:98 0
65 *1606:A1 *1606:A2 2.22657e-05
66 *1607:A2 *467:98 0
67 *1628:A2 *1628:A1 4.58601e-06
68 *1628:A2 *467:14 5.59369e-05
69 *1628:A2 *467:18 1.70704e-05
70 *1629:A2 *467:14 0
71 *1630:A2 *1628:A1 2.03665e-05
72 *1634:A2 *467:80 9.88736e-06
73 *1635:B1 *467:65 0.000199636
74 *1636:A2 *1636:A1 0.000218766
75 *1638:A2 *467:65 8.12252e-05
76 *1666:A1 *467:86 5.49185e-05
77 *1669:A1 *467:86 0.000139718
78 *1693:CLK *467:86 9.11446e-05
79 *1706:D *467:86 0.000142908
80 *1710:D *467:86 0.000397575
81 *1711:D *467:86 0.000310982
82 *1725:D *1628:A1 0.000108498
83 *1725:D *467:14 0.000242033
84 *1726:D *1628:A1 8.62813e-05
85 *1726:D *467:14 0.000148309
86 *1728:D *467:65 0.000229423
87 *1728:D *467:80 4.47127e-05
88 *1729:D *1636:A1 0.000475727
89 *1729:D *467:80 0.000140658
90 *1730:D *467:80 3.51772e-05
91 *1730:D *467:86 8.83393e-05
92 *1742:D *467:86 8.71413e-05
93 *1781:I *467:86 0
94 *1781:I *467:92 7.588e-05
95 *1849:I *467:65 0.000109841
96 *140:12 *467:86 0.00107739
97 *140:20 *467:86 3.00084e-05
98 *160:72 *467:14 2.30219e-05
99 *228:8 *1606:A2 1.91917e-06
100 *230:14 *467:98 0.000402978
101 *230:18 *1530:A1 8.55242e-05
102 *230:18 *467:98 1.2339e-05
103 *230:18 *467:102 5.91493e-05
104 *230:33 *1508:B 0.00011393
105 *244:28 *1508:B 8.94564e-05
106 *244:28 *467:102 0
107 *244:47 *1508:B 0.000201957
108 *277:14 *1508:B 0.000320265
109 *327:31 *467:14 0.000124241
110 *327:31 *467:46 0
111 *379:16 *467:86 7.71074e-06
112 *380:25 *467:86 0.00015597
113 *386:12 *467:86 6.88959e-05
114 *387:12 *467:86 7.06588e-05
115 *395:25 *467:65 3.56172e-05
116 *396:12 *467:80 0.000399793
117 *396:21 *1636:A1 1.5693e-05
118 *396:21 *467:80 8.04139e-05
119 *396:23 *467:80 1.33998e-05
120 *396:23 *467:86 4.1487e-05
121 *396:31 *1636:A1 1.17762e-05
122 *396:31 *467:86 5.66334e-05
123 *400:10 *467:92 0.000861613
124 *400:16 *467:92 0.00051088
125 *400:16 *467:98 0.000292381
126 *400:46 *467:92 9.45074e-05
127 *400:59 *467:86 0
128 *400:59 *467:92 1.85312e-05
129 *401:31 *1606:A2 1.50588e-05
130 *407:16 *467:86 6.26721e-05
131 *407:16 *467:92 6.73926e-05
132 *417:14 *1636:A1 1.17762e-05
133 *417:14 *467:46 0.00182296
134 *417:14 *467:65 0.000562067
135 *417:14 *467:80 0.000125712
136 *417:20 *1628:A1 0.00015752
137 *419:18 *1606:A2 0.000431535
138 *420:47 *467:98 0.00060514
139 *420:56 *467:98 4.24903e-05
140 *444:37 *467:86 0.000397569
141 *453:119 *467:46 0.000246065
142 *458:19 *467:65 0.00126378
143 *464:16 *467:92 0
144 *464:20 *467:98 0
*RES
1 *1807:Z *467:14 13.104 
2 *467:14 *467:18 4.728 
3 *467:18 *1628:A1 16.008 
4 *467:18 *1630:A1 4.5 
5 *467:14 *467:46 19.96 
6 *467:46 *1632:A1 4.5 
7 *467:46 *467:65 23.548 
8 *467:65 *1634:A1 4.5 
9 *467:65 *467:80 7.084 
10 *467:80 *467:86 29.124 
11 *467:86 *467:92 11.036 
12 *467:92 *467:98 10.428 
13 *467:98 *467:102 1.368 
14 *467:102 *1508:B 9.364 
15 *467:102 *1531:A1 4.5 
16 *467:98 *1530:A1 5.26 
17 *467:92 *1606:A2 13.788 
18 *467:86 *1379:I 4.5 
19 *467:80 *1636:A1 10.9 
*END

*D_NET *468 0.0324728
*CONN
*I *1805:I I *D gf180mcu_fd_sc_mcu7t5v0__dlyb_1
*I *1806:I I *D gf180mcu_fd_sc_mcu7t5v0__dlyb_1
*I *1640:A1 I *D gf180mcu_fd_sc_mcu7t5v0__nor2_1
*I *1646:A1 I *D gf180mcu_fd_sc_mcu7t5v0__nor2_1
*I *1642:A1 I *D gf180mcu_fd_sc_mcu7t5v0__nor2_1
*I *1638:A1 I *D gf180mcu_fd_sc_mcu7t5v0__nor2_1
*I *1807:I I *D gf180mcu_fd_sc_mcu7t5v0__dlyb_1
*I *1808:Z O *D gf180mcu_fd_sc_mcu7t5v0__dlyb_1
*CAP
1 *1805:I 0.000607903
2 *1806:I 0
3 *1640:A1 0.000115733
4 *1646:A1 0.000208114
5 *1642:A1 0
6 *1638:A1 0
7 *1807:I 0.000675491
8 *1808:Z 0.00016329
9 *468:101 0.000715402
10 *468:74 0.000560115
11 *468:70 0.000778061
12 *468:59 0.00101547
13 *468:38 0.00271141
14 *468:6 0.00160157
15 *1640:A1 *483:12 0
16 *1640:A1 *483:55 0.000108139
17 *1807:I *1421:A2 0.000105922
18 *468:38 *1469:A1 0.000299574
19 *468:38 *480:10 0.000469371
20 *468:59 *1657:A1 0.000279537
21 *468:59 *480:6 0.000122747
22 *468:59 *480:10 0.0018549
23 *468:59 *482:31 0.000585986
24 *468:59 *482:39 0.00312269
25 *468:70 *1664:A1 3.80391e-05
26 *468:70 *483:55 9.42866e-05
27 *468:70 *484:18 0.000116547
28 *468:74 *1541:I0 0.000113259
29 *468:74 *483:55 2.71615e-05
30 *1390:A1 *468:38 0
31 *1418:A2 *1807:I 0.000260522
32 *1430:A2 *1807:I 0.00222709
33 *1458:A1 *468:38 0.000793956
34 *1458:B *468:38 0.00304132
35 *1467:A4 *468:38 3.28878e-05
36 *1469:A2 *468:38 0.00044835
37 *1471:A2 *468:38 5.32103e-05
38 *1539:S *468:59 0.000787074
39 *1539:S *468:70 1.20079e-05
40 *1541:S *468:70 0.000780699
41 *1541:S *468:74 1.08681e-05
42 *1610:B2 *468:38 1.18988e-05
43 *1611:A1 *468:38 0.000184412
44 *1612:A1 *468:38 7.32209e-05
45 *1612:B2 *468:6 0.000128339
46 *1612:B2 *468:38 5.82304e-06
47 *1613:A2 *468:38 1.3493e-05
48 *1621:A2 *468:38 0.000229973
49 *1623:A1 *468:38 1.97747e-05
50 *1628:A1 *1807:I 0.00044869
51 *1638:A2 *468:59 3.37018e-05
52 *1642:A2 *1640:A1 0
53 *1642:A2 *1646:A1 4.50449e-05
54 *1642:A2 *468:74 0.000303928
55 *1689:CLK *468:38 0.000975047
56 *1689:CLK *468:59 0.000649313
57 *1717:D *468:6 0
58 *1718:D *1805:I 0.000378272
59 *1718:D *468:101 1.12136e-05
60 *1718:CLK *1805:I 0.000109319
61 *1719:CLK *468:6 1.53727e-05
62 *1726:D *1807:I 0.000213224
63 *1732:D *1646:A1 9.26705e-05
64 *1734:D *1646:A1 6.50663e-05
65 *1734:CLK *1646:A1 0
66 *1754:D *468:38 0.000126905
67 *1775:I *468:59 0
68 *1775:I *468:70 1.6967e-05
69 *1775:I *468:74 2.62943e-06
70 *1776:I *1807:I 3.71904e-05
71 *1797:I *468:38 3.20245e-05
72 *1797:I *468:101 0.000109233
73 *1801:I *1807:I 0.000265755
74 *1808:I *1805:I 9.20963e-05
75 *1808:I *468:101 0.000100156
76 *1821:I *1807:I 0.000265755
77 *160:72 *1807:I 0.000426701
78 *165:41 *468:38 3.46737e-05
79 *189:32 *468:38 0.000154438
80 *191:46 *468:38 6.74393e-05
81 *368:10 *468:38 0.000137785
82 *369:14 *468:38 0.000495496
83 *370:32 *468:38 0
84 *391:15 *1805:I 0.000230115
85 *391:15 *468:101 5.31158e-05
86 *391:44 *1805:I 6.26153e-05
87 *393:6 *468:59 0
88 *396:31 *468:74 0
89 *424:10 *1805:I 0.000159281
90 *460:66 *468:38 0.00034051
91 *465:25 *468:38 0.00029239
92 *467:14 *1807:I 2.29887e-05
*RES
1 *1808:Z *468:6 5.64 
2 *468:6 *468:38 27.088 
3 *468:38 *1807:I 22.924 
4 *468:38 *468:59 14.136 
5 *468:59 *1638:A1 4.5 
6 *468:59 *468:70 7.844 
7 *468:70 *468:74 7.464 
8 *468:74 *1642:A1 4.5 
9 *468:74 *1646:A1 6.172 
10 *468:70 *1640:A1 9.988 
11 *468:6 *468:101 5.64 
12 *468:101 *1806:I 9 
13 *468:101 *1805:I 14.624 
*END

*D_NET *469 0.000291266
*CONN
*I *1766:D I *D gf180mcu_fd_sc_mcu7t5v0__dffq_1
*I *1809:Z O *D gf180mcu_fd_sc_mcu7t5v0__dlyc_1
*CAP
1 *1766:D 0.000145633
2 *1809:Z 0.000145633
*RES
1 *1809:Z *1766:D 9.836 
*END

*D_NET *470 0.00161168
*CONN
*I *1765:D I *D gf180mcu_fd_sc_mcu7t5v0__dffq_1
*I *1810:Z O *D gf180mcu_fd_sc_mcu7t5v0__dlyc_1
*CAP
1 *1765:D 0.000551442
2 *1810:Z 0.000551442
3 *1765:D *487:22 0.000508798
4 *1765:CLK *1765:D 0
5 *401:6 *1765:D 0
*RES
1 *1810:Z *1765:D 13.256 
*END

*D_NET *471 0.0036737
*CONN
*I *1417:A2 I *D gf180mcu_fd_sc_mcu7t5v0__nand3_1
*I *1819:Z O *D gf180mcu_fd_sc_mcu7t5v0__dlyb_1
*CAP
1 *1417:A2 0.000575697
2 *1819:Z 0.000575697
3 *1417:A2 *1421:A2 0.000505144
4 *1417:A1 *1417:A2 2.49387e-05
5 *1683:A2 *1417:A2 0.000124318
6 *1684:A2 *1417:A2 0.000567127
7 *1801:I *1417:A2 0
8 *160:42 *1417:A2 0.000301553
9 *417:28 *1417:A2 1.69506e-05
10 *417:80 *1417:A2 6.21288e-05
11 *430:25 *1417:A2 0.000920146
*RES
1 *1819:Z *1417:A2 24.612 
*END

*D_NET *472 0.00293625
*CONN
*I *1421:A2 I *D gf180mcu_fd_sc_mcu7t5v0__nand2_1
*I *1820:Z O *D gf180mcu_fd_sc_mcu7t5v0__dlyb_1
*CAP
1 *1421:A2 0.000384699
2 *1820:Z 0.000384699
3 *1421:A2 *1425:A2 0.000369754
4 *1417:A1 *1421:A2 4.58601e-06
5 *1417:A2 *1421:A2 0.000505144
6 *1683:A2 *1421:A2 2.07594e-05
7 *1776:I *1421:A2 0.00029232
8 *1807:I *1421:A2 0.000105922
9 *160:42 *1421:A2 4.2318e-06
10 *417:20 *1421:A2 3.08902e-05
11 *417:22 *1421:A2 9.26705e-05
12 *417:67 *1421:A2 0.000207605
13 *417:80 *1421:A2 0.000408653
14 *430:25 *1421:A2 0.000124318
*RES
1 *1820:Z *1421:A2 23.244 
*END

*D_NET *473 0.00385806
*CONN
*I *1425:A2 I *D gf180mcu_fd_sc_mcu7t5v0__nand3_1
*I *1821:Z O *D gf180mcu_fd_sc_mcu7t5v0__dlyb_1
*CAP
1 *1425:A2 0.00048711
2 *1821:Z 0.00048711
3 *1421:A2 *1425:A2 0.000369754
4 *1627:A1 *1425:A2 0.000660764
5 *1630:A2 *1425:A2 4.47565e-05
6 *1683:A2 *1425:A2 1.15244e-05
7 *1683:A3 *1425:A2 0.000105022
8 *1726:D *1425:A2 0.00030449
9 *1833:I *1425:A2 1.98965e-05
10 *160:72 *1425:A2 2.57058e-06
11 *395:14 *1425:A2 0.000615527
12 *430:25 *1425:A2 0.00034448
13 *453:119 *1425:A2 3.45305e-05
14 *467:14 *1425:A2 0.000370526
*RES
1 *1821:Z *1425:A2 24.992 
*END

*D_NET *474 0.00175281
*CONN
*I *1429:A2 I *D gf180mcu_fd_sc_mcu7t5v0__nand3_1
*I *1822:Z O *D gf180mcu_fd_sc_mcu7t5v0__dlyb_1
*CAP
1 *1429:A2 0.000424576
2 *1822:Z 0.000424576
3 *1429:A1 *1429:A2 4.58601e-06
4 *1629:A2 *1429:A2 1.11891e-05
5 *1683:A1 *1429:A2 3.33508e-05
6 *1683:A3 *1429:A2 2.25184e-05
7 *1725:CLK *1429:A2 1.34535e-05
8 *1726:D *1429:A2 0.000110054
9 *1776:I *1429:A2 0.000378363
10 *160:72 *1429:A2 0.000249413
11 *395:14 *1429:A2 7.67087e-05
12 *467:14 *1429:A2 4.02477e-06
*RES
1 *1822:Z *1429:A2 22.028 
*END

*D_NET *475 0.00157943
*CONN
*I *1387:A2 I *D gf180mcu_fd_sc_mcu7t5v0__and2_1
*I *1386:A2 I *D gf180mcu_fd_sc_mcu7t5v0__nor2_1
*I *1715:Q O *D gf180mcu_fd_sc_mcu7t5v0__dffq_1
*CAP
1 *1387:A2 8.07441e-05
2 *1386:A2 0
3 *1715:Q 0.000216388
4 *475:10 0.000297132
5 *1767:D *1387:A2 4.2318e-06
6 *1767:CLK *1387:A2 0.00032464
7 *1767:CLK *475:10 4.50449e-05
8 *132:16 *1387:A2 0.000611244
*RES
1 *1715:Q *475:10 6.248 
2 *475:10 *1386:A2 4.5 
3 *475:10 *1387:A2 6.476 
*END

*D_NET *476 0.00322824
*CONN
*I *1406:A2 I *D gf180mcu_fd_sc_mcu7t5v0__xor2_1
*I *1388:A2 I *D gf180mcu_fd_sc_mcu7t5v0__and2_1
*I *1480:B3 I *D gf180mcu_fd_sc_mcu7t5v0__oai33_1
*I *1389:A2 I *D gf180mcu_fd_sc_mcu7t5v0__nand2_1
*I *1556:I1 I *D gf180mcu_fd_sc_mcu7t5v0__mux2_2
*I *1696:Q O *D gf180mcu_fd_sc_mcu7t5v0__dffq_1
*CAP
1 *1406:A2 4.75787e-05
2 *1388:A2 0
3 *1480:B3 0.000182943
4 *1389:A2 2.80421e-05
5 *1556:I1 0.000434362
6 *1696:Q 0
7 *476:34 0.000327084
8 *476:30 0.000307013
9 *476:19 0.000489601
10 *476:6 0.000780628
11 *1406:A2 *1380:I 0
12 *1480:B3 *1380:I 2.70169e-05
13 *476:19 *1380:I 0
14 *476:30 *1380:I 0
15 *476:34 *1380:I 5.0001e-05
16 *1389:A1 *476:34 3.64183e-05
17 *1397:A2 *1480:B3 0
18 *1480:B1 *1480:B3 4.78829e-05
19 *1480:B2 *1480:B3 8.73421e-05
20 *1553:A2 *1389:A2 1.15244e-05
21 *1696:D *1556:I1 4.1381e-05
22 *1759:D *1480:B3 8.9996e-05
23 *1760:CLK *1556:I1 0
24 *1779:I *1480:B3 2.57058e-06
25 *1779:I *476:34 6.63182e-06
26 *141:19 *1480:B3 1.02578e-05
27 *141:19 *476:34 4.38369e-05
28 *146:10 *476:34 3.64107e-05
29 *147:10 *1389:A2 2.22657e-05
30 *147:10 *1406:A2 1.24299e-05
31 *147:10 *476:30 4.03922e-06
32 *147:10 *476:34 8.55242e-05
33 *154:10 *1556:I1 0
34 *154:10 *476:19 0
35 *154:10 *476:30 0
36 *390:8 *1556:I1 1.54542e-05
37 *390:10 *1556:I1 0
*RES
1 *1696:Q *476:6 9 
2 *476:6 *1556:I1 11.888 
3 *476:6 *476:19 2.204 
4 *476:19 *1389:A2 9.228 
5 *476:19 *476:30 0.684 
6 *476:30 *476:34 5.792 
7 *476:34 *1480:B3 15.172 
8 *476:34 *1388:A2 4.5 
9 *476:30 *1406:A2 9.38 
*END

*D_NET *477 0.0162508
*CONN
*I *1534:I1 I *D gf180mcu_fd_sc_mcu7t5v0__mux2_2
*I *1627:B2 I *D gf180mcu_fd_sc_mcu7t5v0__aoi22_1
*I *1535:I0 I *D gf180mcu_fd_sc_mcu7t5v0__mux2_2
*I *1670:A1 I *D gf180mcu_fd_sc_mcu7t5v0__aoi22_1
*I *1361:I I *D gf180mcu_fd_sc_mcu7t5v0__clkinv_1
*I *1687:Q O *D gf180mcu_fd_sc_mcu7t5v0__dffq_1
*CAP
1 *1534:I1 0.000273696
2 *1627:B2 0.000633295
3 *1535:I0 0
4 *1670:A1 9.5912e-05
5 *1361:I 3.81116e-05
6 *1687:Q 6.42889e-05
7 *477:44 0.00195286
8 *477:22 0.000818456
9 *477:10 0.00253434
10 *477:6 0.000868326
11 *1627:B2 *1536:I0 0
12 *1627:B2 *478:10 0
13 *1627:B2 *481:8 0
14 *477:22 *1431:I0 3.73535e-05
15 *477:22 *496:6 0.000407639
16 *477:44 *1360:I 0
17 *477:44 *1653:A1 0.000183434
18 *477:44 *478:10 0
19 *477:44 *478:12 0
20 *477:44 *478:14 0
21 *477:44 *481:8 0
22 *477:44 *481:14 0
23 *1416:B2 *477:44 0.000378609
24 *1420:A2 *1670:A1 0.000127484
25 *1422:B2 *1361:I 7.61651e-05
26 *1426:A2 *1627:B2 4.50449e-05
27 *1447:A1 *477:22 3.08816e-05
28 *1515:A1 *477:44 3.95711e-05
29 *1630:A2 *1627:B2 0.000340349
30 *1631:B1 *1627:B2 2.10121e-05
31 *1649:B *477:22 0.00137937
32 *1650:A1 *1361:I 0.000187632
33 *1652:B *477:22 0.000288913
34 *1659:A2 *477:44 0.00017557
35 *1660:A1 *477:44 4.06314e-05
36 *1670:B1 *1670:A1 6.31034e-05
37 *1676:A1 *1670:A1 0.000127484
38 *1677:I1 *1670:A1 0.00046646
39 *1677:I1 *477:22 0.000370756
40 *1678:B2 *477:44 5.69633e-06
41 *1680:A2 *1670:A1 2.90023e-05
42 *1685:I1 *1670:A1 0.000771827
43 *1685:I1 *477:22 0.000366039
44 *1687:D *1534:I1 0.000111727
45 *1688:CLK *477:44 0.000107215
46 *1735:D *477:22 0.000223494
47 *1736:D *477:10 0
48 *1736:D *477:44 0
49 *1736:CLK *477:10 0
50 *1783:I *1534:I1 0
51 *1783:I *477:6 0
52 *1824:I *1627:B2 0
53 *1825:I *477:22 5.40301e-05
54 *1833:I *1627:B2 0.000321861
55 *120:10 *477:44 4.73783e-05
56 *121:12 *477:44 0
57 *169:27 *477:22 3.44171e-05
58 *272:23 *1534:I1 0.000205933
59 *272:23 *477:10 0
60 *272:23 *477:44 0
61 *338:20 *477:22 0.000187268
62 *338:39 *477:22 5.94067e-05
63 *339:22 *477:22 0.000478118
64 *339:29 *477:22 2.88155e-05
65 *339:57 *477:44 4.87601e-06
66 *374:10 *477:44 0.000187673
67 *375:10 *477:10 0.000228432
68 *375:10 *477:44 6.04444e-06
69 *377:10 *477:44 0.000632712
70 *395:14 *1627:B2 4.45157e-06
71 *395:18 *1627:B2 8.02751e-06
72 *417:20 *1627:B2 5.09837e-05
73 *464:86 *477:44 2.86154e-05
*RES
1 *1687:Q *477:6 4.88 
2 *477:6 *477:10 8.832 
3 *477:10 *477:22 18.424 
4 *477:22 *1361:I 9.532 
5 *477:22 *1670:A1 11.432 
6 *477:10 *477:44 10.868 
7 *477:44 *1535:I0 9 
8 *477:44 *1627:B2 14.016 
9 *477:6 *1534:I1 15.932 
*END

*D_NET *478 0.00529731
*CONN
*I *1629:B2 I *D gf180mcu_fd_sc_mcu7t5v0__aoi22_1
*I *1536:I0 I *D gf180mcu_fd_sc_mcu7t5v0__mux2_2
*I *1535:I1 I *D gf180mcu_fd_sc_mcu7t5v0__mux2_2
*I *1674:A1 I *D gf180mcu_fd_sc_mcu7t5v0__oai221_1
*I *1360:I I *D gf180mcu_fd_sc_mcu7t5v0__clkinv_1
*I *1688:Q O *D gf180mcu_fd_sc_mcu7t5v0__dffq_1
*CAP
1 *1629:B2 0.000180027
2 *1536:I0 0.000117972
3 *1535:I1 5.42e-05
4 *1674:A1 6.7777e-05
5 *1360:I 0.00014593
6 *1688:Q 0
7 *478:14 0.00127065
8 *478:12 0.00125276
9 *478:10 0.000536587
10 *478:6 0.000457026
11 *1535:I1 *483:24 0.000171927
12 *1674:A1 *1653:A1 0.000310356
13 *478:14 *1424:A1 0
14 *478:14 *483:24 0
15 *1416:B2 *478:14 0
16 *1416:C *478:14 0.00014389
17 *1424:B2 *1674:A1 5.48455e-05
18 *1536:S *1535:I1 0.000171927
19 *1536:S *1536:I0 8.7332e-05
20 *1627:B2 *1536:I0 0
21 *1627:B2 *478:10 0
22 *1833:I *1629:B2 5.54229e-05
23 *120:10 *478:14 1.17331e-05
24 *161:59 *1360:I 4.21332e-05
25 *161:59 *478:14 7.67087e-05
26 *173:16 *1360:I 0
27 *377:10 *478:14 0
28 *395:14 *1629:B2 8.55242e-05
29 *417:20 *1536:I0 2.57058e-06
30 *417:20 *478:10 0
31 *477:44 *1360:I 0
32 *477:44 *478:10 0
33 *477:44 *478:12 0
34 *477:44 *478:14 0
*RES
1 *1688:Q *478:6 9 
2 *478:6 *478:10 1.824 
3 *478:10 *478:12 0.836 
4 *478:12 *478:14 6.916 
5 *478:14 *1360:I 9.988 
6 *478:14 *1674:A1 9.836 
7 *478:12 *1535:I1 9.988 
8 *478:10 *1536:I0 9.836 
9 *478:6 *1629:B2 10.216 
*END

*D_NET *479 0.0218701
*CONN
*I *1631:B2 I *D gf180mcu_fd_sc_mcu7t5v0__aoi22_1
*I *1537:I0 I *D gf180mcu_fd_sc_mcu7t5v0__mux2_2
*I *1536:I1 I *D gf180mcu_fd_sc_mcu7t5v0__mux2_2
*I *1452:A1 I *D gf180mcu_fd_sc_mcu7t5v0__oai21_1
*I *1678:A1 I *D gf180mcu_fd_sc_mcu7t5v0__oai221_1
*I *1653:A1 I *D gf180mcu_fd_sc_mcu7t5v0__nor2_1
*I *1689:Q O *D gf180mcu_fd_sc_mcu7t5v0__dffq_1
*CAP
1 *1631:B2 0.000232185
2 *1537:I0 6.72324e-05
3 *1536:I1 0.000127178
4 *1452:A1 0.00187266
5 *1678:A1 0
6 *1653:A1 0.000592391
7 *1689:Q 6.36201e-05
8 *479:80 0.000893442
9 *479:26 0.000734798
10 *479:20 0.00268271
11 *479:14 0.000877045
12 *479:10 0.000739866
13 *1536:I1 *1473:B2 5.75752e-06
14 *479:14 *1473:B2 0.000335667
15 *479:20 *1473:B2 5.67474e-05
16 *1392:A1 *1452:A1 8.06016e-05
17 *1392:A2 *1452:A1 0.00014515
18 *1414:A2 *1452:A1 0.000601781
19 *1415:A1 *1452:A1 1.0973e-05
20 *1418:A1 *479:20 9.52854e-05
21 *1418:A2 *479:20 0.00137441
22 *1419:I1 *479:20 0.00037849
23 *1419:I1 *479:26 0.00020602
24 *1420:B1 *1452:A1 0.000125838
25 *1420:B2 *1452:A1 0.000882783
26 *1420:B2 *1653:A1 0
27 *1424:B2 *1653:A1 7.78863e-05
28 *1426:A2 *479:10 6.12449e-05
29 *1426:A2 *479:14 0.00070767
30 *1426:A2 *479:20 9.69812e-05
31 *1430:A1 *479:20 4.11798e-05
32 *1431:I1 *479:20 6.12293e-05
33 *1431:I1 *479:26 3.56568e-05
34 *1448:A3 *1452:A1 2.96621e-05
35 *1452:B *1452:A1 0.000147316
36 *1453:A1 *1452:A1 2.6126e-05
37 *1632:A2 *1631:B2 0.000111867
38 *1670:B1 *1452:A1 6.95885e-05
39 *1674:A1 *1653:A1 0.000310356
40 *1674:B2 *1653:A1 0
41 *1676:A1 *1653:A1 0.000145622
42 *1676:A1 *479:26 0.000361015
43 *1678:A2 *1653:A1 0.000422786
44 *1678:B2 *1653:A1 2.63488e-06
45 *1680:A1 *479:26 0.000246965
46 *1682:B2 *1452:A1 6.93287e-05
47 *1682:C *1452:A1 0
48 *1689:D *1536:I1 1.1971e-05
49 *1689:D *479:20 2.57058e-06
50 *1727:D *1631:B2 9.62572e-05
51 *1830:I *1452:A1 8.30769e-05
52 *142:21 *1452:A1 4.17057e-05
53 *150:43 *1452:A1 0.00041486
54 *161:55 *1653:A1 1.20079e-05
55 *171:8 *1452:A1 0.000756532
56 *173:12 *479:26 2.79476e-05
57 *194:18 *1452:A1 0.000127736
58 *338:52 *1653:A1 1.68484e-05
59 *339:57 *1653:A1 0.000234498
60 *374:10 *1653:A1 0
61 *377:10 *1653:A1 0.000248663
62 *389:87 *479:20 0
63 *395:18 *1631:B2 0.000429161
64 *395:25 *1631:B2 5.4634e-05
65 *404:16 *1452:A1 0.00200616
66 *417:20 *479:10 0
67 *444:14 *1537:I0 9.23657e-05
68 *444:14 *1631:B2 4.1227e-05
69 *455:12 *1452:A1 0
70 *458:19 *1631:B2 3.84276e-05
71 *467:46 *479:80 0.000742294
72 *477:44 *1653:A1 0.000183434
*RES
1 *1689:Q *479:10 9.456 
2 *479:10 *479:14 6.248 
3 *479:14 *479:20 11.492 
4 *479:20 *479:26 6.628 
5 *479:26 *1653:A1 19.428 
6 *479:26 *1678:A1 4.5 
7 *479:20 *1452:A1 26.936 
8 *479:14 *1536:I1 5.184 
9 *479:10 *479:80 14.396 
10 *479:80 *1537:I0 9.684 
11 *479:80 *1631:B2 11.432 
*END

*D_NET *480 0.0125382
*CONN
*I *1633:B2 I *D gf180mcu_fd_sc_mcu7t5v0__aoi22_1
*I *1657:A1 I *D gf180mcu_fd_sc_mcu7t5v0__nand2_1
*I *1538:I0 I *D gf180mcu_fd_sc_mcu7t5v0__mux2_2
*I *1537:I1 I *D gf180mcu_fd_sc_mcu7t5v0__mux2_2
*I *1456:A1 I *D gf180mcu_fd_sc_mcu7t5v0__nor2_1
*I *1682:A1 I *D gf180mcu_fd_sc_mcu7t5v0__oai221_1
*I *1690:Q O *D gf180mcu_fd_sc_mcu7t5v0__dffq_1
*CAP
1 *1633:B2 0.000292889
2 *1657:A1 0.000689479
3 *1538:I0 0.000515396
4 *1537:I1 4.06187e-05
5 *1456:A1 5.58054e-05
6 *1682:A1 0.00015811
7 *1690:Q 0
8 *480:34 0.00070384
9 *480:10 0.000730579
10 *480:6 0.00101798
11 *480:4 0.000750081
12 *1456:A1 *1420:A1 0.000117412
13 *1537:I1 *481:32 0.000248663
14 *1537:I1 *483:24 0.000104697
15 *1538:I0 *481:32 7.49908e-05
16 *1538:I0 *481:41 4.34497e-05
17 *1682:A1 *1420:A1 0.000258787
18 *480:10 *1416:A1 0.000185617
19 *480:10 *1469:A1 0.00143463
20 *480:10 *481:14 2.03424e-05
21 *1416:A2 *480:10 0
22 *1428:B2 *1657:A1 1.93526e-05
23 *1538:S *1538:I0 0.0006213
24 *1635:A1 *1633:B2 5.76749e-06
25 *1636:A2 *1633:B2 3.07734e-05
26 *1658:A3 *1657:A1 2.44046e-05
27 *1684:A1 *1682:A1 0.000308746
28 *1684:A2 *1456:A1 6.13775e-05
29 *1684:A2 *1682:A1 0.000173311
30 *1688:CLK *480:10 9.27168e-05
31 *1690:D *1538:I0 0.000139374
32 *1690:D *480:34 9.50338e-05
33 *1690:CLK *1633:B2 3.08902e-05
34 *1691:D *480:34 0
35 *1738:D *1657:A1 0
36 *272:23 *480:34 0
37 *389:105 *1682:A1 7.2104e-05
38 *393:6 *1657:A1 0
39 *393:10 *1657:A1 0
40 *393:10 *480:6 0
41 *393:10 *480:10 0
42 *393:43 *480:10 0.000190667
43 *396:12 *1633:B2 0.000376901
44 *444:33 *1538:I0 1.02578e-05
45 *444:33 *1633:B2 0
46 *458:19 *1538:I0 0
47 *458:19 *1633:B2 0.00011528
48 *468:38 *480:10 0.000469371
49 *468:59 *1657:A1 0.000279537
50 *468:59 *480:6 0.000122747
51 *468:59 *480:10 0.0018549
*RES
1 *1690:Q *480:4 4.5 
2 *480:4 *480:6 0.684 
3 *480:6 *480:10 13.392 
4 *480:10 *1682:A1 11.28 
5 *480:10 *1456:A1 9.684 
6 *480:6 *480:34 7.008 
7 *480:34 *1537:I1 9.684 
8 *480:34 *1538:I0 11.584 
9 *480:4 *1657:A1 17.832 
10 *1538:I0 *1633:B2 11.584 
*END

*D_NET *481 0.00691463
*CONN
*I *1539:I0 I *D gf180mcu_fd_sc_mcu7t5v0__mux2_2
*I *1635:B2 I *D gf180mcu_fd_sc_mcu7t5v0__aoi22_1
*I *1538:I1 I *D gf180mcu_fd_sc_mcu7t5v0__mux2_2
*I *1416:A1 I *D gf180mcu_fd_sc_mcu7t5v0__oai221_1
*I *1359:I I *D gf180mcu_fd_sc_mcu7t5v0__clkinv_1
*I *1691:Q O *D gf180mcu_fd_sc_mcu7t5v0__dffq_1
*CAP
1 *1539:I0 0.000437261
2 *1635:B2 0
3 *1538:I1 3.28034e-05
4 *1416:A1 0.000289663
5 *1359:I 0
6 *1691:Q 8.83864e-05
7 *481:41 0.000560013
8 *481:32 0.000396344
9 *481:14 0.000733379
10 *481:8 0.00077289
11 *1416:A1 *484:41 0.000136558
12 *1539:I0 *482:27 0
13 *1539:I0 *482:70 0
14 *1539:I0 *483:24 1.20079e-05
15 *1539:I0 *484:18 1.97166e-05
16 *481:14 *484:41 8.16677e-05
17 *481:32 *483:24 0.0002342
18 *481:41 *483:24 0.000282924
19 *1416:A2 *1416:A1 1.02578e-05
20 *1537:I1 *481:32 0.000248663
21 *1538:I0 *481:32 7.49908e-05
22 *1538:I0 *481:41 4.34497e-05
23 *1538:S *481:32 1.53689e-05
24 *1627:B2 *481:8 0
25 *1638:A2 *1539:I0 0
26 *1688:CLK *481:14 0.000130588
27 *1690:D *481:32 0.000103141
28 *1692:D *1539:I0 0.000111266
29 *1774:I *1539:I0 0
30 *1824:I *481:8 0.000157232
31 *272:23 *481:8 3.35674e-05
32 *272:23 *481:14 0.000646708
33 *272:27 *481:32 0.000135056
34 *393:43 *481:14 1.20079e-05
35 *444:14 *481:32 2.88187e-05
36 *444:33 *1539:I0 8.55242e-05
37 *444:33 *481:41 0.000794212
38 *477:44 *481:8 0
39 *477:44 *481:14 0
40 *480:10 *1416:A1 0.000185617
41 *480:10 *481:14 2.03424e-05
*RES
1 *1691:Q *481:8 9.988 
2 *481:8 *481:14 9.06 
3 *481:14 *1359:I 4.5 
4 *481:14 *1416:A1 7.084 
5 *481:8 *481:32 7.312 
6 *481:32 *1538:I1 4.728 
7 *481:32 *481:41 2.508 
8 *481:41 *1635:B2 4.5 
9 *481:41 *1539:I0 16.692 
*END

*D_NET *482 0.0177282
*CONN
*I *1637:B2 I *D gf180mcu_fd_sc_mcu7t5v0__aoi22_1
*I *1540:I0 I *D gf180mcu_fd_sc_mcu7t5v0__mux2_2
*I *1539:I1 I *D gf180mcu_fd_sc_mcu7t5v0__mux2_2
*I *1464:A1 I *D gf180mcu_fd_sc_mcu7t5v0__nor2_1
*I *1420:A1 I *D gf180mcu_fd_sc_mcu7t5v0__aoi22_1
*I *1662:A1 I *D gf180mcu_fd_sc_mcu7t5v0__nand2_1
*I *1692:Q O *D gf180mcu_fd_sc_mcu7t5v0__dffq_1
*CAP
1 *1637:B2 0.000143501
2 *1540:I0 7.39843e-05
3 *1539:I1 0
4 *1464:A1 0.000107716
5 *1420:A1 0.000513857
6 *1662:A1 0.000495988
7 *1692:Q 0
8 *482:70 0.000446242
9 *482:39 0.00157827
10 *482:31 0.00106463
11 *482:27 0.000498867
12 *482:6 0.000658166
13 *1662:A1 *1668:A1 0.000130996
14 *1662:A1 *484:18 0.000168421
15 *482:27 *484:18 8.8608e-05
16 *482:39 *483:24 0
17 *1415:A1 *1420:A1 6.14317e-05
18 *1415:A2 *1420:A1 0.000835906
19 *1420:B2 *1420:A1 3.13603e-05
20 *1422:A2 *1420:A1 6.57222e-06
21 *1422:B1 *1420:A1 0
22 *1428:B2 *1662:A1 0.000339505
23 *1456:A1 *1420:A1 0.000117412
24 *1464:A2 *1464:A1 3.2657e-05
25 *1464:A2 *482:39 3.98682e-05
26 *1466:A2 *1464:A1 9.03795e-05
27 *1539:I0 *482:27 0
28 *1539:I0 *482:70 0
29 *1539:S *482:70 1.18942e-05
30 *1638:A2 *1637:B2 0.000637032
31 *1638:A2 *482:31 2.9378e-06
32 *1638:A2 *482:70 0.000886823
33 *1663:A3 *1662:A1 1.56454e-05
34 *1667:A1 *1662:A1 9.17202e-06
35 *1667:A2 *1662:A1 1.97747e-05
36 *1668:A2 *1662:A1 5.27712e-05
37 *1669:A2 *1662:A1 8.09693e-06
38 *1682:A1 *1420:A1 0.000258787
39 *1684:A2 *1464:A1 5.72229e-05
40 *1688:CLK *482:39 0.000665973
41 *1689:D *482:39 1.45415e-05
42 *1689:CLK *482:39 0.000424528
43 *1691:D *482:39 0.00107285
44 *1692:D *482:31 7.53241e-05
45 *1692:D *482:70 1.47007e-05
46 *1692:CLK *1540:I0 0.000369763
47 *1730:D *1637:B2 0.000136399
48 *1730:D *482:70 0.000230094
49 *1740:D *1662:A1 0.000129958
50 *1775:I *482:31 2.16837e-05
51 *1775:I *482:39 2.11204e-05
52 *1776:I *1420:A1 0.000146949
53 *1776:I *1464:A1 6.00933e-05
54 *1832:I *1637:B2 0.000137776
55 *380:25 *1662:A1 8.55327e-05
56 *389:87 *1420:A1 7.93741e-05
57 *417:14 *1637:B2 0.000137776
58 *444:33 *1540:I0 8.80166e-05
59 *451:38 *1662:A1 9.26705e-05
60 *451:45 *1662:A1 5.76373e-06
61 *464:73 *1662:A1 0.000524168
62 *467:86 *1662:A1 0
63 *467:86 *482:27 0
64 *468:59 *482:31 0.000585986
65 *468:59 *482:39 0.00312269
*RES
1 *1692:Q *482:6 9 
2 *482:6 *1662:A1 14.624 
3 *482:6 *482:27 1.14 
4 *482:27 *482:31 6.096 
5 *482:31 *482:39 16.736 
6 *482:39 *1420:A1 14.016 
7 *482:39 *1464:A1 10.064 
8 *482:31 *1539:I1 4.5 
9 *482:27 *482:70 3.04 
10 *482:70 *1540:I0 9.988 
11 *482:70 *1637:B2 11.128 
*END

*D_NET *483 0.017684
*CONN
*I *1639:B2 I *D gf180mcu_fd_sc_mcu7t5v0__aoi22_1
*I *1541:I0 I *D gf180mcu_fd_sc_mcu7t5v0__mux2_2
*I *1664:A1 I *D gf180mcu_fd_sc_mcu7t5v0__nor2_1
*I *1540:I1 I *D gf180mcu_fd_sc_mcu7t5v0__mux2_2
*I *1469:A1 I *D gf180mcu_fd_sc_mcu7t5v0__nand2_1
*I *1424:A1 I *D gf180mcu_fd_sc_mcu7t5v0__oai221_1
*I *1693:Q O *D gf180mcu_fd_sc_mcu7t5v0__dffq_1
*CAP
1 *1639:B2 0.000118885
2 *1541:I0 0.000145461
3 *1664:A1 0.00106579
4 *1540:I1 0
5 *1469:A1 0.000405726
6 *1424:A1 0.000255807
7 *1693:Q 0
8 *483:55 0.00158232
9 *483:24 0.00244702
10 *483:14 0.00196656
11 *483:12 0.000688425
12 *483:4 0.000255168
13 *1424:A1 *1473:B2 0.000112791
14 *1469:A1 *1428:A1 0
15 *1664:A1 *484:12 2.94957e-05
16 *483:24 *1473:B2 0.000209685
17 *483:55 *484:12 2.8617e-05
18 *1416:A2 *1469:A1 1.09283e-05
19 *1416:C *1424:A1 2.95445e-05
20 *1426:A2 *1424:A1 1.67499e-05
21 *1428:B2 *1424:A1 2.96621e-05
22 *1430:A2 *1469:A1 0.000653985
23 *1469:A2 *1469:A1 3.08902e-05
24 *1535:I1 *483:24 0.000171927
25 *1536:S *483:24 9.53497e-05
26 *1537:I1 *483:24 0.000104697
27 *1539:I0 *483:24 1.20079e-05
28 *1541:S *1541:I0 0.000665988
29 *1637:B1 *1639:B2 2.6126e-05
30 *1640:A1 *483:12 0
31 *1640:A1 *483:55 0.000108139
32 *1640:A2 *1639:B2 0.000444436
33 *1640:A2 *483:12 0.000505665
34 *1642:A2 *483:55 3.31536e-05
35 *1669:A1 *1664:A1 0
36 *1682:B2 *1424:A1 8.55242e-05
37 *1684:A1 *1469:A1 0
38 *1688:D *483:24 7.53241e-05
39 *1688:CLK *483:24 0
40 *1691:D *483:24 0
41 *1692:CLK *483:14 1.519e-05
42 *1693:D *483:14 8.91093e-05
43 *1693:CLK *1664:A1 0
44 *1729:D *1639:B2 2.74753e-05
45 *1729:D *483:12 2.96621e-05
46 *1731:D *1639:B2 9.45209e-05
47 *1731:D *483:12 8.64281e-06
48 *1731:CLK *1639:B2 0.00013063
49 *1741:D *1664:A1 1.54542e-05
50 *1741:CLK *1664:A1 0.000340927
51 *1742:D *1664:A1 0
52 *1775:I *483:14 0
53 *1775:I *483:24 0.00014395
54 *1775:I *483:55 0
55 *1832:I *1639:B2 4.21132e-05
56 *173:41 *1424:A1 0.000206325
57 *272:27 *483:24 7.79363e-05
58 *389:105 *1469:A1 0.000110782
59 *396:23 *483:12 0.000308225
60 *396:31 *483:12 0.00020862
61 *396:31 *483:14 2.22657e-05
62 *396:31 *483:55 0.000167152
63 *396:58 *483:12 8.84331e-05
64 *417:14 *1639:B2 1.3758e-05
65 *417:14 *483:12 1.3758e-05
66 *444:33 *483:14 8.71673e-05
67 *444:33 *483:24 0.000143197
68 *455:40 *1469:A1 0
69 *455:47 *1469:A1 0
70 *455:53 *1424:A1 0.000326528
71 *467:86 *483:12 3.62261e-05
72 *468:38 *1469:A1 0.000299574
73 *468:70 *1664:A1 3.80391e-05
74 *468:70 *483:55 9.42866e-05
75 *468:74 *1541:I0 0.000113259
76 *468:74 *483:55 2.71615e-05
77 *478:14 *1424:A1 0
78 *478:14 *483:24 0
79 *480:10 *1469:A1 0.00143463
80 *481:32 *483:24 0.0002342
81 *481:41 *483:24 0.000282924
82 *482:39 *483:24 0
*RES
1 *1693:Q *483:4 4.5 
2 *483:4 *483:12 11.128 
3 *483:12 *483:14 1.444 
4 *483:14 *483:24 17.876 
5 *483:24 *1424:A1 11.584 
6 *483:24 *1469:A1 14.396 
7 *483:14 *1540:I1 4.5 
8 *483:12 *483:55 7.692 
9 *483:55 *1664:A1 16.144 
10 *483:55 *1541:I0 10.9 
11 *483:4 *1639:B2 15.248 
*END

*D_NET *484 0.0168207
*CONN
*I *1641:B2 I *D gf180mcu_fd_sc_mcu7t5v0__aoi22_1
*I *1541:I1 I *D gf180mcu_fd_sc_mcu7t5v0__mux2_2
*I *1473:B2 I *D gf180mcu_fd_sc_mcu7t5v0__oai32_1
*I *1428:A1 I *D gf180mcu_fd_sc_mcu7t5v0__oai221_1
*I *1668:A1 I *D gf180mcu_fd_sc_mcu7t5v0__nand2_1
*I *1694:Q O *D gf180mcu_fd_sc_mcu7t5v0__dffq_1
*CAP
1 *1641:B2 8.99712e-05
2 *1541:I1 5.61735e-05
3 *1473:B2 0.00165795
4 *1428:A1 6.99301e-05
5 *1668:A1 0.000287442
6 *1694:Q 3.46325e-05
7 *484:41 0.00277003
8 *484:18 0.00201741
9 *484:12 0.00113045
10 *484:8 0.00051106
11 *1416:A1 *484:41 0.000136558
12 *1416:A2 *484:41 6.48288e-05
13 *1416:B2 *484:41 0.000153141
14 *1422:B1 *1473:B2 0.000127692
15 *1424:A1 *1473:B2 0.000112791
16 *1426:A2 *1473:B2 0.00071864
17 *1428:B2 *1668:A1 0.000157185
18 *1428:B2 *484:41 0.000361411
19 *1466:A2 *1473:B2 0
20 *1466:A3 *1473:B2 0
21 *1469:A1 *1428:A1 0
22 *1473:B1 *1473:B2 0.000139891
23 *1536:I1 *1473:B2 5.75752e-06
24 *1539:I0 *484:18 1.97166e-05
25 *1539:S *484:18 0.000251771
26 *1539:S *484:41 0
27 *1541:S *1541:I1 1.0313e-05
28 *1541:S *484:18 3.64967e-05
29 *1628:A1 *1473:B2 0.000203407
30 *1628:A2 *1473:B2 5.83634e-05
31 *1642:A2 *1641:B2 0.000172284
32 *1642:A2 *484:8 8.81341e-06
33 *1642:A2 *484:12 0.000272143
34 *1643:B *1473:B2 4.84522e-05
35 *1662:A1 *1668:A1 0.000130996
36 *1662:A1 *484:18 0.000168421
37 *1664:A1 *484:12 2.94957e-05
38 *1668:A2 *1668:A1 0.000142209
39 *1671:A1 *1473:B2 7.98484e-05
40 *1671:A2 *1473:B2 4.50449e-05
41 *1672:B1 *1473:B2 0.000177992
42 *1680:A2 *1473:B2 6.79912e-06
43 *1694:D *1541:I1 0.00017019
44 *1694:D *484:18 0.000154451
45 *1694:CLK *484:18 0
46 *1739:D *484:41 0.000308754
47 *1740:D *1668:A1 0.000141627
48 *1740:CLK *484:18 0
49 *1740:CLK *484:41 0.000171918
50 *1742:CLK *484:18 8.45159e-05
51 *1756:D *1473:B2 0.000124968
52 *1758:D *1473:B2 0.000244537
53 *1769:I *1641:B2 2.89888e-05
54 *1769:I *484:12 6.03845e-05
55 *1799:I *484:41 8.73421e-05
56 *160:14 *1473:B2 0
57 *160:29 *1473:B2 0
58 *371:31 *1473:B2 2.10847e-05
59 *393:6 *484:41 0.000470343
60 *393:10 *484:41 0.000858374
61 *393:43 *484:41 0
62 *394:57 *484:18 7.57844e-05
63 *396:31 *1641:B2 0.000137776
64 *396:31 *484:8 2.96621e-05
65 *417:20 *1473:B2 2.11796e-05
66 *417:22 *1473:B2 5.14116e-06
67 *417:28 *1473:B2 0.000136225
68 *455:40 *1428:A1 9.88736e-06
69 *455:47 *1428:A1 3.73627e-05
70 *455:53 *484:41 5.71282e-05
71 *468:70 *484:18 0.000116547
72 *479:14 *1473:B2 0.000335667
73 *479:20 *1473:B2 5.67474e-05
74 *481:14 *484:41 8.16677e-05
75 *482:27 *484:18 8.8608e-05
76 *483:24 *1473:B2 0.000209685
77 *483:55 *484:12 2.8617e-05
*RES
1 *1694:Q *484:8 9.228 
2 *484:8 *484:12 7.312 
3 *484:12 *484:18 10.58 
4 *484:18 *1668:A1 11.128 
5 *484:18 *484:41 19.336 
6 *484:41 *1428:A1 9.456 
7 *484:41 *1473:B2 23.516 
8 *484:12 *1541:I1 5.032 
9 *484:8 *1641:B2 9.912 
*END

*D_NET *485 0.00386369
*CONN
*I *1559:A1 I *D gf180mcu_fd_sc_mcu7t5v0__nand3_1
*I *1367:I I *D gf180mcu_fd_sc_mcu7t5v0__clkinv_1
*I *1396:A2 I *D gf180mcu_fd_sc_mcu7t5v0__nand2_1
*I *1697:Q O *D gf180mcu_fd_sc_mcu7t5v0__dffq_1
*CAP
1 *1559:A1 0.00033414
2 *1367:I 0
3 *1396:A2 0.000121905
4 *1697:Q 9.20301e-05
5 *485:12 0.000211565
6 *485:10 0.00051583
7 *1556:I0 *1396:A2 0.00066782
8 *1556:I0 *485:10 3.5608e-06
9 *1557:A2 *1559:A1 1.87701e-05
10 *1558:B *1396:A2 0
11 *1559:A2 *1559:A1 7.83779e-05
12 *1560:A1 *1396:A2 0.000340241
13 *1560:A2 *1559:A1 0.000857411
14 *1560:A2 *485:12 0.000391911
15 *1702:CLK *1559:A1 0.00010559
16 *1787:I *1559:A1 4.1381e-05
17 *1787:I *485:12 6.82811e-05
18 *264:53 *1559:A1 9.00597e-06
19 *413:40 *1559:A1 5.86674e-06
*RES
1 *1697:Q *485:10 13.88 
2 *485:10 *485:12 1.14 
3 *485:12 *1396:A2 15.248 
4 *485:12 *1367:I 4.5 
5 *485:10 *1559:A1 7.996 
*END

*D_NET *486 0.00139698
*CONN
*I *1366:I I *D gf180mcu_fd_sc_mcu7t5v0__clkinv_1
*I *1698:Q O *D gf180mcu_fd_sc_mcu7t5v0__dffq_1
*CAP
1 *1366:I 0.000630363
2 *1698:Q 0.000630363
3 *1558:B *1366:I 0
4 *1698:D *1366:I 0.00010166
5 *127:10 *1366:I 1.5015e-05
6 *390:18 *1366:I 1.95806e-05
*RES
1 *1698:Q *1366:I 21.648 
*END

*D_NET *487 0.0140412
*CONN
*I *1372:I I *D gf180mcu_fd_sc_mcu7t5v0__clkinv_1
*I *1545:A1 I *D gf180mcu_fd_sc_mcu7t5v0__nand3_1
*I *1549:A1 I *D gf180mcu_fd_sc_mcu7t5v0__nand3_1
*I *1550:A3 I *D gf180mcu_fd_sc_mcu7t5v0__nand4_1
*I *1505:A2 I *D gf180mcu_fd_sc_mcu7t5v0__nand2_1
*I *1767:Q O *D gf180mcu_fd_sc_mcu7t5v0__dffq_1
*CAP
1 *1372:I 0
2 *1545:A1 0.000166154
3 *1549:A1 0
4 *1550:A3 0
5 *1505:A2 0.000162627
6 *1767:Q 0.00179055
7 *487:60 0.000390182
8 *487:36 0.000191873
9 *487:32 0.00047797
10 *487:22 0.00201525
11 *1362:I *1505:A2 9.81111e-06
12 *1362:I *487:36 7.45328e-07
13 *1497:A1 *1505:A2 2.30518e-05
14 *1500:A1 *487:60 0.000514804
15 *1500:A2 *487:60 0
16 *1502:A1 *487:22 1.22881e-05
17 *1504:A2 *487:22 5.76373e-06
18 *1504:A2 *487:32 3.45824e-05
19 *1505:A1 *1505:A2 4.50449e-05
20 *1548:A1 *1545:A1 0.000265188
21 *1548:A4 *487:22 0.000378609
22 *1551:A1 *1545:A1 3.1394e-06
23 *1551:A1 *487:32 6.48194e-05
24 *1551:A1 *487:60 0.00040599
25 *1551:A2 *1545:A1 1.44832e-05
26 *1551:A2 *487:60 0.000368152
27 *1551:B *1545:A1 3.07734e-05
28 *1551:B *487:60 9.0614e-06
29 *1554:A1 *487:22 0.000167633
30 *1555:A2 *487:22 0
31 *1556:S *487:22 0.000296648
32 *1556:S *487:32 0.000654625
33 *1561:A1 *487:22 4.55848e-05
34 *1563:B1 *487:22 8.55242e-05
35 *1563:B2 *487:22 0.000156186
36 *1566:A2 *487:22 0
37 *1567:A2 *487:22 0.000422023
38 *1567:B *487:22 1.76898e-05
39 *1567:C *487:22 6.12935e-05
40 *1568:A3 *487:22 0
41 *1578:C *487:22 0
42 *1705:CLK *487:22 0.000140167
43 *1713:D *487:22 1.54542e-05
44 *1765:D *487:22 0.000508798
45 *133:8 *487:22 9.81031e-05
46 *236:56 *1545:A1 1.2994e-05
47 *238:18 *487:32 0.000266784
48 *239:39 *487:22 0.000215809
49 *245:14 *1505:A2 3.08902e-05
50 *245:50 *1505:A2 0.000412478
51 *245:50 *487:36 5.22519e-05
52 *275:8 *487:22 4.16014e-05
53 *279:14 *1545:A1 0.000255997
54 *279:14 *487:60 1.79433e-05
55 *407:16 *487:22 0.00100629
56 *407:53 *487:60 9.57657e-05
57 *409:18 *487:22 0.000226045
58 *412:91 *487:22 0.000390052
59 *416:61 *487:32 0.000260709
60 *416:61 *487:60 0.000251816
61 *459:14 *1545:A1 0.000321674
62 *459:27 *1545:A1 9.88736e-06
63 *467:86 *487:22 5.42128e-05
64 *467:92 *487:22 6.73926e-05
*RES
1 *1767:Q *487:22 30.904 
2 *487:22 *487:32 7.692 
3 *487:32 *487:36 4.728 
4 *487:36 *1505:A2 6.02 
5 *487:36 *1550:A3 4.5 
6 *487:32 *487:60 8.3 
7 *487:60 *1549:A1 4.5 
8 *487:60 *1545:A1 7.084 
9 *487:22 *1372:I 4.5 
*END

*D_NET *488 0.00172374
*CONN
*I *1487:A2 I *D gf180mcu_fd_sc_mcu7t5v0__nand2_1
*I *1376:I I *D gf180mcu_fd_sc_mcu7t5v0__clkinv_1
*I *1716:Q O *D gf180mcu_fd_sc_mcu7t5v0__dffq_1
*CAP
1 *1487:A2 0.000101195
2 *1376:I 0.000233562
3 *1716:Q 0.000246187
4 *488:10 0.000580944
5 *1488:A2 *488:10 8.64281e-06
6 *1489:A1 *1487:A2 5.22865e-05
7 *1489:A3 *1376:I 0
8 *1607:A1 *1376:I 7.45328e-07
9 *1607:A1 *488:10 0
10 *227:6 *1376:I 0.000171106
11 *227:6 *1487:A2 0.000255722
12 *420:56 *1376:I 1.91917e-06
13 *420:71 *1376:I 3.84832e-06
14 *420:82 *488:10 6.75854e-05
*RES
1 *1716:Q *488:10 14.792 
2 *488:10 *1376:I 6.324 
3 *488:10 *1487:A2 5.488 
*END

*D_NET *489 0.00203029
*CONN
*I *1673:I0 I *D gf180mcu_fd_sc_mcu7t5v0__mux2_2
*I *1511:I3 I *D gf180mcu_fd_sc_mcu7t5v0__mux4_1
*I *1743:Q O *D gf180mcu_fd_sc_mcu7t5v0__dffq_1
*CAP
1 *1673:I0 0.000209184
2 *1511:I3 0.00011743
3 *1743:Q 9.70399e-05
4 *489:10 0.000423654
5 *1511:S0 *1511:I3 1.02578e-05
6 *1743:CLK *489:10 8.8425e-05
7 *1745:D *1511:I3 0.000386421
8 *1745:D *1673:I0 1.5015e-05
9 *1745:CLK *1511:I3 1.15312e-05
10 *1745:CLK *1673:I0 2.64786e-05
11 *389:23 *1511:I3 1.9372e-05
12 *389:23 *1673:I0 0.000103814
13 *414:70 *489:10 0.000521672
*RES
1 *1743:Q *489:10 14.792 
2 *489:10 *1511:I3 5.792 
3 *489:10 *1673:I0 6.096 
*END

*D_NET *490 0.000757565
*CONN
*I *1677:I0 I *D gf180mcu_fd_sc_mcu7t5v0__mux2_2
*I *1511:I2 I *D gf180mcu_fd_sc_mcu7t5v0__mux4_1
*I *1744:Q O *D gf180mcu_fd_sc_mcu7t5v0__dffq_1
*CAP
1 *1677:I0 0.000169897
2 *1511:I2 0
3 *1744:Q 7.89393e-05
4 *490:10 0.000248837
5 *1509:S0 *1677:I0 2.89225e-05
6 *1511:S0 *1677:I0 2.95081e-05
7 *1677:S *1677:I0 8.55242e-05
8 *1743:CLK *490:10 0
9 *413:64 *490:10 0.000115937
*RES
1 *1744:Q *490:10 14.336 
2 *490:10 *1511:I2 4.5 
3 *490:10 *1677:I0 5.64 
*END

*D_NET *491 0.00141224
*CONN
*I *1681:I0 I *D gf180mcu_fd_sc_mcu7t5v0__mux2_2
*I *1511:I1 I *D gf180mcu_fd_sc_mcu7t5v0__mux4_1
*I *1745:Q O *D gf180mcu_fd_sc_mcu7t5v0__dffq_1
*CAP
1 *1681:I0 0.000264756
2 *1511:I1 0.00020983
3 *1745:Q 8.94914e-05
4 *491:6 0.000564077
5 *1681:I0 *1511:I0 0.000146053
6 *1626:A2 *1681:I0 2.88187e-05
7 *1626:A2 *491:6 2.17248e-05
8 *446:29 *1511:I1 8.74908e-05
9 *446:29 *1681:I0 0
10 *463:113 *491:6 0
*RES
1 *1745:Q *491:6 5.184 
2 *491:6 *1511:I1 6.476 
3 *491:6 *1681:I0 7.008 
*END

*D_NET *492 0.00247051
*CONN
*I *1685:I0 I *D gf180mcu_fd_sc_mcu7t5v0__mux2_2
*I *1511:I0 I *D gf180mcu_fd_sc_mcu7t5v0__mux4_1
*I *1746:Q O *D gf180mcu_fd_sc_mcu7t5v0__dffq_1
*CAP
1 *1685:I0 1.20764e-05
2 *1511:I0 0.000169989
3 *1746:Q 0.000386789
4 *492:12 0.000568855
5 *1677:I1 *1685:I0 0.000280148
6 *1677:I1 *492:12 0.000105443
7 *1681:I0 *1511:I0 0.000146053
8 *1681:I1 *1685:I0 0.000651006
9 *1685:S *1511:I0 0
10 *1735:CLK *492:12 0
11 *1746:D *1685:I0 9.52854e-05
12 *1746:D *492:12 0
13 *389:13 *492:12 3.44857e-06
14 *389:23 *492:12 5.1412e-05
*RES
1 *1746:Q *492:12 16.236 
2 *492:12 *1511:I0 5.792 
3 *492:12 *1685:I0 15.096 
*END

*D_NET *493 0.000979168
*CONN
*I *1419:I0 I *D gf180mcu_fd_sc_mcu7t5v0__mux2_2
*I *1509:I3 I *D gf180mcu_fd_sc_mcu7t5v0__mux4_1
*I *1747:Q O *D gf180mcu_fd_sc_mcu7t5v0__dffq_1
*CAP
1 *1419:I0 0.000299604
2 *1509:I3 0
3 *1747:Q 0.000171962
4 *493:8 0.000471566
5 *493:8 *1509:I1 0
6 *1419:I1 *1419:I0 9.36227e-06
7 *1509:S0 *1419:I0 5.76373e-06
8 *1750:CLK *1419:I0 2.09092e-05
*RES
1 *1747:Q *493:8 6.02 
2 *493:8 *1509:I3 4.5 
3 *493:8 *1419:I0 6.552 
*END

*D_NET *494 0.00133711
*CONN
*I *1509:I2 I *D gf180mcu_fd_sc_mcu7t5v0__mux4_1
*I *1423:I0 I *D gf180mcu_fd_sc_mcu7t5v0__mux2_2
*I *1748:Q O *D gf180mcu_fd_sc_mcu7t5v0__dffq_1
*CAP
1 *1509:I2 0
2 *1423:I0 0.000153542
3 *1748:Q 0.00026998
4 *494:10 0.000423522
5 *1423:I1 *1423:I0 0.000164306
6 *1423:I1 *494:10 9.46793e-05
7 *1509:S0 *494:10 7.66819e-05
8 *1509:S1 *494:10 0
9 *1510:A2 *494:10 3.95622e-05
10 *1513:A2 *494:10 8.55242e-05
11 *1750:CLK *1423:I0 0
12 *1750:CLK *494:10 0
13 *389:23 *494:10 2.93184e-05
*RES
1 *1748:Q *494:10 11.128 
2 *494:10 *1423:I0 10.444 
3 *494:10 *1509:I2 9 
*END

*D_NET *495 0.00215163
*CONN
*I *1427:I0 I *D gf180mcu_fd_sc_mcu7t5v0__mux2_2
*I *1509:I1 I *D gf180mcu_fd_sc_mcu7t5v0__mux4_1
*I *1749:Q O *D gf180mcu_fd_sc_mcu7t5v0__dffq_1
*CAP
1 *1427:I0 0.000124566
2 *1509:I1 0.000367916
3 *1749:Q 4.70488e-05
4 *495:10 0.000539531
5 *1427:I1 *495:10 8.60362e-05
6 *1427:S *1427:I0 7.57844e-05
7 *1750:CLK *1509:I1 2.01639e-05
8 *1783:I *1427:I0 0.00011703
9 *1783:I *1509:I1 0.000347613
10 *445:10 *495:10 0.000333388
11 *445:16 *1427:I0 8.02751e-06
12 *445:16 *1509:I1 8.45236e-05
13 *493:8 *1509:I1 0
*RES
1 *1749:Q *495:10 14.336 
2 *495:10 *1509:I1 7.616 
3 *495:10 *1427:I0 5.64 
*END

*D_NET *496 0.00188278
*CONN
*I *1509:I0 I *D gf180mcu_fd_sc_mcu7t5v0__mux4_1
*I *1431:I0 I *D gf180mcu_fd_sc_mcu7t5v0__mux2_2
*I *1750:Q O *D gf180mcu_fd_sc_mcu7t5v0__dffq_1
*CAP
1 *1509:I0 0.000213724
2 *1431:I0 5.41117e-05
3 *1750:Q 0.000164501
4 *496:6 0.000432337
5 *1419:I1 *1509:I0 0
6 *1423:I1 *1509:I0 0.000160785
7 *1431:I1 *1509:I0 0.000126956
8 *1825:I *1431:I0 2.22657e-05
9 *1825:I *496:6 0.000252852
10 *169:27 *1431:I0 1.02578e-05
11 *477:22 *1431:I0 3.73535e-05
12 *477:22 *496:6 0.000407639
*RES
1 *1750:Q *496:6 6.856 
2 *496:6 *1431:I0 4.956 
3 *496:6 *1509:I0 15.4 
*END

*D_NET *497 0.000463942
*CONN
*I *1370:I I *D gf180mcu_fd_sc_mcu7t5v0__clkinv_1
*I *1759:Q O *D gf180mcu_fd_sc_mcu7t5v0__dffq_1
*CAP
1 *1370:I 0.000173463
2 *1759:Q 0.000173463
3 *1478:A1 *1370:I 3.00299e-05
4 *1480:A1 *1370:I 0
5 *131:8 *1370:I 8.69862e-05
*RES
1 *1759:Q *1370:I 10.14 
*END

*D_NET *498 0.00024976
*CONN
*I *1369:I I *D gf180mcu_fd_sc_mcu7t5v0__clkinv_1
*I *1760:Q O *D gf180mcu_fd_sc_mcu7t5v0__dffq_1
*CAP
1 *1369:I 7.40569e-05
2 *1760:Q 7.40569e-05
3 *1482:A2 *1369:I 4.97712e-06
4 *130:6 *1369:I 9.66692e-05
*RES
1 *1760:Q *1369:I 9.684 
*END

*D_NET *499 0.00970095
*CONN
*I *1803:I I *D gf180mcu_fd_sc_mcu7t5v0__dlyb_1
*I *1672:B2 I *D gf180mcu_fd_sc_mcu7t5v0__aoi22_1
*I *1763:Q O *D gf180mcu_fd_sc_mcu7t5v0__dffq_1
*CAP
1 *1803:I 0
2 *1672:B2 0.00329687
3 *1763:Q 0.000617864
4 *499:10 0.00391473
5 *1672:B2 *1401:A1 0.000749802
6 *1672:B2 *1475:A1 2.65844e-05
7 *1672:B2 *501:10 0
8 *1672:B2 *501:23 5.08815e-05
9 *1672:B2 *502:14 0.00023442
10 *499:10 *1475:A1 2.91798e-05
11 *499:10 *500:10 0.000317494
12 *1401:A2 *1672:B2 9.64018e-06
13 *1445:B *1672:B2 0.000106188
14 *1447:A2 *1672:B2 0.000105536
15 *1447:B1 *1672:B2 2.64841e-05
16 *1447:C *1672:B2 3.88601e-05
17 *1452:A2 *1672:B2 7.09482e-05
18 *1481:A1 *499:10 0
19 *398:8 *499:10 0.000105471
*RES
1 *1763:Q *499:10 13.104 
2 *499:10 *1672:B2 36.62 
3 *499:10 *1803:I 9 
*END

*D_NET *500 0.00981527
*CONN
*I *1400:A1 I *D gf180mcu_fd_sc_mcu7t5v0__or2_1
*I *1377:I I *D gf180mcu_fd_sc_mcu7t5v0__clkinv_1
*I *1402:A1 I *D gf180mcu_fd_sc_mcu7t5v0__nor2_1
*I *1404:A1 I *D gf180mcu_fd_sc_mcu7t5v0__xnor2_1
*I *1405:A1 I *D gf180mcu_fd_sc_mcu7t5v0__xor2_1
*I *1401:A1 I *D gf180mcu_fd_sc_mcu7t5v0__nand2_1
*I *1485:A2 I *D gf180mcu_fd_sc_mcu7t5v0__nand3_1
*I *1764:Q O *D gf180mcu_fd_sc_mcu7t5v0__dffq_1
*CAP
1 *1400:A1 3.28034e-05
2 *1377:I 5.10835e-05
3 *1402:A1 5.51493e-05
4 *1404:A1 0
5 *1405:A1 0
6 *1401:A1 0.000161853
7 *1485:A2 3.11175e-05
8 *1764:Q 0.000570096
9 *500:66 0.000240588
10 *500:51 0.0004237
11 *500:47 0.000491403
12 *500:38 0.000251787
13 *500:25 0.000381061
14 *500:10 0.000737889
15 *1377:I *502:50 7.83779e-05
16 *500:10 *1475:A1 0.000396904
17 *500:25 *1409:A1 4.34187e-05
18 *500:25 *1475:A1 0.00020862
19 *500:25 *1484:A1 2.9378e-06
20 *500:25 *502:14 8.55327e-05
21 *500:25 *502:31 0.000190716
22 *500:38 *1409:A1 8.37893e-05
23 *500:38 *502:31 0.000528368
24 *500:47 *502:31 0.00019349
25 *500:51 *502:31 0.000432315
26 *500:66 *502:50 0.000292024
27 *1401:A2 *1401:A1 5.32176e-05
28 *1405:A2 *1401:A1 7.86933e-05
29 *1408:A2 *500:51 8.80064e-05
30 *1408:B2 *500:51 2.05156e-05
31 *1439:A2 *1402:A1 3.38774e-05
32 *1475:A2 *500:10 0.000115434
33 *1475:A2 *500:25 5.1886e-05
34 *1476:A1 *1377:I 1.97747e-05
35 *1476:A1 *500:66 9.88736e-06
36 *1476:A2 *500:66 0
37 *1477:A2 *500:51 4.90614e-05
38 *1479:A1 *500:47 3.73627e-05
39 *1486:A1 *1485:A2 8.81341e-06
40 *1486:A1 *500:25 0
41 *1672:B2 *1401:A1 0.000749802
42 *1761:CLK *500:10 9.45638e-06
43 *1762:CLK *500:10 0.000107848
44 *139:12 *500:66 0.000260709
45 *147:23 *500:66 0.000276717
46 *160:14 *1402:A1 8.69862e-05
47 *162:29 *500:51 7.43203e-06
48 *162:29 *500:66 4.94368e-05
49 *188:18 *1402:A1 0.000142809
50 *188:31 *1402:A1 0.000111039
51 *398:8 *500:10 6.80238e-06
52 *398:10 *500:10 0
53 *398:14 *500:10 0
54 *456:12 *1402:A1 0.00018513
55 *463:57 *500:38 2.84827e-05
56 *463:57 *500:47 0.000576536
57 *463:57 *500:51 1.2339e-05
58 *463:69 *500:51 7.43365e-05
59 *463:103 *1402:A1 0.00025099
60 *463:103 *500:51 1.5015e-05
61 *463:103 *500:66 1.4351e-05
62 *499:10 *500:10 0.000317494
*RES
1 *1764:Q *500:10 13.56 
2 *500:10 *1485:A2 9.228 
3 *500:10 *500:25 6.02 
4 *500:25 *1401:A1 15.552 
5 *500:25 *500:38 1.444 
6 *500:38 *1405:A1 4.5 
7 *500:38 *500:47 2.28 
8 *500:47 *500:51 2.736 
9 *500:51 *1404:A1 4.5 
10 *500:51 *500:66 10.748 
11 *500:66 *1402:A1 14.716 
12 *500:66 *1377:I 4.956 
13 *500:47 *1400:A1 4.728 
*END

*D_NET *501 0.0149373
*CONN
*I *1368:I I *D gf180mcu_fd_sc_mcu7t5v0__clkinv_1
*I *1409:A1 I *D gf180mcu_fd_sc_mcu7t5v0__aoi211_1
*I *1484:A1 I *D gf180mcu_fd_sc_mcu7t5v0__aoi211_1
*I *1475:A1 I *D gf180mcu_fd_sc_mcu7t5v0__nand2_1
*I *1483:A1 I *D gf180mcu_fd_sc_mcu7t5v0__nor2_1
*I *1761:Q O *D gf180mcu_fd_sc_mcu7t5v0__dffq_1
*CAP
1 *1368:I 0.000645653
2 *1409:A1 0.000481763
3 *1484:A1 0.000171143
4 *1475:A1 0.00017742
5 *1483:A1 0.000105211
6 *1761:Q 0.00010453
7 *501:40 0.000652906
8 *501:23 0.000392895
9 *501:10 0.000552062
10 *501:8 0.000981559
11 *1475:A1 *502:14 0.00028568
12 *1483:A1 *502:14 1.06407e-05
13 *501:23 *502:14 0.000206029
14 *1393:A3 *1368:I 0.000368097
15 *1394:A4 *1368:I 5.23776e-05
16 *1400:A2 *1409:A1 0
17 *1405:A2 *1409:A1 0.000377606
18 *1409:A2 *1409:A1 9.61205e-06
19 *1409:C *1409:A1 3.08902e-05
20 *1443:A1 *501:8 3.66268e-05
21 *1447:B1 *1368:I 0.00104589
22 *1447:B1 *501:10 0.000261992
23 *1450:A1 *1368:I 3.2929e-05
24 *1451:A1 *1368:I 0.000582344
25 *1451:A2 *1368:I 1.7642e-05
26 *1454:A2 *1368:I 0.000262797
27 *1475:A2 *1475:A1 8.80472e-05
28 *1475:A2 *501:23 4.66935e-05
29 *1483:A2 *1483:A1 0.00021702
30 *1484:A2 *1409:A1 4.69368e-05
31 *1484:A2 *1484:A1 2.54609e-05
32 *1484:B *1483:A1 0.000431526
33 *1484:C *1484:A1 5.75752e-06
34 *1486:A1 *1475:A1 3.73627e-05
35 *1486:A2 *1484:A1 0
36 *1610:A1 *1368:I 0.000299171
37 *1672:B2 *1475:A1 2.65844e-05
38 *1672:B2 *501:10 0
39 *1672:B2 *501:23 5.08815e-05
40 *1802:I *1409:A1 0
41 *1835:I *1409:A1 0
42 *1839:I *1368:I 2.07505e-05
43 *143:8 *1368:I 8.01569e-05
44 *143:21 *1368:I 5.8992e-05
45 *148:12 *1368:I 0
46 *163:10 *1409:A1 8.37794e-05
47 *197:25 *1368:I 0.000576193
48 *367:31 *1368:I 0.000569272
49 *367:40 *1368:I 7.83779e-05
50 *368:20 *1368:I 8.55327e-05
51 *460:8 *1409:A1 4.58601e-06
52 *460:8 *1484:A1 4.33819e-05
53 *460:21 *501:10 0.000142237
54 *460:21 *501:23 0.000122771
55 *460:34 *1368:I 0.00176178
56 *460:34 *501:10 0.00110028
57 *462:10 *1368:I 0.000118698
58 *463:57 *1409:A1 0.000173883
59 *465:98 *1475:A1 3.00299e-05
60 *499:10 *1475:A1 2.91798e-05
61 *500:10 *1475:A1 0.000396904
62 *500:25 *1409:A1 4.34187e-05
63 *500:25 *1475:A1 0.00020862
64 *500:25 *1484:A1 2.9378e-06
65 *500:38 *1409:A1 8.37893e-05
*RES
1 *1761:Q *501:8 9.532 
2 *501:8 *501:10 3.116 
3 *501:10 *1483:A1 10.444 
4 *501:10 *501:23 2.128 
5 *501:23 *1475:A1 11.584 
6 *501:23 *501:40 4.5 
7 *501:40 *1484:A1 5.488 
8 *501:40 *1409:A1 8.604 
9 *501:8 *1368:I 29.02 
*END

*D_NET *502 0.00832616
*CONN
*I *1626:A1 I *D gf180mcu_fd_sc_mcu7t5v0__nor3_1
*I *1407:A1 I *D gf180mcu_fd_sc_mcu7t5v0__nor2_1
*I *1408:A1 I *D gf180mcu_fd_sc_mcu7t5v0__oai22_1
*I *1485:A1 I *D gf180mcu_fd_sc_mcu7t5v0__nand3_1
*I *1762:Q O *D gf180mcu_fd_sc_mcu7t5v0__dffq_1
*CAP
1 *1626:A1 0.000199908
2 *1407:A1 0
3 *1408:A1 0
4 *1485:A1 0
5 *1762:Q 0.000456169
6 *502:50 0.000691275
7 *502:31 0.000997886
8 *502:14 0.000962688
9 *1377:I *502:50 7.83779e-05
10 *1408:A2 *502:50 1.90621e-05
11 *1408:B1 *502:31 3.17618e-05
12 *1408:B2 *502:31 0.000193231
13 *1409:B *502:50 0.000126956
14 *1412:B *502:31 3.41363e-05
15 *1412:B *502:50 8.64766e-06
16 *1469:A2 *1626:A1 0
17 *1469:A2 *502:50 3.08902e-05
18 *1475:A1 *502:14 0.00028568
19 *1476:A1 *502:50 9.17202e-06
20 *1477:A1 *502:31 0
21 *1477:A2 *502:31 2.17248e-05
22 *1479:A1 *502:31 8.55327e-05
23 *1479:A2 *502:31 0.000111858
24 *1479:A3 *502:31 7.58017e-05
25 *1483:A1 *502:14 1.06407e-05
26 *1484:A2 *502:14 9.96119e-05
27 *1484:B *502:14 0.000178566
28 *1485:A3 *502:14 2.17248e-05
29 *1485:A3 *502:31 0.000116225
30 *1672:B2 *502:14 0.00023442
31 *1802:I *1626:A1 0
32 *1802:I *502:14 2.6126e-05
33 *1831:I *502:50 4.58601e-06
34 *147:23 *502:50 8.64281e-06
35 *162:29 *502:50 0.000218265
36 *389:29 *502:50 1.27925e-05
37 *456:12 *502:50 0.000299348
38 *456:25 *502:50 0.000228218
39 *463:69 *502:31 1.94858e-05
40 *463:69 *502:50 0.000143608
41 *463:113 *1626:A1 0.00035467
42 *463:113 *502:50 0
43 *500:25 *502:14 8.55327e-05
44 *500:25 *502:31 0.000190716
45 *500:38 *502:31 0.000528368
46 *500:47 *502:31 0.00019349
47 *500:51 *502:31 0.000432315
48 *500:66 *502:50 0.000292024
49 *501:23 *502:14 0.000206029
*RES
1 *1762:Q *502:14 18.136 
2 *502:14 *1485:A1 4.5 
3 *502:14 *502:31 10.352 
4 *502:31 *1408:A1 9 
5 *502:31 *502:50 9.44 
6 *502:50 *1407:A1 4.5 
7 *502:50 *1626:A1 6.324 
*END

*D_NET *503 0.0018213
*CONN
*I *1406:A1 I *D gf180mcu_fd_sc_mcu7t5v0__xor2_1
*I *1380:I I *D gf180mcu_fd_sc_mcu7t5v0__clkinv_1
*I *1695:Q O *D gf180mcu_fd_sc_mcu7t5v0__dffq_1
*CAP
1 *1406:A1 0
2 *1380:I 0.000343029
3 *1695:Q 0.000188168
4 *503:12 0.000531197
5 *1397:A2 *503:12 0.000171927
6 *1406:A2 *1380:I 0
7 *1480:B1 *1380:I 0
8 *1480:B3 *1380:I 2.70169e-05
9 *1779:I *1380:I 0.00015551
10 *1779:I *503:12 0.000107858
11 *146:10 *1380:I 0.000160563
12 *146:10 *503:12 8.60362e-05
13 *147:10 *503:12 0
14 *224:8 *1380:I 0
15 *476:19 *1380:I 0
16 *476:30 *1380:I 0
17 *476:34 *1380:I 5.0001e-05
*RES
1 *1695:Q *503:12 15.324 
2 *503:12 *1380:I 15.932 
3 *503:12 *1406:A1 4.5 
*END
