*SPEF "ieee 1481-1999"
*DESIGN "i2c_controller"
*DATE "17:25:07 Monday August 31, 2026"
*VENDOR "The OpenROAD Project"
*PROGRAM "OpenROAD"
*VERSION "26Q1-1024-gdcf36133a"
*DESIGN_FLOW "NAME_SCOPE LOCAL" "PIN_CAP NONE"
*DIVIDER /
*DELIMITER :
*BUS_DELIMITER []
*T_UNIT 1 NS
*C_UNIT 1 PF
*R_UNIT 1 OHM
*L_UNIT 1 HENRY

*NAME_MAP
*1 ACK_I
*2 ADDR_O[0]
*3 ADDR_O[1]
*4 ADDR_O[2]
*5 ADDR_O[3]
*6 ADDR_O[4]
*7 ADDR_O[5]
*8 ADDR_O[6]
*9 ADDR_O[7]
*10 CLK_I
*11 CYC_O
*12 DAT_I[0]
*13 DAT_I[1]
*14 DAT_I[2]
*15 DAT_I[3]
*16 DAT_I[4]
*17 DAT_I[5]
*18 DAT_I[6]
*19 DAT_I[7]
*20 DAT_O[0]
*21 DAT_O[1]
*22 DAT_O[2]
*23 DAT_O[3]
*24 DAT_O[4]
*25 DAT_O[5]
*26 DAT_O[6]
*27 DAT_O[7]
*28 ERR_I
*29 RST_I
*30 RTY_I
*31 STB_O
*34 WE_O
*35 i2c_scl_in
*36 i2c_sda_in
*37 i2c_sda_out_pin_ctrl
*38 i2c_sda_out_pin_ctrl_n
*39 _000_
*40 _001_
*41 _002_
*42 _003_
*43 _004_
*44 _005_
*45 _006_
*46 _007_
*47 _008_
*48 _009_
*49 _010_
*50 _011_
*51 _012_
*52 _013_
*53 _014_
*54 _015_
*55 _016_
*56 _017_
*57 _018_
*58 _019_
*59 _020_
*60 _021_
*61 _022_
*62 _023_
*63 _024_
*64 _025_
*65 _026_
*66 _027_
*67 _028_
*68 _029_
*69 _030_
*70 _031_
*71 _032_
*72 _033_
*73 _034_
*74 _035_
*75 _036_
*76 _037_
*77 _038_
*78 _039_
*79 _040_
*80 _041_
*81 _042_
*82 _043_
*83 _044_
*84 _045_
*85 _046_
*86 _047_
*87 _048_
*88 _049_
*89 _050_
*90 _051_
*91 _052_
*92 _053_
*93 _054_
*94 _055_
*95 _056_
*96 _057_
*97 _058_
*98 _059_
*99 _060_
*100 _061_
*101 _062_
*102 _063_
*103 _064_
*104 _065_
*105 _066_
*106 _067_
*107 _068_
*108 _069_
*109 _070_
*110 _071_
*111 _072_
*112 _073_
*113 _074_
*114 _075_
*115 _076_
*116 _077_
*117 _078_
*118 _079_
*119 _080_
*120 _081_
*121 _082_
*122 _083_
*123 _084_
*124 _085_
*125 _086_
*126 _087_
*127 _088_
*128 _089_
*129 _090_
*130 _091_
*131 _092_
*132 _093_
*133 _094_
*134 _095_
*135 _096_
*136 _097_
*137 _098_
*138 _099_
*139 _100_
*140 _101_
*141 _102_
*142 _103_
*143 _104_
*144 _105_
*145 _106_
*146 _107_
*147 _108_
*148 _109_
*149 _110_
*150 _111_
*151 _112_
*152 _113_
*153 _114_
*154 _115_
*155 _116_
*156 _117_
*157 _118_
*158 _119_
*159 _120_
*160 _121_
*161 _122_
*162 _123_
*163 _124_
*164 _125_
*165 _126_
*166 _127_
*167 _128_
*168 _129_
*169 _130_
*170 _131_
*171 _132_
*172 _133_
*173 _134_
*174 _135_
*175 _136_
*176 _137_
*177 _138_
*178 _139_
*179 _140_
*180 _141_
*181 _142_
*182 _143_
*183 _144_
*184 _145_
*185 _146_
*186 _147_
*187 _148_
*188 _149_
*189 _150_
*190 _151_
*191 _152_
*192 _153_
*193 _154_
*194 _155_
*195 _156_
*196 _157_
*197 _158_
*198 _159_
*199 _160_
*200 _161_
*201 _162_
*202 _163_
*203 _164_
*204 _165_
*205 _166_
*206 _167_
*207 _168_
*208 _169_
*209 _170_
*210 _171_
*211 _172_
*212 _173_
*213 _174_
*214 _175_
*215 _176_
*216 _177_
*217 _178_
*218 _179_
*219 _180_
*220 _181_
*221 _182_
*222 _183_
*223 _184_
*224 _185_
*225 _186_
*226 _187_
*227 _188_
*228 _189_
*229 _190_
*230 _191_
*231 _192_
*232 _193_
*233 _194_
*234 _195_
*235 _196_
*236 _197_
*237 _198_
*238 _199_
*239 _200_
*240 _201_
*241 _202_
*242 _203_
*243 _204_
*244 _205_
*245 _206_
*246 _207_
*247 _208_
*248 _209_
*249 _210_
*250 _211_
*251 _212_
*252 _213_
*253 _214_
*254 _215_
*255 _216_
*256 _217_
*257 _218_
*258 _219_
*259 _220_
*260 _221_
*261 _222_
*262 _223_
*263 _224_
*264 _225_
*265 _226_
*266 _227_
*267 _228_
*268 _229_
*269 _230_
*270 _231_
*271 _232_
*272 _233_
*273 _234_
*274 _235_
*275 _236_
*276 _237_
*277 _238_
*278 _239_
*279 _240_
*280 _241_
*281 _242_
*282 _243_
*283 _244_
*284 _245_
*285 _246_
*286 _247_
*287 _248_
*288 _249_
*289 _250_
*290 _251_
*291 _252_
*292 _253_
*293 _254_
*294 _255_
*295 _256_
*296 _257_
*297 _258_
*298 _259_
*299 _260_
*300 _261_
*301 _262_
*302 _263_
*303 _264_
*304 _265_
*305 _266_
*306 _267_
*307 _268_
*308 _269_
*309 _270_
*310 _271_
*311 _272_
*312 _273_
*313 _274_
*314 _275_
*315 _276_
*316 _277_
*317 _278_
*318 _279_
*319 _280_
*320 _281_
*321 _282_
*322 _283_
*323 _284_
*324 _285_
*325 _286_
*326 _287_
*327 _288_
*328 _289_
*329 _290_
*330 _291_
*331 _292_
*332 _293_
*333 _294_
*334 _295_
*335 _296_
*336 _297_
*337 _298_
*338 _299_
*339 _300_
*340 _301_
*341 _302_
*342 _303_
*343 _304_
*344 _305_
*345 _306_
*346 _307_
*347 _308_
*348 _309_
*349 _310_
*350 _311_
*351 _312_
*352 _313_
*353 _314_
*354 _315_
*355 _316_
*356 _317_
*357 _318_
*358 _319_
*359 _320_
*360 _321_
*361 _322_
*362 _323_
*363 _324_
*364 _325_
*365 _326_
*366 _327_
*367 _328_
*368 _329_
*369 _330_
*370 _331_
*371 _332_
*372 _333_
*373 _334_
*374 _335_
*375 _336_
*376 _337_
*377 _338_
*378 _339_
*379 _340_
*380 _341_
*381 _342_
*382 _343_
*383 _344_
*384 _345_
*385 _346_
*386 _347_
*387 _348_
*388 _349_
*389 _350_
*390 _351_
*391 _352_
*392 _353_
*393 _354_
*394 _355_
*395 _356_
*396 _357_
*397 _358_
*398 _359_
*399 _360_
*400 _361_
*401 _362_
*402 _363_
*403 _364_
*404 _365_
*405 _366_
*406 _367_
*407 _368_
*408 _369_
*409 _370_
*410 _371_
*411 _372_
*412 _373_
*413 _374_
*414 _375_
*415 _376_
*416 _377_
*417 _378_
*418 _379_
*419 _380_
*420 _381_
*421 _382_
*422 _383_
*423 _384_
*424 _385_
*425 _386_
*426 _387_
*427 _388_
*428 _389_
*429 _390_
*430 _391_
*431 _392_
*432 _393_
*433 _394_
*434 _395_
*435 _396_
*436 _397_
*437 _398_
*438 _399_
*439 _400_
*440 _401_
*441 _402_
*442 _403_
*443 _404_
*444 _405_
*445 _406_
*446 _407_
*447 addr_pointer_register_internal\[0\]
*448 addr_pointer_register_internal\[1\]
*449 addr_pointer_register_internal\[2\]
*450 addr_pointer_register_internal\[3\]
*451 addr_pointer_register_internal\[4\]
*452 addr_pointer_register_internal\[5\]
*453 addr_pointer_register_internal\[6\]
*454 addr_pointer_register_internal\[7\]
*455 addr_set_register\[0\]
*456 addr_set_register\[1\]
*457 addr_set_register\[2\]
*458 addr_set_register\[3\]
*459 addr_set_register\[4\]
*460 addr_set_register\[5\]
*461 addr_set_register\[6\]
*462 addr_set_register\[7\]
*463 address_data_buffer_internal\[0\]
*464 address_data_buffer_internal\[1\]
*465 address_data_buffer_internal\[2\]
*466 address_data_buffer_internal\[3\]
*467 address_data_buffer_internal\[4\]
*468 address_data_buffer_internal\[5\]
*469 address_data_buffer_internal\[6\]
*470 address_data_buffer_internal\[7\]
*471 clknet_0_CLK_I
*472 clknet_3_0__leaf_CLK_I
*473 clknet_3_1__leaf_CLK_I
*474 clknet_3_2__leaf_CLK_I
*475 clknet_3_3__leaf_CLK_I
*476 clknet_3_4__leaf_CLK_I
*477 clknet_3_5__leaf_CLK_I
*478 clknet_3_6__leaf_CLK_I
*479 clknet_3_7__leaf_CLK_I
*480 falling_edge_detected
*481 i2c_next_state\[0\]
*482 i2c_next_state\[1\]
*483 i2c_scl_in_synchronised_internal
*484 i2c_sda_in_synchronised_internal
*485 i2c_state\[0\]
*486 i2c_state\[1\]
*487 iteration\[0\]
*488 iteration\[1\]
*489 iteration\[2\]
*490 iteration\[3\]
*491 net1
*492 net10
*493 net11
*494 net12
*495 net13
*496 net14
*497 net15
*498 net16
*499 net17
*500 net18
*501 net19
*502 net2
*503 net20
*504 net21
*505 net22
*506 net23
*507 net24
*508 net25
*509 net26
*510 net27
*511 net28
*512 net29
*513 net3
*514 net30
*515 net31
*516 net32
*517 net33
*518 net34
*519 net35
*520 net36
*521 net37
*522 net38
*523 net39
*524 net4
*525 net40
*526 net41
*527 net42
*528 net43
*529 net44
*530 net45
*531 net46
*532 net47
*533 net48
*534 net49
*535 net5
*536 net50
*537 net51
*538 net52
*539 net53
*540 net54
*541 net55
*542 net56
*543 net57
*544 net58
*545 net59
*546 net6
*547 net60
*548 net7
*549 net8
*550 net9
*551 previous_state
*552 received_data_internal_flag
*553 recv_data_buffer\[0\]
*554 recv_data_buffer\[1\]
*555 recv_data_buffer\[2\]
*556 recv_data_buffer\[3\]
*557 recv_data_buffer\[4\]
*558 recv_data_buffer\[5\]
*559 recv_data_buffer\[6\]
*560 recv_data_buffer\[7\]
*561 register_addr_data_flag
*562 register_content_data_flag
*563 rising_edge_detected
*564 scl_synchroniser_internal\[0\]
*565 sda_previous_state
*566 sda_synchroniser_internal\[0\]
*567 send_data_buffer\[0\]
*568 send_data_buffer\[1\]
*569 send_data_buffer\[2\]
*570 send_data_buffer\[3\]
*571 send_data_buffer\[4\]
*572 send_data_buffer\[5\]
*573 send_data_buffer\[6\]
*574 send_data_buffer\[7\]
*575 wb_master_next_state\[0\]
*576 wb_master_next_state\[1\]
*577 wb_master_state\[0\]
*578 wb_master_state\[1\]
*579 wb_master_subroutine_iteration\[0\]
*580 wb_master_subroutine_iteration\[1\]
*581 write_request_internal_flag
*582 FILLER_0_133
*583 FILLER_0_135
*584 FILLER_0_138
*585 FILLER_0_154
*586 FILLER_0_172
*587 FILLER_0_202
*588 FILLER_0_206
*589 FILLER_0_208
*590 FILLER_0_31
*591 FILLER_0_33
*592 FILLER_0_61
*593 FILLER_0_65
*594 FILLER_0_67
*595 FILLER_0_78
*596 FILLER_0_94
*597 FILLER_10_10
*598 FILLER_10_102
*599 FILLER_10_104
*600 FILLER_10_107
*601 FILLER_10_142
*602 FILLER_10_146
*603 FILLER_10_148
*604 FILLER_10_16
*605 FILLER_10_167
*606 FILLER_10_177
*607 FILLER_10_179
*608 FILLER_10_2
*609 FILLER_10_24
*610 FILLER_10_242
*611 FILLER_10_244
*612 FILLER_10_37
*613 FILLER_10_41
*614 FILLER_11_138
*615 FILLER_11_142
*616 FILLER_11_144
*617 FILLER_11_151
*618 FILLER_11_174
*619 FILLER_11_176
*620 FILLER_11_2
*621 FILLER_11_212
*622 FILLER_11_223
*623 FILLER_11_38
*624 FILLER_11_42
*625 FILLER_11_44
*626 FILLER_12_104
*627 FILLER_12_177
*628 FILLER_12_2
*629 FILLER_12_23
*630 FILLER_12_31
*631 FILLER_12_37
*632 FILLER_12_54
*633 FILLER_12_6
*634 FILLER_12_62
*635 FILLER_12_64
*636 FILLER_12_85
*637 FILLER_13_131
*638 FILLER_13_142
*639 FILLER_13_144
*640 FILLER_13_155
*641 FILLER_13_176
*642 FILLER_13_18
*643 FILLER_13_212
*644 FILLER_13_224
*645 FILLER_13_226
*646 FILLER_13_40
*647 FILLER_13_44
*648 FILLER_13_54
*649 FILLER_13_90
*650 FILLER_13_92
*651 FILLER_14_10
*652 FILLER_14_104
*653 FILLER_14_107
*654 FILLER_14_109
*655 FILLER_14_157
*656 FILLER_14_177
*657 FILLER_14_2
*658 FILLER_14_33
*659 FILLER_14_59
*660 FILLER_14_67
*661 FILLER_14_69
*662 FILLER_14_80
*663 FILLER_14_96
*664 FILLER_15_137
*665 FILLER_15_139
*666 FILLER_15_2
*667 FILLER_15_212
*668 FILLER_15_214
*669 FILLER_15_33
*670 FILLER_15_41
*671 FILLER_15_54
*672 FILLER_15_58
*673 FILLER_15_68
*674 FILLER_15_81
*675 FILLER_15_89
*676 FILLER_16_10
*677 FILLER_16_102
*678 FILLER_16_104
*679 FILLER_16_107
*680 FILLER_16_111
*681 FILLER_16_113
*682 FILLER_16_118
*683 FILLER_16_159
*684 FILLER_16_161
*685 FILLER_16_172
*686 FILLER_16_174
*687 FILLER_16_2
*688 FILLER_16_24
*689 FILLER_16_37
*690 FILLER_16_45
*691 FILLER_16_58
*692 FILLER_16_62
*693 FILLER_16_75
*694 FILLER_16_83
*695 FILLER_16_94
*696 FILLER_17_10
*697 FILLER_17_104
*698 FILLER_17_108
*699 FILLER_17_151
*700 FILLER_17_172
*701 FILLER_17_2
*702 FILLER_17_252
*703 FILLER_17_35
*704 FILLER_17_43
*705 FILLER_17_49
*706 FILLER_17_57
*707 FILLER_17_61
*708 FILLER_17_63
*709 FILLER_17_72
*710 FILLER_17_80
*711 FILLER_17_88
*712 FILLER_18_103
*713 FILLER_18_107
*714 FILLER_18_115
*715 FILLER_18_177
*716 FILLER_18_179
*717 FILLER_18_2
*718 FILLER_18_23
*719 FILLER_18_34
*720 FILLER_18_37
*721 FILLER_18_52
*722 FILLER_18_65
*723 FILLER_18_81
*724 FILLER_18_89
*725 FILLER_18_99
*726 FILLER_19_115
*727 FILLER_19_131
*728 FILLER_19_149
*729 FILLER_19_209
*730 FILLER_19_31
*731 FILLER_19_38
*732 FILLER_19_54
*733 FILLER_19_66
*734 FILLER_19_80
*735 FILLER_19_84
*736 FILLER_1_10
*737 FILLER_1_131
*738 FILLER_1_154
*739 FILLER_1_187
*740 FILLER_1_2
*741 FILLER_1_72
*742 FILLER_20_102
*743 FILLER_20_104
*744 FILLER_20_107
*745 FILLER_20_117
*746 FILLER_20_119
*747 FILLER_20_165
*748 FILLER_20_174
*749 FILLER_20_185
*750 FILLER_20_2
*751 FILLER_20_22
*752 FILLER_20_240
*753 FILLER_20_244
*754 FILLER_20_255
*755 FILLER_20_26
*756 FILLER_20_37
*757 FILLER_20_50
*758 FILLER_20_6
*759 FILLER_20_61
*760 FILLER_20_65
*761 FILLER_20_70
*762 FILLER_20_86
*763 FILLER_21_10
*764 FILLER_21_133
*765 FILLER_21_137
*766 FILLER_21_139
*767 FILLER_21_142
*768 FILLER_21_158
*769 FILLER_21_162
*770 FILLER_21_2
*771 FILLER_21_203
*772 FILLER_21_26
*773 FILLER_21_34
*774 FILLER_21_40
*775 FILLER_21_72
*776 FILLER_21_82
*777 FILLER_21_90
*778 FILLER_22_10
*779 FILLER_22_102
*780 FILLER_22_104
*781 FILLER_22_107
*782 FILLER_22_111
*783 FILLER_22_139
*784 FILLER_22_143
*785 FILLER_22_145
*786 FILLER_22_2
*787 FILLER_22_255
*788 FILLER_22_37
*789 FILLER_22_67
*790 FILLER_22_69
*791 FILLER_22_83
*792 FILLER_22_91
*793 FILLER_23_137
*794 FILLER_23_139
*795 FILLER_23_142
*796 FILLER_23_154
*797 FILLER_23_158
*798 FILLER_23_160
*799 FILLER_23_2
*800 FILLER_23_32
*801 FILLER_23_36
*802 FILLER_23_72
*803 FILLER_23_74
*804 FILLER_23_83
*805 FILLER_24_125
*806 FILLER_24_127
*807 FILLER_24_151
*808 FILLER_24_177
*809 FILLER_24_26
*810 FILLER_24_37
*811 FILLER_25_123
*812 FILLER_25_137
*813 FILLER_25_139
*814 FILLER_25_36
*815 FILLER_25_40
*816 FILLER_25_77
*817 FILLER_26_136
*818 FILLER_26_138
*819 FILLER_26_2
*820 FILLER_26_227
*821 FILLER_26_255
*822 FILLER_26_32
*823 FILLER_26_34
*824 FILLER_26_37
*825 FILLER_26_45
*826 FILLER_26_49
*827 FILLER_26_51
*828 FILLER_26_60
*829 FILLER_26_64
*830 FILLER_26_66
*831 FILLER_27_10
*832 FILLER_27_2
*833 FILLER_27_43
*834 FILLER_27_51
*835 FILLER_27_65
*836 FILLER_27_69
*837 FILLER_27_72
*838 FILLER_27_85
*839 FILLER_27_93
*840 FILLER_28_107
*841 FILLER_28_117
*842 FILLER_28_121
*843 FILLER_28_155
*844 FILLER_28_185
*845 FILLER_28_189
*846 FILLER_28_2
*847 FILLER_28_219
*848 FILLER_28_24
*849 FILLER_28_30
*850 FILLER_28_34
*851 FILLER_28_37
*852 FILLER_28_70
*853 FILLER_28_92
*854 FILLER_28_96
*855 FILLER_29_137
*856 FILLER_29_139
*857 FILLER_29_193
*858 FILLER_29_2
*859 FILLER_29_4
*860 FILLER_29_63
*861 FILLER_29_80
*862 FILLER_29_82
*863 FILLER_29_90
*864 FILLER_29_98
*865 FILLER_2_100
*866 FILLER_2_107
*867 FILLER_2_130
*868 FILLER_2_160
*869 FILLER_2_164
*870 FILLER_2_227
*871 FILLER_2_37
*872 FILLER_2_94
*873 FILLER_2_98
*874 FILLER_30_100
*875 FILLER_30_104
*876 FILLER_30_107
*877 FILLER_30_115
*878 FILLER_30_117
*879 FILLER_30_177
*880 FILLER_30_181
*881 FILLER_30_211
*882 FILLER_30_215
*883 FILLER_30_31
*884 FILLER_30_77
*885 FILLER_30_92
*886 FILLER_31_106
*887 FILLER_31_18
*888 FILLER_31_2
*889 FILLER_31_206
*890 FILLER_31_251
*891 FILLER_31_255
*892 FILLER_31_26
*893 FILLER_31_28
*894 FILLER_31_58
*895 FILLER_31_68
*896 FILLER_31_82
*897 FILLER_31_84
*898 FILLER_31_98
*899 FILLER_32_133
*900 FILLER_32_164
*901 FILLER_32_166
*902 FILLER_32_185
*903 FILLER_32_189
*904 FILLER_32_2
*905 FILLER_32_244
*906 FILLER_32_255
*907 FILLER_32_37
*908 FILLER_32_78
*909 FILLER_33_107
*910 FILLER_33_200
*911 FILLER_33_31
*912 FILLER_33_33
*913 FILLER_33_63
*914 FILLER_33_87
*915 FILLER_34_107
*916 FILLER_34_2
*917 FILLER_34_244
*918 FILLER_34_253
*919 FILLER_34_255
*920 FILLER_34_34
*921 FILLER_34_37
*922 FILLER_34_45
*923 FILLER_34_6
*924 FILLER_34_8
*925 FILLER_34_90
*926 FILLER_35_104
*927 FILLER_35_178
*928 FILLER_35_18
*929 FILLER_35_237
*930 FILLER_35_36
*931 FILLER_35_70
*932 FILLER_35_86
*933 FILLER_3_100
*934 FILLER_3_127
*935 FILLER_3_153
*936 FILLER_3_157
*937 FILLER_3_181
*938 FILLER_3_26
*939 FILLER_3_57
*940 FILLER_3_59
*941 FILLER_3_72
*942 FILLER_3_92
*943 FILLER_4_103
*944 FILLER_4_107
*945 FILLER_4_121
*946 FILLER_4_129
*947 FILLER_4_154
*948 FILLER_4_159
*949 FILLER_4_188
*950 FILLER_4_227
*951 FILLER_4_253
*952 FILLER_4_255
*953 FILLER_4_31
*954 FILLER_4_70
*955 FILLER_4_72
*956 FILLER_4_87
*957 FILLER_5_115
*958 FILLER_5_124
*959 FILLER_5_142
*960 FILLER_5_158
*961 FILLER_5_160
*962 FILLER_5_165
*963 FILLER_5_167
*964 FILLER_5_2
*965 FILLER_5_22
*966 FILLER_5_4
*967 FILLER_5_67
*968 FILLER_5_69
*969 FILLER_5_72
*970 FILLER_6_101
*971 FILLER_6_107
*972 FILLER_6_115
*973 FILLER_6_131
*974 FILLER_6_146
*975 FILLER_6_154
*976 FILLER_6_172
*977 FILLER_6_174
*978 FILLER_6_186
*979 FILLER_6_241
*980 FILLER_6_255
*981 FILLER_6_62
*982 FILLER_6_66
*983 FILLER_6_77
*984 FILLER_6_81
*985 FILLER_6_93
*986 FILLER_7_118
*987 FILLER_7_151
*988 FILLER_7_159
*989 FILLER_7_167
*990 FILLER_7_193
*991 FILLER_7_2
*992 FILLER_7_226
*993 FILLER_7_31
*994 FILLER_7_35
*995 FILLER_7_37
*996 FILLER_7_6
*997 FILLER_7_66
*998 FILLER_7_72
*999 FILLER_7_78
*1000 FILLER_7_8
*1001 FILLER_7_80
*1002 FILLER_8_111
*1003 FILLER_8_121
*1004 FILLER_8_125
*1005 FILLER_8_127
*1006 FILLER_8_155
*1007 FILLER_8_163
*1008 FILLER_8_177
*1009 FILLER_8_2
*1010 FILLER_8_20
*1011 FILLER_8_22
*1012 FILLER_8_242
*1013 FILLER_8_244
*1014 FILLER_8_255
*1015 FILLER_8_32
*1016 FILLER_8_34
*1017 FILLER_8_43
*1018 FILLER_8_6
*1019 FILLER_8_65
*1020 FILLER_8_8
*1021 FILLER_8_83
*1022 FILLER_8_87
*1023 FILLER_8_89
*1024 FILLER_9_10
*1025 FILLER_9_12
*1026 FILLER_9_127
*1027 FILLER_9_135
*1028 FILLER_9_139
*1029 FILLER_9_151
*1030 FILLER_9_155
*1031 FILLER_9_157
*1032 FILLER_9_178
*1033 FILLER_9_2
*1034 FILLER_9_23
*1035 FILLER_9_34
*1036 FILLER_9_42
*1037 FILLER_9_77
*1038 PHY_EDGE_ROW_0_Left_36
*1039 PHY_EDGE_ROW_0_Right_0
*1040 PHY_EDGE_ROW_10_Left_46
*1041 PHY_EDGE_ROW_10_Right_10
*1042 PHY_EDGE_ROW_11_Left_47
*1043 PHY_EDGE_ROW_11_Right_11
*1044 PHY_EDGE_ROW_12_Left_48
*1045 PHY_EDGE_ROW_12_Right_12
*1046 PHY_EDGE_ROW_13_Left_49
*1047 PHY_EDGE_ROW_13_Right_13
*1048 PHY_EDGE_ROW_14_Left_50
*1049 PHY_EDGE_ROW_14_Right_14
*1050 PHY_EDGE_ROW_15_Left_51
*1051 PHY_EDGE_ROW_15_Right_15
*1052 PHY_EDGE_ROW_16_Left_52
*1053 PHY_EDGE_ROW_16_Right_16
*1054 PHY_EDGE_ROW_17_Left_53
*1055 PHY_EDGE_ROW_17_Right_17
*1056 PHY_EDGE_ROW_18_Left_54
*1057 PHY_EDGE_ROW_18_Right_18
*1058 PHY_EDGE_ROW_19_Left_55
*1059 PHY_EDGE_ROW_19_Right_19
*1060 PHY_EDGE_ROW_1_Left_37
*1061 PHY_EDGE_ROW_1_Right_1
*1062 PHY_EDGE_ROW_20_Left_56
*1063 PHY_EDGE_ROW_20_Right_20
*1064 PHY_EDGE_ROW_21_Left_57
*1065 PHY_EDGE_ROW_21_Right_21
*1066 PHY_EDGE_ROW_22_Left_58
*1067 PHY_EDGE_ROW_22_Right_22
*1068 PHY_EDGE_ROW_23_Left_59
*1069 PHY_EDGE_ROW_23_Right_23
*1070 PHY_EDGE_ROW_24_Left_60
*1071 PHY_EDGE_ROW_24_Right_24
*1072 PHY_EDGE_ROW_25_Left_61
*1073 PHY_EDGE_ROW_25_Right_25
*1074 PHY_EDGE_ROW_26_Left_62
*1075 PHY_EDGE_ROW_26_Right_26
*1076 PHY_EDGE_ROW_27_Left_63
*1077 PHY_EDGE_ROW_27_Right_27
*1078 PHY_EDGE_ROW_28_Left_64
*1079 PHY_EDGE_ROW_28_Right_28
*1080 PHY_EDGE_ROW_29_Left_65
*1081 PHY_EDGE_ROW_29_Right_29
*1082 PHY_EDGE_ROW_2_Left_38
*1083 PHY_EDGE_ROW_2_Right_2
*1084 PHY_EDGE_ROW_30_Left_66
*1085 PHY_EDGE_ROW_30_Right_30
*1086 PHY_EDGE_ROW_31_Left_67
*1087 PHY_EDGE_ROW_31_Right_31
*1088 PHY_EDGE_ROW_32_Left_68
*1089 PHY_EDGE_ROW_32_Right_32
*1090 PHY_EDGE_ROW_33_Left_69
*1091 PHY_EDGE_ROW_33_Right_33
*1092 PHY_EDGE_ROW_34_Left_70
*1093 PHY_EDGE_ROW_34_Right_34
*1094 PHY_EDGE_ROW_35_Left_71
*1095 PHY_EDGE_ROW_35_Right_35
*1096 PHY_EDGE_ROW_3_Left_39
*1097 PHY_EDGE_ROW_3_Right_3
*1098 PHY_EDGE_ROW_4_Left_40
*1099 PHY_EDGE_ROW_4_Right_4
*1100 PHY_EDGE_ROW_5_Left_41
*1101 PHY_EDGE_ROW_5_Right_5
*1102 PHY_EDGE_ROW_6_Left_42
*1103 PHY_EDGE_ROW_6_Right_6
*1104 PHY_EDGE_ROW_7_Left_43
*1105 PHY_EDGE_ROW_7_Right_7
*1106 PHY_EDGE_ROW_8_Left_44
*1107 PHY_EDGE_ROW_8_Right_8
*1108 PHY_EDGE_ROW_9_Left_45
*1109 PHY_EDGE_ROW_9_Right_9
*1110 TAP_TAPCELL_ROW_0_72
*1111 TAP_TAPCELL_ROW_0_73
*1112 TAP_TAPCELL_ROW_0_74
*1113 TAP_TAPCELL_ROW_0_75
*1114 TAP_TAPCELL_ROW_0_76
*1115 TAP_TAPCELL_ROW_0_77
*1116 TAP_TAPCELL_ROW_0_78
*1117 TAP_TAPCELL_ROW_10_110
*1118 TAP_TAPCELL_ROW_10_111
*1119 TAP_TAPCELL_ROW_10_112
*1120 TAP_TAPCELL_ROW_10_113
*1121 TAP_TAPCELL_ROW_11_114
*1122 TAP_TAPCELL_ROW_11_115
*1123 TAP_TAPCELL_ROW_11_116
*1124 TAP_TAPCELL_ROW_12_117
*1125 TAP_TAPCELL_ROW_12_118
*1126 TAP_TAPCELL_ROW_12_119
*1127 TAP_TAPCELL_ROW_12_120
*1128 TAP_TAPCELL_ROW_13_121
*1129 TAP_TAPCELL_ROW_13_122
*1130 TAP_TAPCELL_ROW_13_123
*1131 TAP_TAPCELL_ROW_14_124
*1132 TAP_TAPCELL_ROW_14_125
*1133 TAP_TAPCELL_ROW_14_126
*1134 TAP_TAPCELL_ROW_14_127
*1135 TAP_TAPCELL_ROW_15_128
*1136 TAP_TAPCELL_ROW_15_129
*1137 TAP_TAPCELL_ROW_15_130
*1138 TAP_TAPCELL_ROW_16_131
*1139 TAP_TAPCELL_ROW_16_132
*1140 TAP_TAPCELL_ROW_16_133
*1141 TAP_TAPCELL_ROW_16_134
*1142 TAP_TAPCELL_ROW_17_135
*1143 TAP_TAPCELL_ROW_17_136
*1144 TAP_TAPCELL_ROW_17_137
*1145 TAP_TAPCELL_ROW_18_138
*1146 TAP_TAPCELL_ROW_18_139
*1147 TAP_TAPCELL_ROW_18_140
*1148 TAP_TAPCELL_ROW_18_141
*1149 TAP_TAPCELL_ROW_19_142
*1150 TAP_TAPCELL_ROW_19_143
*1151 TAP_TAPCELL_ROW_19_144
*1152 TAP_TAPCELL_ROW_1_79
*1153 TAP_TAPCELL_ROW_1_80
*1154 TAP_TAPCELL_ROW_1_81
*1155 TAP_TAPCELL_ROW_20_145
*1156 TAP_TAPCELL_ROW_20_146
*1157 TAP_TAPCELL_ROW_20_147
*1158 TAP_TAPCELL_ROW_20_148
*1159 TAP_TAPCELL_ROW_21_149
*1160 TAP_TAPCELL_ROW_21_150
*1161 TAP_TAPCELL_ROW_21_151
*1162 TAP_TAPCELL_ROW_22_152
*1163 TAP_TAPCELL_ROW_22_153
*1164 TAP_TAPCELL_ROW_22_154
*1165 TAP_TAPCELL_ROW_22_155
*1166 TAP_TAPCELL_ROW_23_156
*1167 TAP_TAPCELL_ROW_23_157
*1168 TAP_TAPCELL_ROW_23_158
*1169 TAP_TAPCELL_ROW_24_159
*1170 TAP_TAPCELL_ROW_24_160
*1171 TAP_TAPCELL_ROW_24_161
*1172 TAP_TAPCELL_ROW_24_162
*1173 TAP_TAPCELL_ROW_25_163
*1174 TAP_TAPCELL_ROW_25_164
*1175 TAP_TAPCELL_ROW_25_165
*1176 TAP_TAPCELL_ROW_26_166
*1177 TAP_TAPCELL_ROW_26_167
*1178 TAP_TAPCELL_ROW_26_168
*1179 TAP_TAPCELL_ROW_26_169
*1180 TAP_TAPCELL_ROW_27_170
*1181 TAP_TAPCELL_ROW_27_171
*1182 TAP_TAPCELL_ROW_27_172
*1183 TAP_TAPCELL_ROW_28_173
*1184 TAP_TAPCELL_ROW_28_174
*1185 TAP_TAPCELL_ROW_28_175
*1186 TAP_TAPCELL_ROW_28_176
*1187 TAP_TAPCELL_ROW_29_177
*1188 TAP_TAPCELL_ROW_29_178
*1189 TAP_TAPCELL_ROW_29_179
*1190 TAP_TAPCELL_ROW_2_82
*1191 TAP_TAPCELL_ROW_2_83
*1192 TAP_TAPCELL_ROW_2_84
*1193 TAP_TAPCELL_ROW_2_85
*1194 TAP_TAPCELL_ROW_30_180
*1195 TAP_TAPCELL_ROW_30_181
*1196 TAP_TAPCELL_ROW_30_182
*1197 TAP_TAPCELL_ROW_30_183
*1198 TAP_TAPCELL_ROW_31_184
*1199 TAP_TAPCELL_ROW_31_185
*1200 TAP_TAPCELL_ROW_31_186
*1201 TAP_TAPCELL_ROW_32_187
*1202 TAP_TAPCELL_ROW_32_188
*1203 TAP_TAPCELL_ROW_32_189
*1204 TAP_TAPCELL_ROW_32_190
*1205 TAP_TAPCELL_ROW_33_191
*1206 TAP_TAPCELL_ROW_33_192
*1207 TAP_TAPCELL_ROW_33_193
*1208 TAP_TAPCELL_ROW_34_194
*1209 TAP_TAPCELL_ROW_34_195
*1210 TAP_TAPCELL_ROW_34_196
*1211 TAP_TAPCELL_ROW_34_197
*1212 TAP_TAPCELL_ROW_35_198
*1213 TAP_TAPCELL_ROW_35_199
*1214 TAP_TAPCELL_ROW_35_200
*1215 TAP_TAPCELL_ROW_35_201
*1216 TAP_TAPCELL_ROW_35_202
*1217 TAP_TAPCELL_ROW_35_203
*1218 TAP_TAPCELL_ROW_35_204
*1219 TAP_TAPCELL_ROW_3_86
*1220 TAP_TAPCELL_ROW_3_87
*1221 TAP_TAPCELL_ROW_3_88
*1222 TAP_TAPCELL_ROW_4_89
*1223 TAP_TAPCELL_ROW_4_90
*1224 TAP_TAPCELL_ROW_4_91
*1225 TAP_TAPCELL_ROW_4_92
*1226 TAP_TAPCELL_ROW_5_93
*1227 TAP_TAPCELL_ROW_5_94
*1228 TAP_TAPCELL_ROW_5_95
*1229 TAP_TAPCELL_ROW_6_96
*1230 TAP_TAPCELL_ROW_6_97
*1231 TAP_TAPCELL_ROW_6_98
*1232 TAP_TAPCELL_ROW_6_99
*1233 TAP_TAPCELL_ROW_7_100
*1234 TAP_TAPCELL_ROW_7_101
*1235 TAP_TAPCELL_ROW_7_102
*1236 TAP_TAPCELL_ROW_8_103
*1237 TAP_TAPCELL_ROW_8_104
*1238 TAP_TAPCELL_ROW_8_105
*1239 TAP_TAPCELL_ROW_8_106
*1240 TAP_TAPCELL_ROW_9_107
*1241 TAP_TAPCELL_ROW_9_108
*1242 TAP_TAPCELL_ROW_9_109
*1243 _408_
*1244 _409_
*1245 _410_
*1246 _411_
*1247 _412_
*1248 _413_
*1249 _414_
*1250 _415_
*1251 _416_
*1252 _417_
*1253 _418_
*1254 _419_
*1255 _420_
*1256 _421_
*1257 _422_
*1258 _423_
*1259 _424_
*1260 _425_
*1261 _426_
*1262 _427_
*1263 _428_
*1264 _429_
*1265 _430_
*1266 _431_
*1267 _432_
*1268 _433_
*1269 _434_
*1270 _435_
*1271 _436_
*1272 _437_
*1273 _438_
*1274 _439_
*1275 _440_
*1276 _441_
*1277 _442_
*1278 _443_
*1279 _444_
*1280 _445_
*1281 _446_
*1282 _447_
*1283 _448_
*1284 _449_
*1285 _450_
*1286 _451_
*1287 _452_
*1288 _453_
*1289 _454_
*1290 _455_
*1291 _456_
*1292 _457_
*1293 _458_
*1294 _459_
*1295 _460_
*1296 _461_
*1297 _462_
*1298 _463_
*1299 _464_
*1300 _465_
*1301 _466_
*1302 _467_
*1303 _468_
*1304 _469_
*1305 _470_
*1306 _471_
*1307 _472_
*1308 _473_
*1309 _474_
*1310 _475_
*1311 _476_
*1312 _477_
*1313 _478_
*1314 _479_
*1315 _480_
*1316 _481_
*1317 _482_
*1318 _483_
*1319 _484_
*1320 _485_
*1321 _486_
*1322 _487_
*1323 _488_
*1324 _489_
*1325 _490_
*1326 _491_
*1327 _492_
*1328 _493_
*1329 _494_
*1330 _495_
*1331 _496_
*1332 _497_
*1333 _498_
*1334 _499_
*1335 _500_
*1336 _501_
*1337 _502_
*1338 _503_
*1339 _504_
*1340 _505_
*1341 _506_
*1342 _507_
*1343 _508_
*1344 _509_
*1345 _510_
*1346 _511_
*1347 _512_
*1348 _513_
*1349 _514_
*1350 _515_
*1351 _516_
*1352 _517_
*1353 _518_
*1354 _519_
*1355 _520_
*1356 _521_
*1357 _522_
*1358 _523_
*1359 _524_
*1360 _525_
*1361 _526_
*1362 _527_
*1363 _528_
*1364 _529_
*1365 _530_
*1366 _531_
*1367 _532_
*1368 _533_
*1369 _534_
*1370 _535_
*1371 _536_
*1372 _537_
*1373 _538_
*1374 _539_
*1375 _540_
*1376 _541_
*1377 _542_
*1378 _543_
*1379 _544_
*1380 _545_
*1381 _546_
*1382 _547_
*1383 _548_
*1384 _549_
*1385 _550_
*1386 _551_
*1387 _552_
*1388 _553_
*1389 _554_
*1390 _555_
*1391 _556_
*1392 _557_
*1393 _558_
*1394 _559_
*1395 _560_
*1396 _561_
*1397 _562_
*1398 _563_
*1399 _564_
*1400 _565_
*1401 _566_
*1402 _567_
*1403 _568_
*1404 _569_
*1405 _570_
*1406 _571_
*1407 _572_
*1408 _573_
*1409 _574_
*1410 _575_
*1411 _576_
*1412 _577_
*1413 _578_
*1414 _579_
*1415 _580_
*1416 _581_
*1417 _582_
*1418 _583_
*1419 _584_
*1420 _585_
*1421 _586_
*1422 _587_
*1423 _588_
*1424 _589_
*1425 _590_
*1426 _591_
*1427 _592_
*1428 _593_
*1429 _594_
*1430 _595_
*1431 _596_
*1432 _597_
*1433 _598_
*1434 _599_
*1435 _600_
*1436 _601_
*1437 _602_
*1438 _603_
*1439 _604_
*1440 _605_
*1441 _606_
*1442 _607_
*1443 _608_
*1444 _609_
*1445 _610_
*1446 _611_
*1447 _612_
*1448 _613_
*1449 _614_
*1450 _615_
*1451 _616_
*1452 _617_
*1453 _618_
*1454 _619_
*1455 _620_
*1456 _621_
*1457 _622_
*1458 _623_
*1459 _624_
*1460 _625_
*1461 _626_
*1462 _627_
*1463 _628_
*1464 _629_
*1465 _630_
*1466 _631_
*1467 _632_
*1468 _633_
*1469 _634_
*1470 _635_
*1471 _636_
*1472 _637_
*1473 _638_
*1474 _639_
*1475 _640_
*1476 _641_
*1477 _642_
*1478 _643_
*1479 _644_
*1480 _645_
*1481 _646_
*1482 _647_
*1483 _648_
*1484 _649_
*1485 _650_
*1486 _651_
*1487 _652_
*1488 _653_
*1489 _654_
*1490 _655_
*1491 _656_
*1492 _657_
*1493 _658_
*1494 _659_
*1495 _660_
*1496 _661_
*1497 _662_
*1498 _663_
*1499 _664_
*1500 _665_
*1501 _666_
*1502 _667_
*1503 _668_
*1504 _669_
*1505 _670_
*1506 _671_
*1507 _672_
*1508 _673_
*1509 _674_
*1510 _675_
*1511 _676_
*1512 _677_
*1513 _678_
*1514 _679_
*1515 _680_
*1516 _681_
*1517 _682_
*1518 _683_
*1519 _684_
*1520 _685_
*1521 _686_
*1522 _687_
*1523 _688_
*1524 _689_
*1525 _690_
*1526 _691_
*1527 _692_
*1528 _693_
*1529 _694_
*1530 _695_
*1531 _696_
*1532 _697_
*1533 _698_
*1534 _699_
*1535 _700_
*1536 _701_
*1537 _702_
*1538 _703_
*1539 _704_
*1540 _705_
*1541 _706_
*1542 _707_
*1543 _708_
*1544 _709_
*1545 _710_
*1546 _711_
*1547 _712_
*1548 _713_
*1549 _714_
*1550 _715_
*1551 _716_
*1552 _717_
*1553 _718_
*1554 _719_
*1555 _720_
*1556 _721_
*1557 _722_
*1558 _723_
*1559 _724_
*1560 _725_
*1561 _726_
*1562 _727_
*1563 _728_
*1564 _729_
*1565 _730_
*1566 _731_
*1567 _732_
*1568 _733_
*1569 _734_
*1570 _735_
*1571 _736_
*1572 _737_
*1573 _738_
*1574 _739_
*1575 _740_
*1576 _741_
*1577 _742_
*1578 _743_
*1579 _744_
*1580 _745_
*1581 _746_
*1582 _747_
*1583 _748_
*1584 _749_
*1585 _750_
*1586 _751_
*1587 _752_
*1588 _753_
*1589 _754_
*1590 _755_
*1591 _756_
*1592 _757_
*1593 _758_
*1594 _759_
*1595 _760_
*1596 _761_
*1597 _762_
*1598 _763_
*1599 _764_
*1600 _765_
*1601 _766_
*1602 _767_
*1603 _768_
*1604 _769_
*1605 _770_
*1606 _771_
*1607 _772_
*1608 _773_
*1609 _774_
*1610 _775_
*1611 _776_
*1612 _777_
*1613 _778_
*1614 _779_
*1615 _780_
*1616 _781_
*1617 _782_
*1618 _783_
*1619 _784_
*1620 _785_
*1621 _786_
*1622 _787_
*1623 _788_
*1624 _789_
*1625 _790_
*1626 _791_
*1627 _792_
*1628 _793_
*1629 _794_
*1630 _795_
*1631 _796_
*1632 _797_
*1633 _798_
*1634 _799_
*1635 _800_
*1636 _801_
*1637 _802_
*1638 _803_
*1639 _804_
*1640 _805_
*1641 _806_
*1642 _807_
*1643 _808_
*1644 _809_
*1645 _810_
*1646 _811_
*1647 _812_
*1648 _813_
*1649 _814_
*1650 _815_
*1651 _816_
*1652 _817_
*1653 _818_
*1654 _819_
*1655 _820_
*1656 _821_
*1657 _822_
*1658 _823_
*1659 _824_
*1660 _825_
*1661 _826_
*1662 _827_
*1663 _828_
*1664 _829_
*1665 _830_
*1666 _831_
*1667 _832_
*1668 _833_
*1669 _834_
*1670 _835_
*1671 _836_
*1672 _837_
*1673 _838_
*1674 _839_
*1675 _840_
*1676 _841_
*1677 _842_
*1678 _843_
*1679 _844_
*1680 _845_
*1681 _846_
*1682 _847_
*1683 _848_
*1684 _849_
*1685 _850_
*1686 _851_
*1687 _852_
*1688 _853_
*1689 _854_
*1690 _855_
*1691 _856_
*1692 _857_
*1693 _858_
*1694 _859_
*1695 _860_
*1696 _861_
*1697 _862_
*1698 _863_
*1699 _864_
*1700 _865_
*1701 _866_
*1702 _867_
*1703 _868_
*1704 _869_
*1705 _870_
*1706 _871_
*1707 _872_
*1708 _873_
*1709 _874_
*1710 _875_
*1711 _876_
*1712 _877_
*1713 _878_
*1714 _879_
*1715 _880_
*1716 _881_
*1717 _882_
*1718 _883_
*1719 _884_
*1720 _885_
*1721 _886_
*1722 _887_
*1723 _888_
*1724 _889_
*1725 _890_
*1726 _891_
*1727 _892_
*1728 _893_
*1729 _894_
*1730 _895_
*1731 _896_
*1732 _897_
*1733 _898_
*1734 _899_
*1735 _900_
*1736 _901_
*1737 _902_
*1738 clkbuf_0_CLK_I
*1739 clkbuf_3_0__f_CLK_I
*1740 clkbuf_3_1__f_CLK_I
*1741 clkbuf_3_2__f_CLK_I
*1742 clkbuf_3_3__f_CLK_I
*1743 clkbuf_3_4__f_CLK_I
*1744 clkbuf_3_5__f_CLK_I
*1745 clkbuf_3_6__f_CLK_I
*1746 clkbuf_3_7__f_CLK_I
*1747 clkload0
*1748 clkload1
*1749 clkload2
*1750 clkload3
*1751 clkload4
*1752 clkload5
*1753 clkload6
*1754 hold36
*1755 hold37
*1756 hold38
*1757 hold39
*1758 hold40
*1759 hold41
*1760 hold42
*1761 hold43
*1762 hold44
*1763 hold45
*1764 hold46
*1765 hold47
*1766 hold48
*1767 hold49
*1768 hold50
*1769 hold51
*1770 hold52
*1771 hold53
*1772 hold54
*1773 hold55
*1774 hold56
*1775 hold57
*1776 hold58
*1777 hold59
*1778 hold60
*1779 input1
*1780 input10
*1781 input11
*1782 input12
*1783 input2
*1784 input3
*1785 input4
*1786 input5
*1787 input6
*1788 input7
*1789 input8
*1790 input9
*1791 max_cap34
*1792 max_cap35
*1793 output13
*1794 output14
*1795 output15
*1796 output16
*1797 output17
*1798 output18
*1799 output19
*1800 output20
*1801 output21
*1802 output22
*1803 output23
*1804 output24
*1805 output25
*1806 output26
*1807 output27
*1808 output28
*1809 output29
*1810 output30
*1811 output31
*1812 output32
*1813 output33

*PORTS
ACK_I I
ADDR_O[0] O
ADDR_O[1] O
ADDR_O[2] O
ADDR_O[3] O
ADDR_O[4] O
ADDR_O[5] O
ADDR_O[6] O
ADDR_O[7] O
CLK_I I
CYC_O O
DAT_I[0] I
DAT_I[1] I
DAT_I[2] I
DAT_I[3] I
DAT_I[4] I
DAT_I[5] I
DAT_I[6] I
DAT_I[7] I
DAT_O[0] O
DAT_O[1] O
DAT_O[2] O
DAT_O[3] O
DAT_O[4] O
DAT_O[5] O
DAT_O[6] O
DAT_O[7] O
ERR_I I
RST_I I
RTY_I I
STB_O O
WE_O O
i2c_scl_in I
i2c_sda_in I
i2c_sda_out_pin_ctrl O
i2c_sda_out_pin_ctrl_n O

*D_NET *1 0.0118565
*CONN
*P ACK_I I
*I *1779:I I *D gf180mcu_fd_sc_mcu7t5v0__dlyb_1
*CAP
1 ACK_I 0.00430537
2 *1779:I 0.00430537
3 *1779:I WE_O 0
4 *1779:I *1376:A1 2.37223e-05
5 *1779:I *1640:A1 0.000366109
6 *1779:I *1642:A2 0.000320451
7 *1779:I *1642:B1 0.000320451
8 *1779:I *1643:A2 0.000207164
9 *1779:I *1646:A1 0
10 *1779:I *1647:A2 0
11 *1779:I *1660:D 0.00012632
12 *1779:I *1810:I 0.000113463
13 *1779:I *425:144 0.000417168
14 *1779:I *434:108 0
15 *1779:I *462:12 0.000103298
16 *1779:I *478:62 0.000118265
17 *1779:I *511:14 0.000288942
18 *1779:I *519:29 0.000159872
19 *1779:I *558:14 0.000317218
20 *1779:I *559:83 0.000363355
*RES
1 ACK_I *1779:I 44.4477 
*END

*D_NET *2 0.0071807
*CONN
*P ADDR_O[0] O
*I *1793:Z O *D gf180mcu_fd_sc_mcu7t5v0__dlyb_1
*CAP
1 ADDR_O[0] 0.0012329
2 *1793:Z 0.0012329
3 ADDR_O[0] ADDR_O[1] 0
4 ADDR_O[0] *1613:A1 0.00341314
5 ADDR_O[0] *1613:B1 3.52832e-05
6 ADDR_O[0] *1615:A1 0.00117084
7 ADDR_O[0] *1683:D 0
8 ADDR_O[0] *1685:CLK 2.12695e-05
9 ADDR_O[0] *1780:I 0
10 ADDR_O[0] *1794:I 7.13956e-05
11 ADDR_O[0] *450:8 0
12 ADDR_O[0] *492:23 2.96915e-06
*RES
1 *1793:Z ADDR_O[0] 24.2286 
*END

*D_NET *3 0.00572406
*CONN
*P ADDR_O[1] O
*I *1794:Z O *D gf180mcu_fd_sc_mcu7t5v0__dlyb_1
*CAP
1 ADDR_O[1] 0.00132483
2 *1794:Z 0.00132483
3 ADDR_O[1] ADDR_O[2] 0
4 ADDR_O[1] *1422:B 1.10856e-05
5 ADDR_O[1] *1617:A2 6.47033e-06
6 ADDR_O[1] *1687:D 0.00203244
7 ADDR_O[1] *1794:I 0.00102442
8 ADDR_O[0] ADDR_O[1] 0
*RES
1 *1794:Z ADDR_O[1] 22.9806 
*END

*D_NET *4 0.00596232
*CONN
*P ADDR_O[2] O
*I *1795:Z O *D gf180mcu_fd_sc_mcu7t5v0__dlyb_1
*CAP
1 ADDR_O[2] 0.00128779
2 *1795:Z 0.00128779
3 ADDR_O[2] ADDR_O[3] 0
4 ADDR_O[2] *1422:B 0.000436963
5 ADDR_O[2] *1617:A2 3.89885e-06
6 ADDR_O[2] *1797:I 0.000454422
7 ADDR_O[2] *452:14 0.000249279
8 ADDR_O[2] *499:10 0.00224217
9 ADDR_O[1] ADDR_O[2] 0
*RES
1 *1795:Z ADDR_O[2] 22.1486 
*END

*D_NET *5 0.00421433
*CONN
*P ADDR_O[3] O
*I *1796:Z O *D gf180mcu_fd_sc_mcu7t5v0__dlyb_1
*CAP
1 ADDR_O[3] 0.00141269
2 *1796:Z 0.00141269
3 ADDR_O[3] ADDR_O[4] 0
4 ADDR_O[3] *1612:A1 5.10196e-05
5 ADDR_O[3] *1613:B2 0.00049943
6 ADDR_O[3] *1615:A2 0
7 ADDR_O[3] *1645:B 0.000391582
8 ADDR_O[3] *1794:I 0.000194511
9 ADDR_O[3] *492:32 0.000252407
10 ADDR_O[2] ADDR_O[3] 0
*RES
1 *1796:Z ADDR_O[3] 20.7966 
*END

*D_NET *6 0.00792166
*CONN
*P ADDR_O[4] O
*I *1797:Z O *D gf180mcu_fd_sc_mcu7t5v0__dlyb_1
*CAP
1 ADDR_O[4] 0.00135895
2 *1797:Z 0.00135895
3 ADDR_O[4] ADDR_O[5] 0
4 ADDR_O[4] ADDR_O[6] 6.05517e-05
5 ADDR_O[4] *1422:A1 1.51772e-05
6 ADDR_O[4] *1610:A2 0.00085643
7 ADDR_O[4] *1644:A1 0
8 ADDR_O[4] *1688:D 0.00258523
9 ADDR_O[4] *1689:D 9.95746e-05
10 ADDR_O[4] *1723:D 2.76367e-05
11 ADDR_O[4] *425:25 0.000165879
12 ADDR_O[4] *425:172 6.58778e-05
13 ADDR_O[4] *454:6 4.67771e-06
14 ADDR_O[4] *454:14 7.0955e-05
15 ADDR_O[4] *500:12 0.00125178
16 ADDR_O[3] ADDR_O[4] 0
*RES
1 *1797:Z ADDR_O[4] 24.6446 
*END

*D_NET *7 0.00765644
*CONN
*P ADDR_O[5] O
*I *1798:Z O *D gf180mcu_fd_sc_mcu7t5v0__dlyb_1
*CAP
1 ADDR_O[5] 0.00110001
2 *1798:Z 0.00110001
3 ADDR_O[5] ADDR_O[6] 0
4 ADDR_O[5] *1625:A1 0.000159949
5 ADDR_O[5] *1644:A1 0.00129438
6 ADDR_O[5] *1690:D 0.000131647
7 ADDR_O[5] *1783:I 0.00061521
8 ADDR_O[5] *1795:I 0.00157658
9 ADDR_O[5] *425:204 0.00165808
10 ADDR_O[5] *501:12 2.05709e-05
11 ADDR_O[4] ADDR_O[5] 0
*RES
1 *1798:Z ADDR_O[5] 23.3966 
*END

*D_NET *8 0.00847363
*CONN
*P ADDR_O[6] O
*I *1799:Z O *D gf180mcu_fd_sc_mcu7t5v0__dlyb_1
*CAP
1 ADDR_O[6] 0.00141637
2 *1799:Z 0.00141637
3 ADDR_O[6] ADDR_O[7] 0.000335833
4 ADDR_O[6] *1341:A4 0
5 ADDR_O[6] *1424:A3 0.000554049
6 ADDR_O[6] *1427:A1 0
7 ADDR_O[6] *1610:A1 8.70669e-05
8 ADDR_O[6] *1611:B1 0
9 ADDR_O[6] *1625:A2 0.000154617
10 ADDR_O[6] *1625:B1 0.00196923
11 ADDR_O[6] *1690:D 0.000847612
12 ADDR_O[6] *1800:I 0.00142511
13 ADDR_O[6] *425:25 0
14 ADDR_O[6] *454:6 0.000179186
15 ADDR_O[6] *454:14 0
16 ADDR_O[6] *501:12 2.76367e-05
17 ADDR_O[4] ADDR_O[6] 6.05517e-05
18 ADDR_O[5] ADDR_O[6] 0
*RES
1 *1799:Z ADDR_O[6] 26.3086 
*END

*D_NET *9 0.00552043
*CONN
*P ADDR_O[7] O
*I *1800:Z O *D gf180mcu_fd_sc_mcu7t5v0__dlyb_1
*CAP
1 ADDR_O[7] 0.00168871
2 *1800:Z 0.00168871
3 ADDR_O[7] *1341:A4 0
4 ADDR_O[7] *1424:A3 8.11055e-05
5 ADDR_O[7] *1427:A1 7.52395e-06
6 ADDR_O[7] *1610:A1 0.000740576
7 ADDR_O[7] *1625:A2 0.000388596
8 ADDR_O[7] *1625:B1 7.7118e-06
9 ADDR_O[7] *1699:D 0.000123403
10 ADDR_O[7] *1743:I 0
11 ADDR_O[7] *1750:I 0.000447112
12 ADDR_O[7] *1783:I 0
13 ADDR_O[7] *580:21 1.11474e-05
14 ADDR_O[6] ADDR_O[7] 0.000335833
*RES
1 *1800:Z ADDR_O[7] 24.4366 
*END

*D_NET *10 0.0192071
*CONN
*P CLK_I I
*I *1738:I I *D gf180mcu_fd_sc_mcu7t5v0__clkbuf_16
*CAP
1 CLK_I 0.00445972
2 *1738:I 0.00191701
3 *10:18 0.00637673
4 *1738:I *1264:I 0.000158287
5 *1738:I *1402:A4 0.000858727
6 *1738:I *1415:A2 0.000700148
7 *1738:I *141:27 6.5428e-05
8 *1738:I *176:20 0
9 *1738:I *190:10 7.20938e-05
10 *1738:I *492:251 0.000203533
11 *1738:I *577:46 5.24163e-05
12 *1738:I *577:59 3.7145e-05
13 *10:18 *1335:A2 8.2087e-05
14 *10:18 *1390:A3 4.58772e-05
15 *10:18 *1392:A1 0.000448339
16 *10:18 *1393:A1 0.000412724
17 *10:18 *1399:A2 5.36452e-06
18 *10:18 *1400:A1 0
19 *10:18 *1401:A4 0.00015251
20 *10:18 *1403:B 0.000177764
21 *10:18 *1403:C 0.000498662
22 *10:18 *1404:A2 1.98185e-06
23 *10:18 *1412:A3 3.57634e-06
24 *10:18 *1618:A2 0
25 *10:18 *1684:D 0.00105397
26 *10:18 *1686:D 0.000681789
27 *10:18 *1720:D 0.000289333
28 *10:18 *1780:I 0
29 *10:18 *206:14 0
30 *10:18 *243:8 0.00013468
31 *10:18 *246:14 5.39782e-06
32 *10:18 *247:6 9.944e-05
33 *10:18 *248:10 1.77307e-05
34 *10:18 *477:55 3.20057e-05
35 *10:18 *492:145 0.000162588
36 *10:18 *497:12 0
*RES
1 CLK_I *10:18 48.6686 
2 *10:18 *1738:I 43.432 
*END

*D_NET *11 0.0214076
*CONN
*P CYC_O O
*I *1801:Z O *D gf180mcu_fd_sc_mcu7t5v0__dlyb_1
*CAP
1 CYC_O 0.0011967
2 *1801:Z 0.00120787
3 *11:16 0.00240457
4 CYC_O DAT_O[7] 0
5 CYC_O STB_O 8.33966e-05
6 CYC_O *1363:I1 0.00191892
7 CYC_O *1638:A1 0.00570435
8 CYC_O *1638:B2 0.00206643
9 CYC_O *1697:D 0.00127192
10 CYC_O *1713:D 0.000106439
11 CYC_O *1764:I 0.000815039
12 CYC_O *425:133 0
13 CYC_O *479:80 0
14 CYC_O *510:10 2.84264e-05
15 *11:16 *1292:A3 0.000525508
16 *11:16 *1297:A2 3.18011e-06
17 *11:16 *1299:A2 3.74551e-05
18 *11:16 *1364:A2 0
19 *11:16 *1641:A2 0.000244956
20 *11:16 *1697:D 0.00178774
21 *11:16 *1706:D 5.7063e-05
22 *11:16 *1801:I 0
23 *11:16 *1808:I 2.38656e-05
24 *11:16 *142:99 2.88595e-06
25 *11:16 *219:28 3.45498e-05
26 *11:16 *458:12 0.000865228
27 *11:16 *556:69 0.00102115
*RES
1 *1801:Z *11:16 29.96 
2 *11:16 CYC_O 24.0686 
*END

*D_NET *12 0.00736727
*CONN
*P DAT_I[0] I
*I *1783:I I *D gf180mcu_fd_sc_mcu7t5v0__dlyb_1
*CAP
1 DAT_I[0] 0.00180775
2 *1783:I 0.00180775
3 *1783:I *1346:A4 0.000124934
4 *1783:I *1347:B 4.75672e-06
5 *1783:I *1422:B 0.00182452
6 *1783:I *1644:A1 1.26329e-05
7 *1783:I *1644:B 0.000121039
8 *1783:I *1689:D 2.23162e-05
9 *1783:I *1690:D 9.49286e-05
10 *1783:I *1699:D 0.0001541
11 *1783:I *1784:I 0
12 *1783:I *1795:I 0.000699415
13 *1783:I *1798:I 7.79073e-05
14 *1783:I *476:38 0
15 ADDR_O[5] *1783:I 0.00061521
16 ADDR_O[7] *1783:I 0
*RES
1 DAT_I[0] *1783:I 26.3086 
*END

*D_NET *13 0.00641722
*CONN
*P DAT_I[1] I
*I *1784:I I *D gf180mcu_fd_sc_mcu7t5v0__dlyb_1
*CAP
1 DAT_I[1] 0.00081241
2 *1784:I 0.00081241
3 *1784:I *1347:B 0.00129422
4 *1784:I *1420:A2 0.000272942
5 *1784:I *1744:I 3.69552e-05
6 *1784:I *1785:I 0.00244331
7 *1784:I *193:16 0.000744967
8 *1783:I *1784:I 0
*RES
1 DAT_I[1] *1784:I 24.8526 
*END

*D_NET *14 0.00791532
*CONN
*P DAT_I[2] I
*I *1785:I I *D gf180mcu_fd_sc_mcu7t5v0__dlyb_1
*CAP
1 DAT_I[2] 0.00148449
2 *1785:I 0.00148449
3 *1785:I *1347:B 0.000317313
4 *1785:I *1382:A3 0.000559321
5 *1785:I *1440:A2 0.000173842
6 *1785:I *1786:I 0
7 *1785:I *193:16 0.000176862
8 *1785:I *203:18 3.10787e-05
9 *1785:I *219:28 0.000141118
10 *1785:I *504:10 0.00013779
11 *1785:I *504:26 0.000965704
12 *1784:I *1785:I 0.00244331
*RES
1 DAT_I[2] *1785:I 31.2857 
*END

*D_NET *15 0.00646933
*CONN
*P DAT_I[3] I
*I *1786:I I *D gf180mcu_fd_sc_mcu7t5v0__dlyb_1
*CAP
1 DAT_I[3] 0.00142958
2 *1786:I 0.00142958
3 *1786:I *1361:A4 0.000130114
4 *1786:I *1420:A2 0.000100856
5 *1786:I *1744:I 0.000183288
6 *1786:I *1787:I 0
7 *1786:I *140:101 0.000757707
8 *1786:I *140:125 0
9 *1786:I *491:70 0.000196333
10 *1786:I *491:83 0.000150852
11 *1786:I *577:94 0.00209102
12 *1785:I *1786:I 0
*RES
1 DAT_I[3] *1786:I 25.4766 
*END

*D_NET *16 0.00924906
*CONN
*P DAT_I[4] I
*I *1787:I I *D gf180mcu_fd_sc_mcu7t5v0__dlyb_1
*CAP
1 DAT_I[4] 0.00092035
2 *1787:I 0.00092035
3 *1787:I *1342:C 0.00138632
4 *1787:I *1361:A4 0.00111912
5 *1787:I *1420:A2 0.000557671
6 *1787:I *1728:D 0.000125251
7 *1787:I *1744:I 1.90945e-05
8 *1787:I *1788:I 0
9 *1787:I *225:10 0.00420091
10 *1786:I *1787:I 0
*RES
1 DAT_I[4] *1787:I 25.6846 
*END

*D_NET *17 0.00756485
*CONN
*P DAT_I[5] I
*I *1788:I I *D gf180mcu_fd_sc_mcu7t5v0__dlyb_1
*CAP
1 DAT_I[5] 0.00143431
2 *1788:I 0.00143431
3 *1788:I *1325:A1 3.4596e-05
4 *1788:I *1325:A2 4.3925e-05
5 *1788:I *1376:B2 1.20913e-05
6 *1788:I *1377:A4 0.000322702
7 *1788:I *1420:A2 3.89795e-05
8 *1788:I *1627:A1 1.41447e-05
9 *1788:I *1627:A3 2.96915e-06
10 *1788:I *1628:A1 4.42925e-05
11 *1788:I *1628:B1 4.05503e-05
12 *1788:I *1628:B2 0.00147846
13 *1788:I *1744:I 5.87804e-05
14 *1788:I *1789:I 0
15 *1788:I *1802:I 0.00243486
16 *1788:I *225:10 0
17 *1788:I *578:143 0.000169864
18 *1787:I *1788:I 0
*RES
1 DAT_I[5] *1788:I 35.1006 
*END

*D_NET *18 0.00983402
*CONN
*P DAT_I[6] I
*I *1789:I I *D gf180mcu_fd_sc_mcu7t5v0__dlyb_1
*CAP
1 DAT_I[6] 0.00198539
2 *1789:I 0.00198539
3 *1789:I DAT_O[0] 0.000784678
4 *1789:I *1355:A2 0.000269899
5 *1789:I *1355:B1 5.17344e-05
6 *1789:I *1356:A4 0.000406972
7 *1789:I *1357:A2 0.00116599
8 *1789:I *1357:B 4.44654e-05
9 *1789:I *1376:B2 0.000161875
10 *1789:I *1377:A4 0.00021913
11 *1789:I *1406:A4 2.05998e-05
12 *1789:I *1627:A1 4.07904e-05
13 *1789:I *1630:A1 0.000115129
14 *1789:I *1691:D 0.000341949
15 *1789:I *1712:D 0
16 *1789:I *1762:I 6.48755e-05
17 *1789:I *1790:I 0
18 *1789:I *193:10 0.0015812
19 *1789:I *471:72 5.90946e-05
20 *1789:I *491:49 2.76356e-05
21 *1789:I *505:12 0.000131395
22 *1789:I *578:43 6.23859e-05
23 *1789:I *578:143 0.000313445
24 *1788:I *1789:I 0
*RES
1 DAT_I[6] *1789:I 30.8846 
*END

*D_NET *19 0.00794779
*CONN
*P DAT_I[7] I
*I *1790:I I *D gf180mcu_fd_sc_mcu7t5v0__dlyb_1
*CAP
1 DAT_I[7] 0.00160977
2 *1790:I 0.00160977
3 *1790:I DAT_O[0] 0
4 *1790:I *1342:C 9.36355e-05
5 *1790:I *1352:A2 8.22757e-05
6 *1790:I *1353:I0 4.75672e-06
7 *1790:I *1358:I1 0.00141294
8 *1790:I *1358:S 8.39135e-05
9 *1790:I *1428:A1 0
10 *1790:I *1627:A3 0.000140219
11 *1790:I *1628:B1 2.01905e-05
12 *1790:I *1628:B2 0.000316705
13 *1790:I *1629:A2 5.36452e-06
14 *1790:I *1630:A1 0.000429753
15 *1790:I *1691:D 0.000212952
16 *1790:I *1712:D 0.000111623
17 *1790:I *1769:I 1.63784e-05
18 *1790:I *1775:I 0.000926244
19 *1790:I *222:28 0.00028809
20 *1790:I *425:53 0
21 *1790:I *492:435 2.24654e-05
22 *1790:I *580:10 0.000560747
23 *1789:I *1790:I 0
*RES
1 DAT_I[7] *1790:I 26.5166 
*END

*D_NET *20 0.011832
*CONN
*P DAT_O[0] O
*I *1802:Z O *D gf180mcu_fd_sc_mcu7t5v0__dlyb_1
*CAP
1 DAT_O[0] 0.00165941
2 *1802:Z 0.00165941
3 DAT_O[0] DAT_O[1] 0
4 DAT_O[0] *1352:A2 5.31867e-05
5 DAT_O[0] *1353:I0 0.0020856
6 DAT_O[0] *1355:A2 0.000449482
7 DAT_O[0] *1356:A4 0
8 DAT_O[0] *1373:B 1.79557e-05
9 DAT_O[0] *1477:I0 0.00042389
10 DAT_O[0] *1477:I1 0.000347643
11 DAT_O[0] *1521:S 0.000188281
12 DAT_O[0] *1692:D 2.47495e-05
13 DAT_O[0] *1693:D 0.00251059
14 DAT_O[0] *1775:I 0.000127568
15 DAT_O[0] *140:16 2.36218e-05
16 DAT_O[0] *140:22 5.42311e-05
17 DAT_O[0] *425:96 6.53541e-05
18 DAT_O[0] *488:109 0.00124314
19 DAT_O[0] *491:49 0.000113236
20 *1789:I DAT_O[0] 0.000784678
21 *1790:I DAT_O[0] 0
*RES
1 *1802:Z DAT_O[0] 31.8206 
*END

*D_NET *21 0.00550047
*CONN
*P DAT_O[1] O
*I *1803:Z O *D gf180mcu_fd_sc_mcu7t5v0__dlyb_1
*CAP
1 DAT_O[1] 0.00113857
2 *1803:Z 0.00113857
3 DAT_O[1] DAT_O[2] 0
4 DAT_O[1] *1352:A1 0.000550006
5 DAT_O[1] *1376:B2 0
6 DAT_O[1] *1630:A1 0
7 DAT_O[1] *1631:A1 9.76253e-05
8 DAT_O[1] *1634:A1 0.00197908
9 DAT_O[1] *1692:D 6.75705e-05
10 DAT_O[1] *425:96 5.08075e-05
11 DAT_O[1] *434:10 0.000478241
12 DAT_O[0] DAT_O[1] 0
*RES
1 *1803:Z DAT_O[1] 20.0686 
*END

*D_NET *22 0.00513609
*CONN
*P DAT_O[2] O
*I *1804:Z O *D gf180mcu_fd_sc_mcu7t5v0__dlyb_1
*CAP
1 DAT_O[2] 0.000834865
2 *1804:Z 0.000834865
3 DAT_O[2] DAT_O[3] 0
4 DAT_O[2] *1376:B1 0.00138212
5 DAT_O[2] *1376:B2 0.00168254
6 DAT_O[2] *1634:A1 9.41658e-05
7 DAT_O[2] *434:10 0
8 DAT_O[2] *479:151 0.000205688
9 DAT_O[2] *492:465 0.000101836
10 DAT_O[1] DAT_O[2] 0
*RES
1 *1804:Z DAT_O[2] 19.2366 
*END

*D_NET *23 0.0119552
*CONN
*P DAT_O[3] O
*I *1805:Z O *D gf180mcu_fd_sc_mcu7t5v0__dlyb_1
*CAP
1 DAT_O[3] 0.00296561
2 *1805:Z 0.00296561
3 DAT_O[3] DAT_O[4] 0
4 DAT_O[3] *1366:A1 6.91919e-05
5 DAT_O[3] *1366:C 0
6 DAT_O[3] *1369:A2 0.000208806
7 DAT_O[3] *1634:B2 0.000690953
8 DAT_O[3] *1714:D 0.000749715
9 DAT_O[3] *1745:I 0.00029051
10 DAT_O[3] *1753:I 0.000302285
11 DAT_O[3] *1805:I 1.49202e-05
12 DAT_O[3] *1810:I 1.36398e-06
13 DAT_O[3] *141:120 1.95539e-05
14 DAT_O[3] *208:54 0.000310749
15 DAT_O[3] *208:73 0.000930608
16 DAT_O[3] *208:77 0.000180928
17 DAT_O[3] *208:96 0.000170911
18 DAT_O[3] *434:61 0.000283521
19 DAT_O[3] *478:40 6.98206e-05
20 DAT_O[3] *479:32 5.57549e-06
21 DAT_O[3] *479:151 2.35045e-05
22 DAT_O[3] *491:30 0.000450162
23 DAT_O[3] *508:8 0.000324952
24 DAT_O[3] *519:29 0.000106877
25 DAT_O[3] *558:48 1.76416e-05
26 DAT_O[3] *558:54 0.000604992
27 DAT_O[3] *559:28 1.42358e-05
28 DAT_O[3] *578:102 0.000182208
29 DAT_O[2] DAT_O[3] 0
*RES
1 *1805:Z DAT_O[3] 39.9326 
*END

*D_NET *24 0.00843474
*CONN
*P DAT_O[4] O
*I *1806:Z O *D gf180mcu_fd_sc_mcu7t5v0__dlyb_1
*CAP
1 DAT_O[4] 0.00170044
2 *1806:Z 0.00170044
3 DAT_O[4] DAT_O[5] 0
4 DAT_O[4] *1376:A2 0.000103555
5 DAT_O[4] *1378:A1 0.000225159
6 DAT_O[4] *1526:S 0.000853491
7 DAT_O[4] *1635:A1 4.49307e-05
8 DAT_O[4] *1659:D 6.29232e-05
9 DAT_O[4] *1694:D 0.00234597
10 DAT_O[4] *1716:D 1.53227e-05
11 DAT_O[4] *479:32 6.46802e-05
12 DAT_O[4] *508:8 0.000423391
13 DAT_O[4] *559:12 0.000894438
14 DAT_O[3] DAT_O[4] 0
*RES
1 *1806:Z DAT_O[4] 27.2446 
*END

*D_NET *25 0.00756745
*CONN
*P DAT_O[5] O
*I *1807:Z O *D gf180mcu_fd_sc_mcu7t5v0__dlyb_1
*CAP
1 DAT_O[5] 0.00167495
2 *1807:Z 0.00167495
3 DAT_O[5] DAT_O[6] 0
4 DAT_O[5] *1378:A1 0.000452628
5 DAT_O[5] *1379:I0 0.000806893
6 DAT_O[5] *1478:S1 3.20587e-05
7 DAT_O[5] *1635:A2 0.00130411
8 DAT_O[5] *1695:D 5.52632e-05
9 DAT_O[5] *1745:I 0.000311307
10 DAT_O[5] *1770:I 2.20593e-05
11 DAT_O[5] *556:14 0.00123322
12 DAT_O[4] DAT_O[5] 0
*RES
1 *1807:Z DAT_O[5] 28.3886 
*END

*D_NET *26 0.0173101
*CONN
*P DAT_O[6] O
*I *1808:Z O *D gf180mcu_fd_sc_mcu7t5v0__dlyb_1
*CAP
1 DAT_O[6] 0.00276112
2 *1808:Z 0.00276112
3 DAT_O[6] DAT_O[7] 0
4 DAT_O[6] STB_O 0.000188354
5 DAT_O[6] *1312:A1 0.000331109
6 DAT_O[6] *1312:A3 0.00107488
7 DAT_O[6] *1359:A1 0.00028918
8 DAT_O[6] *1364:A2 9.3131e-05
9 DAT_O[6] *1635:A2 2.09309e-05
10 DAT_O[6] *1695:D 0.00308899
11 DAT_O[6] *1707:CLK 1.73875e-05
12 DAT_O[6] *1708:D 0.000281453
13 DAT_O[6] *1771:I 0.00283722
14 DAT_O[6] *1805:I 0.00202206
15 DAT_O[6] *439:22 0.000667149
16 DAT_O[6] *491:30 0
17 DAT_O[6] *556:69 7.55588e-05
18 DAT_O[6] *574:10 0.000800455
19 DAT_O[5] DAT_O[6] 0
*RES
1 *1808:Z DAT_O[6] 44.5086 
*END

*D_NET *27 0.0147136
*CONN
*P DAT_O[7] O
*I *1809:Z O *D gf180mcu_fd_sc_mcu7t5v0__dlyb_1
*CAP
1 DAT_O[7] 0.00268689
2 *1809:Z 0.00268689
3 DAT_O[7] STB_O 2.50554e-05
4 DAT_O[7] *1362:A2 0.00047173
5 DAT_O[7] *1370:A2 0.000339318
6 DAT_O[7] *1373:A2 0.000122017
7 DAT_O[7] *1373:B 0.00011181
8 DAT_O[7] *1374:I0 0.000121332
9 DAT_O[7] *1375:A1 1.02418e-05
10 DAT_O[7] *1375:A2 0.000978179
11 DAT_O[7] *1378:A1 0
12 DAT_O[7] *1478:I3 0.000437384
13 DAT_O[7] *1636:A1 0.00239021
14 DAT_O[7] *1638:A1 0
15 DAT_O[7] *1768:I 0.00224383
16 DAT_O[7] *1774:I 0.00122703
17 DAT_O[7] *1810:I 2.72796e-06
18 DAT_O[7] *479:80 0.000351666
19 DAT_O[7] *510:10 0.000344177
20 DAT_O[7] *519:29 0.00016315
21 CYC_O DAT_O[7] 0
22 DAT_O[6] DAT_O[7] 0
*RES
1 *1809:Z DAT_O[7] 39.6206 
*END

*D_NET *29 0.00748343
*CONN
*P RST_I I
*I *1780:I I *D gf180mcu_fd_sc_mcu7t5v0__dlyb_1
*CAP
1 RST_I 0.000952665
2 *1780:I 0.000952665
3 *1780:I *1614:A2 0.000236982
4 *1780:I *1616:A2 0.000165591
5 *1780:I *1620:A2 6.88053e-05
6 *1780:I *1683:D 0.00276268
7 *1780:I *1685:CLK 0.000118797
8 *1780:I *1686:D 0.000368907
9 *1780:I *1793:I 0.000113146
10 *1780:I *477:55 0.000410466
11 *1780:I *492:23 0.000819201
12 *1780:I *497:12 0.000513523
13 ADDR_O[0] *1780:I 0
14 *10:18 *1780:I 0
*RES
1 RST_I *1780:I 25.4766 
*END

*D_NET *31 0.0119425
*CONN
*P STB_O O
*I *1810:Z O *D gf180mcu_fd_sc_mcu7t5v0__dlyb_1
*CAP
1 STB_O 0.00163554
2 *1810:Z 0.00163554
3 STB_O WE_O 0
4 STB_O *1636:A1 7.49243e-05
5 STB_O *1636:B2 0.00140246
6 STB_O *1695:CLK 0.000479251
7 STB_O *1771:I 0.000285685
8 STB_O *1805:I 0.000828957
9 STB_O *425:118 0.000175765
10 STB_O *425:133 0.000224849
11 STB_O *439:22 0.000371962
12 STB_O *478:10 0.00137208
13 STB_O *478:12 0.000654093
14 STB_O *509:14 0.00250463
15 CYC_O STB_O 8.33966e-05
16 DAT_O[6] STB_O 0.000188354
17 DAT_O[7] STB_O 2.50554e-05
*RES
1 *1810:Z STB_O 42.4846 
*END

*D_NET *34 0.00375079
*CONN
*P WE_O O
*I *1811:Z O *D gf180mcu_fd_sc_mcu7t5v0__dlyb_1
*CAP
1 WE_O 0.000563592
2 *1811:Z 0.000563592
3 WE_O *1639:A2 0.000966936
4 WE_O *1643:A1 2.62781e-05
5 WE_O *1646:A1 0.000535742
6 WE_O *1811:I 0.00108918
7 WE_O *492:465 5.47431e-06
8 STB_O WE_O 0
9 *1779:I WE_O 0
*RES
1 *1811:Z WE_O 16.5326 
*END

*D_NET *35 0.00118732
*CONN
*P i2c_scl_in I
*I *1781:I I *D gf180mcu_fd_sc_mcu7t5v0__dlyb_1
*CAP
1 i2c_scl_in 0.000593659
2 *1781:I 0.000593659
*RES
1 i2c_scl_in *1781:I 13.524 
*END

*D_NET *36 0.00265871
*CONN
*P i2c_sda_in I
*I *1782:I I *D gf180mcu_fd_sc_mcu7t5v0__dlyb_1
*CAP
1 i2c_sda_in 0.000645978
2 *1782:I 0.000645978
3 *1782:I *1566:A2 2.36218e-05
4 *1782:I *1735:D 5.29054e-05
5 *1782:I *472:47 0.000116476
6 *1782:I *472:56 0.000500772
7 *1782:I *472:63 0.00067298
*RES
1 i2c_sda_in *1782:I 16.02 
*END

*D_NET *37 0.00117489
*CONN
*P i2c_sda_out_pin_ctrl O
*I *1812:Z O *D gf180mcu_fd_sc_mcu7t5v0__dlyb_1
*CAP
1 i2c_sda_out_pin_ctrl 0.000507685
2 *1812:Z 0.000507685
3 i2c_sda_out_pin_ctrl *485:62 0.000159517
*RES
1 *1812:Z i2c_sda_out_pin_ctrl 13.42 
*END

*D_NET *38 0.0012377
*CONN
*P i2c_sda_out_pin_ctrl_n O
*I *1813:Z O *D gf180mcu_fd_sc_mcu7t5v0__dlyb_1
*CAP
1 i2c_sda_out_pin_ctrl_n 0.000518868
2 *1813:Z 0.000518868
3 i2c_sda_out_pin_ctrl_n *516:8 0.000199966
*RES
1 *1813:Z i2c_sda_out_pin_ctrl_n 13.628 
*END

*D_NET *39 0.000299494
*CONN
*I *1732:D I *D gf180mcu_fd_sc_mcu7t5v0__dffq_1
*I *1274:Z O *D gf180mcu_fd_sc_mcu7t5v0__and2_1
*CAP
1 *1732:D 0.000149747
2 *1274:Z 0.000149747
3 *1732:D *563:34 0
*RES
1 *1274:Z *1732:D 9.936 
*END

*D_NET *40 0.000353009
*CONN
*I *1731:D I *D gf180mcu_fd_sc_mcu7t5v0__dffq_1
*I *1273:ZN O *D gf180mcu_fd_sc_mcu7t5v0__nor2_1
*CAP
1 *1731:D 0.000143458
2 *1273:ZN 0.000143458
3 *1731:D *1608:A2 4.22072e-05
4 *1731:D *1681:D 5.47431e-06
5 *1731:D *522:14 1.84122e-05
*RES
1 *1273:ZN *1731:D 10.144 
*END

*D_NET *41 0.00132974
*CONN
*I *1703:D I *D gf180mcu_fd_sc_mcu7t5v0__dffq_1
*I *1289:ZN O *D gf180mcu_fd_sc_mcu7t5v0__aoi21_1
*CAP
1 *1703:D 0.000190836
2 *1289:ZN 0.000190836
3 *1703:D *1703:CLK 3.45552e-05
4 *1703:D *132:21 0.000913509
*RES
1 *1289:ZN *1703:D 20.392 
*END

*D_NET *42 0.00313339
*CONN
*I *1704:D I *D gf180mcu_fd_sc_mcu7t5v0__dffq_1
*I *1292:ZN O *D gf180mcu_fd_sc_mcu7t5v0__nand3_1
*CAP
1 *1704:D 0.00033867
2 *1292:ZN 0.00033867
3 *1704:D *1354:A1 0.000991153
4 *1704:D *1363:I0 4.52895e-05
5 *1704:D *1364:A2 2.9802e-06
6 *1704:D *1647:A2 0.000142244
7 *1704:D *1700:D 0.000400694
8 *1704:D *142:99 0.000185295
9 *1704:D *180:44 0.000522341
10 *1704:D *458:12 0.000166051
*RES
1 *1292:ZN *1704:D 23.408 
*END

*D_NET *43 0.0016643
*CONN
*I *1705:D I *D gf180mcu_fd_sc_mcu7t5v0__dffq_1
*I *1294:ZN O *D gf180mcu_fd_sc_mcu7t5v0__aoi21_1
*CAP
1 *1705:D 0.000104712
2 *1294:ZN 0.000104712
3 *1705:D *1294:A2 8.16884e-06
4 *1705:D *1294:B 0.000531148
5 *1705:D *1523:A1 0.000394679
6 *1705:D *459:33 0.000441953
7 *1705:D *461:12 7.89266e-05
*RES
1 *1294:ZN *1705:D 20.496 
*END

*D_NET *44 0.000522125
*CONN
*I *1706:D I *D gf180mcu_fd_sc_mcu7t5v0__dffq_1
*I *1297:ZN O *D gf180mcu_fd_sc_mcu7t5v0__nand3_1
*CAP
1 *1706:D 0.00019395
2 *1297:ZN 0.00019395
3 *1706:D *1297:A2 5.52609e-05
4 *1706:D *1299:A2 2.19015e-05
5 *11:16 *1706:D 5.7063e-05
*RES
1 *1297:ZN *1706:D 10.144 
*END

*D_NET *45 0.00226743
*CONN
*I *1707:D I *D gf180mcu_fd_sc_mcu7t5v0__dffq_1
*I *1300:ZN O *D gf180mcu_fd_sc_mcu7t5v0__nor2_1
*CAP
1 *1707:D 0.000391702
2 *1300:ZN 0.000391702
3 *1707:D *1298:A1 0.000182219
4 *1707:D *1300:A1 0.000115061
5 *1707:D *142:25 0.000438808
6 *1707:D *142:50 5.12394e-05
7 *1707:D *219:28 0.000666461
8 *1707:D *504:46 3.02379e-05
*RES
1 *1300:ZN *1707:D 22.472 
*END

*D_NET *46 0.00125346
*CONN
*I *1708:D I *D gf180mcu_fd_sc_mcu7t5v0__dffq_1
*I *1303:ZN O *D gf180mcu_fd_sc_mcu7t5v0__nand3_1
*CAP
1 *1708:D 0.000352902
2 *1303:ZN 0.000352902
3 *1708:D *1359:A1 4.07478e-05
4 *1708:D *180:27 0.000204967
5 *1708:D *491:30 2.04848e-05
6 DAT_O[6] *1708:D 0.000281453
*RES
1 *1303:ZN *1708:D 11.912 
*END

*D_NET *47 0.00270726
*CONN
*I *1709:D I *D gf180mcu_fd_sc_mcu7t5v0__dffq_1
*I *1343:ZN O *D gf180mcu_fd_sc_mcu7t5v0__aoi22_1
*CAP
1 *1709:D 0.000576094
2 *1343:ZN 0.000576094
3 *1709:D *1343:A1 0.000127862
4 *1709:D *1343:A2 0.000178101
5 *1709:D *1368:A2 7.22185e-06
6 *1709:D *1369:A1 0.000287695
7 *1709:D *1402:A4 2.00339e-05
8 *1709:D *1415:A2 0.000436945
9 *1709:D *190:10 2.62558e-05
10 *1709:D *208:14 3.57108e-05
11 *1709:D *491:34 0.000338455
12 *1709:D *492:251 9.67916e-05
*RES
1 *1343:ZN *1709:D 32.304 
*END

*D_NET *48 0.00179219
*CONN
*I *1710:D I *D gf180mcu_fd_sc_mcu7t5v0__dffq_1
*I *1348:Z O *D gf180mcu_fd_sc_mcu7t5v0__mux2_2
*CAP
1 *1710:D 0.0002726
2 *1348:Z 0.0002726
3 *1710:D *1315:A1 1.23478e-05
4 *1710:D *1369:A1 7.05505e-05
5 *1710:D *1479:A2 0.000727415
6 *1710:D *1710:CLK 3.61986e-05
7 *1710:D *176:41 0.000122244
8 *1710:D *323:30 0
9 *1710:D *491:30 4.18042e-05
10 *1710:D *519:6 0.000236426
*RES
1 *1348:Z *1710:D 21.016 
*END

*D_NET *49 0.00270538
*CONN
*I *1711:D I *D gf180mcu_fd_sc_mcu7t5v0__dffq_1
*I *1353:Z O *D gf180mcu_fd_sc_mcu7t5v0__mux2_2
*CAP
1 *1711:D 0.000643928
2 *1353:Z 0.000643928
3 *1711:D *1353:I1 8.52105e-06
4 *1711:D *1479:A2 1.24065e-05
5 *1711:D *1745:I 4.07689e-05
6 *1711:D *1770:I 1.04928e-05
7 *1711:D *471:86 6.90347e-05
8 *1711:D *554:34 0.00101294
9 *1711:D *555:8 0
10 *1711:D *555:12 0
11 *1711:D *560:58 0.000263358
*RES
1 *1353:Z *1711:D 23.2 
*END

*D_NET *50 0.00343698
*CONN
*I *1712:D I *D gf180mcu_fd_sc_mcu7t5v0__dffq_1
*I *1358:Z O *D gf180mcu_fd_sc_mcu7t5v0__mux2_2
*CAP
1 *1712:D 0.00085174
2 *1358:Z 0.00085174
3 *1712:D *1352:A2 0.000487889
4 *1712:D *1353:I1 6.96716e-05
5 *1712:D *1358:I1 0.000344522
6 *1712:D *1691:D 0
7 *1712:D *1762:I 4.54605e-05
8 *1712:D *1769:I 0.000468609
9 *1712:D *1772:I 9.48799e-05
10 *1712:D *1775:I 2.39156e-06
11 *1712:D *492:435 0.000108453
12 *1789:I *1712:D 0
13 *1790:I *1712:D 0.000111623
*RES
1 *1358:Z *1712:D 25.696 
*END

*D_NET *51 0.00270083
*CONN
*I *1713:D I *D gf180mcu_fd_sc_mcu7t5v0__dffq_1
*I *1363:Z O *D gf180mcu_fd_sc_mcu7t5v0__mux2_2
*CAP
1 *1713:D 0.00061013
2 *1363:Z 0.00061013
3 *1713:D *1362:A2 0.000410048
4 *1713:D *1363:I1 0.000163183
5 *1713:D *1370:A2 0
6 *1713:D *1764:I 0.000478241
7 *1713:D *1768:I 0.000125141
8 *1713:D *461:10 0
9 *1713:D *519:29 0.000197519
10 CYC_O *1713:D 0.000106439
*RES
1 *1363:Z *1713:D 23.2 
*END

*D_NET *52 0.0020731
*CONN
*I *1714:D I *D gf180mcu_fd_sc_mcu7t5v0__dffq_1
*I *1369:ZN O *D gf180mcu_fd_sc_mcu7t5v0__aoi22_1
*CAP
1 *1714:D 0.000333091
2 *1369:ZN 0.000333091
3 *1714:D *1270:I 0
4 *1714:D *1362:A1 8.16769e-05
5 *1714:D *1366:A2 5.63044e-06
6 *1714:D *1366:C 1.53331e-05
7 *1714:D *1369:A2 0.000408707
8 *1714:D *141:120 2.96383e-05
9 *1714:D *557:12 0.000116218
10 DAT_O[3] *1714:D 0.000749715
*RES
1 *1369:ZN *1714:D 22.056 
*END

*D_NET *53 0.00429809
*CONN
*I *1715:D I *D gf180mcu_fd_sc_mcu7t5v0__dffq_1
*I *1374:Z O *D gf180mcu_fd_sc_mcu7t5v0__mux2_2
*CAP
1 *1715:D 0.000141901
2 *1374:Z 0.000141901
3 *1715:D *1522:S 0.000325466
4 *1715:D *1638:A1 0.00178819
5 *1715:D *510:10 0.00178819
6 *1715:D *558:48 0.000112449
*RES
1 *1374:Z *1715:D 23.616 
*END

*D_NET *54 0.000795977
*CONN
*I *1716:D I *D gf180mcu_fd_sc_mcu7t5v0__dffq_1
*I *1379:Z O *D gf180mcu_fd_sc_mcu7t5v0__mux2_2
*CAP
1 *1716:D 0.000237519
2 *1379:Z 0.000237519
3 *1716:D *1659:D 0.000305617
4 DAT_O[4] *1716:D 1.53227e-05
*RES
1 *1379:Z *1716:D 10.872 
*END

*D_NET *55 0.000995168
*CONN
*I *1717:D I *D gf180mcu_fd_sc_mcu7t5v0__dffq_1
*I *1395:ZN O *D gf180mcu_fd_sc_mcu7t5v0__oai221_1
*CAP
1 *1717:D 0.000454756
2 *1395:ZN 0.000454756
3 *1717:D *1717:CLK 0
4 *1717:D *1718:D 6.7245e-05
5 *1717:D *1777:I 0
6 *1717:D *448:14 1.84122e-05
*RES
1 *1395:ZN *1717:D 12.432 
*END

*D_NET *56 0.0019366
*CONN
*I *1718:D I *D gf180mcu_fd_sc_mcu7t5v0__dffq_1
*I *1398:ZN O *D gf180mcu_fd_sc_mcu7t5v0__oai221_1
*CAP
1 *1718:D 0.000403637
2 *1398:ZN 0.000403637
3 *1718:D *1251:I 0
4 *1718:D *1395:A2 5.16537e-05
5 *1718:D *1395:B1 3.6012e-05
6 *1718:D *1395:B2 0.000145619
7 *1718:D *1395:C 0.000122244
8 *1718:D *1398:A2 0.000706556
9 *1718:D *128:29 0
10 *1718:D *448:27 0
11 *1717:D *1718:D 6.7245e-05
*RES
1 *1398:ZN *1718:D 13.368 
*END

*D_NET *57 0.0019305
*CONN
*I *1719:D I *D gf180mcu_fd_sc_mcu7t5v0__dffq_1
*I *1403:ZN O *D gf180mcu_fd_sc_mcu7t5v0__aoi211_1
*CAP
1 *1719:D 0.000512672
2 *1403:ZN 0.000512672
3 *1719:D *1305:A1 1.19584e-05
4 *1719:D *1399:A2 0.000137866
5 *1719:D *1400:A1 5.34458e-06
6 *1719:D *1401:A1 0.000236002
7 *1719:D *1403:A1 3.4596e-05
8 *1719:D *205:38 4.89441e-05
9 *1719:D *248:10 0.000128149
10 *1719:D *250:40 0.000302296
*RES
1 *1403:ZN *1719:D 22.368 
*END

*D_NET *58 0.00156615
*CONN
*I *1720:D I *D gf180mcu_fd_sc_mcu7t5v0__dffq_1
*I *1407:ZN O *D gf180mcu_fd_sc_mcu7t5v0__aoi211_1
*CAP
1 *1720:D 0.00048406
2 *1407:ZN 0.00048406
3 *1720:D *1614:A2 2.04932e-06
4 *1720:D *1686:D 0.000145442
5 *1720:D *1720:CLK 0.000161207
6 *1720:D *1721:D 0
7 *10:18 *1720:D 0.000289333
*RES
1 *1407:ZN *1720:D 22.264 
*END

*D_NET *59 0.00124785
*CONN
*I *1721:D I *D gf180mcu_fd_sc_mcu7t5v0__dffq_1
*I *1412:ZN O *D gf180mcu_fd_sc_mcu7t5v0__oai32_1
*CAP
1 *1721:D 0.00036987
2 *1412:ZN 0.00036987
3 *1721:D *1407:A2 0.000162538
4 *1721:D *1614:A1 0
5 *1721:D *1618:A2 0.000345571
6 *1720:D *1721:D 0
*RES
1 *1412:ZN *1721:D 12.432 
*END

*D_NET *60 0.00211304
*CONN
*I *1722:D I *D gf180mcu_fd_sc_mcu7t5v0__dffq_1
*I *1417:ZN O *D gf180mcu_fd_sc_mcu7t5v0__aoi22_1
*CAP
1 *1722:D 0.000165598
2 *1417:ZN 0.000165598
3 *1722:D *1421:A2 0.000218554
4 *1722:D *1617:A2 0
5 *1722:D *1722:CLK 0.000476422
6 *1722:D *1797:I 1.606e-06
7 *1722:D *262:20 2.30716e-05
8 *1722:D *452:14 0.000951689
9 *1722:D *476:67 0.0001105
*RES
1 *1417:ZN *1722:D 21.328 
*END

*D_NET *61 0.00281978
*CONN
*I *1723:D I *D gf180mcu_fd_sc_mcu7t5v0__dffq_1
*I *1422:ZN O *D gf180mcu_fd_sc_mcu7t5v0__aoi21_1
*CAP
1 *1723:D 0.000473986
2 *1422:ZN 0.000473986
3 *1723:D *1421:A1 1.07369e-05
4 *1723:D *1422:A1 3.11243e-05
5 *1723:D *1422:B 6.95257e-05
6 *1723:D *1426:A1 0.000314845
7 *1723:D *1622:A2 0.000330729
8 *1723:D *1688:D 0.000988214
9 *1723:D *1689:D 3.4596e-05
10 *1723:D *1723:CLK 1.97706e-05
11 *1723:D *425:172 2.81522e-06
12 *1723:D *425:196 0
13 *1723:D *500:12 4.18157e-05
14 ADDR_O[4] *1723:D 2.76367e-05
*RES
1 *1422:ZN *1723:D 23.304 
*END

*D_NET *62 0.000861012
*CONN
*I *1724:D I *D gf180mcu_fd_sc_mcu7t5v0__dffq_1
*I *1426:ZN O *D gf180mcu_fd_sc_mcu7t5v0__nor2_1
*CAP
1 *1724:D 0.000164554
2 *1426:ZN 0.000164554
3 *1724:D *1422:A1 0.000191664
4 *1724:D *1426:A1 6.32895e-05
5 *1724:D *1623:A1 2.91884e-05
6 *1724:D *425:29 0.000247762
7 *1724:D *425:38 0
*RES
1 *1426:ZN *1724:D 10.872 
*END

*D_NET *63 0.00365136
*CONN
*I *1725:D I *D gf180mcu_fd_sc_mcu7t5v0__dffq_1
*I *1434:ZN O *D gf180mcu_fd_sc_mcu7t5v0__oai32_1
*CAP
1 *1725:D 0.000970323
2 *1434:ZN 0.000970323
3 *1725:D *1267:I 0.000179186
4 *1725:D *1331:A2 8.25894e-05
5 *1725:D *1383:A4 0
6 *1725:D *1434:A1 6.06951e-05
7 *1725:D *1434:A3 0.000143493
8 *1725:D *1541:I1 3.6012e-05
9 *1725:D *1661:D 0.000717003
10 *1725:D *361:20 0.000191459
11 *1725:D *471:19 0.000187253
12 *1725:D *473:12 0.000113027
13 *1725:D *561:23 0
14 *1725:D *561:29 0
*RES
1 *1434:ZN *1725:D 26.736 
*END

*D_NET *64 0.00254949
*CONN
*I *1726:D I *D gf180mcu_fd_sc_mcu7t5v0__dffq_1
*I *1436:ZN O *D gf180mcu_fd_sc_mcu7t5v0__oai33_1
*CAP
1 *1726:D 0.00066976
2 *1436:ZN 0.00066976
3 *1726:D *1434:A2 0.000894798
4 *1726:D *1436:B2 2.76472e-05
5 *1726:D *1729:D 0
6 *1726:D *129:10 0
7 *1726:D *142:147 0.000281172
8 *1726:D *154:22 6.35093e-06
*RES
1 *1436:ZN *1726:D 23.72 
*END

*D_NET *65 0.00348097
*CONN
*I *1727:D I *D gf180mcu_fd_sc_mcu7t5v0__dffq_1
*I *1438:ZN O *D gf180mcu_fd_sc_mcu7t5v0__aoi211_1
*CAP
1 *1727:D 0.000290155
2 *1438:ZN 0.000290155
3 *1727:D *504:26 0.000777959
4 *1727:D *579:12 0.0021227
*RES
1 *1438:ZN *1727:D 23.72 
*END

*D_NET *66 0.00331423
*CONN
*I *1728:D I *D gf180mcu_fd_sc_mcu7t5v0__dffq_1
*I *1440:ZN O *D gf180mcu_fd_sc_mcu7t5v0__aoi21_1
*CAP
1 *1728:D 0.000503583
2 *1440:ZN 0.000503583
3 *1728:D *1342:C 0.000100057
4 *1728:D *1430:A2 0.000177022
5 *1728:D *1744:I 0.000121459
6 *1728:D *577:59 5.33795e-05
7 *1728:D *577:94 0.00107404
8 *1728:D *578:18 0.000655858
9 *1787:I *1728:D 0.000125251
*RES
1 *1440:ZN *1728:D 24.032 
*END

*D_NET *67 0.00378878
*CONN
*I *1729:D I *D gf180mcu_fd_sc_mcu7t5v0__dffq_1
*I *1431:ZN O *D gf180mcu_fd_sc_mcu7t5v0__nor2_1
*CAP
1 *1729:D 0.000530521
2 *1431:ZN 0.000530521
3 *1729:D *1267:I 0.000276873
4 *1729:D *1395:B2 0.000815958
5 *1729:D *1398:A1 0.00149923
6 *1729:D *1433:A3 2.7332e-05
7 *1729:D *1434:A2 5.30661e-05
8 *1729:D *144:16 1.18566e-06
9 *1729:D *154:22 1.95034e-05
10 *1729:D *492:263 3.4596e-05
11 *1726:D *1729:D 0
*RES
1 *1431:ZN *1729:D 25.28 
*END

*D_NET *68 0.00267692
*CONN
*I *1730:D I *D gf180mcu_fd_sc_mcu7t5v0__dffq_1
*I *1435:ZN O *D gf180mcu_fd_sc_mcu7t5v0__nor2_1
*CAP
1 *1730:D 0.000277865
2 *1435:ZN 0.000277865
3 *1730:D *1435:A1 0.000146725
4 *1730:D *1435:A2 0.000117701
5 *1730:D *1757:I 0.000822055
6 *1730:D *154:31 0.000488468
7 *1730:D *447:131 0.00018099
8 *1730:D *492:251 5.35424e-05
9 *1730:D *492:257 0.000311706
*RES
1 *1435:ZN *1730:D 22.472 
*END

*D_NET *69 0.000607649
*CONN
*I *1652:D I *D gf180mcu_fd_sc_mcu7t5v0__dffq_1
*I *1510:ZN O *D gf180mcu_fd_sc_mcu7t5v0__nand2_1
*CAP
1 *1652:D 0.000299719
2 *1510:ZN 0.000299719
3 *1652:D *1732:CLK 8.21146e-06
4 *1652:D *563:34 0
*RES
1 *1510:ZN *1652:D 11.288 
*END

*D_NET *70 0.000738608
*CONN
*I *1653:D I *D gf180mcu_fd_sc_mcu7t5v0__dffq_1
*I *1518:ZN O *D gf180mcu_fd_sc_mcu7t5v0__oai21_1
*CAP
1 *1653:D 0.000130578
2 *1518:ZN 0.000130578
3 *1653:D *316:115 0.000110336
4 *1653:D *356:130 0.000367115
*RES
1 *1518:ZN *1653:D 10.768 
*END

*D_NET *71 0.00324015
*CONN
*I *1654:D I *D gf180mcu_fd_sc_mcu7t5v0__dffq_1
*I *1520:ZN O *D gf180mcu_fd_sc_mcu7t5v0__oai21_1
*CAP
1 *1654:D 0.000720556
2 *1520:ZN 0.000720556
3 *1654:D *1245:I 4.15112e-05
4 *1654:D *1519:A1 0.000321737
5 *1654:D *1523:A2 0.000142309
6 *1654:D *1524:B 0.000795121
7 *1654:D *1654:CLK 0.000126399
8 *1654:D *1668:CLK 0
9 *1654:D *1741:I 6.69299e-05
10 *1654:D *1742:I 6.36674e-05
11 *1654:D *316:115 4.24763e-05
12 *1654:D *359:51 1.23682e-05
13 *1654:D *359:62 1.29855e-05
14 *1654:D *475:39 0
15 *1654:D *475:65 2.36218e-05
16 *1654:D *475:72 7.96342e-05
17 *1654:D *553:12 7.02771e-05
*RES
1 *1520:ZN *1654:D 16.696 
*END

*D_NET *72 0.000865003
*CONN
*I *1655:D I *D gf180mcu_fd_sc_mcu7t5v0__dffq_1
*I *1521:Z O *D gf180mcu_fd_sc_mcu7t5v0__mux2_2
*CAP
1 *1655:D 0.000284202
2 *1521:Z 0.000284202
3 *1655:D *1521:S 0.000160152
4 *1655:D *1630:B2 4.07478e-05
5 *1655:D *1635:A1 6.30323e-05
6 *1655:D *559:28 3.26676e-05
*RES
1 *1521:Z *1655:D 11.704 
*END

*D_NET *73 0.00125229
*CONN
*I *1656:D I *D gf180mcu_fd_sc_mcu7t5v0__dffq_1
*I *1522:Z O *D gf180mcu_fd_sc_mcu7t5v0__mux2_2
*CAP
1 *1656:D 0.000151076
2 *1522:Z 0.000151076
3 *1656:D *1376:A1 0.000345387
4 *1656:D *1715:CLK 4.09978e-05
5 *1656:D *1776:I 0.000167974
6 *1656:D *512:10 4.04798e-05
7 *1656:D *558:38 0.000355296
*RES
1 *1522:Z *1656:D 19.872 
*END

*D_NET *74 0.00146932
*CONN
*I *1657:D I *D gf180mcu_fd_sc_mcu7t5v0__dffq_1
*I *1524:ZN O *D gf180mcu_fd_sc_mcu7t5v0__oai21_1
*CAP
1 *1657:D 0.000431931
2 *1524:ZN 0.000431931
3 *1657:D *1650:A1 0.000136892
4 *1657:D *1651:B 5.51177e-05
5 *1657:D *131:12 0.000141606
6 *1657:D *158:25 0.000225549
7 *1657:D *160:25 0
8 *1657:D *554:6 4.6294e-05
*RES
1 *1524:ZN *1657:D 13.368 
*END

*D_NET *75 0.00525422
*CONN
*I *1658:D I *D gf180mcu_fd_sc_mcu7t5v0__dffq_1
*I *1525:Z O *D gf180mcu_fd_sc_mcu7t5v0__mux2_2
*CAP
1 *1658:D 0.00153214
2 *1525:Z 0.00153214
3 *1658:D *1378:A1 0.000269562
4 *1658:D *1525:S 0.00027022
5 *1658:D *1809:I 0.000450171
6 *1658:D *1810:I 3.01776e-05
7 *1658:D *559:83 0.00116981
*RES
1 *1525:Z *1658:D 33.392 
*END

*D_NET *76 0.00817374
*CONN
*I *1659:D I *D gf180mcu_fd_sc_mcu7t5v0__dffq_1
*I *1526:Z O *D gf180mcu_fd_sc_mcu7t5v0__mux2_2
*CAP
1 *1659:D 0.0010529
2 *1526:Z 0.0010529
3 *1659:D *1374:I0 0.000750983
4 *1659:D *1376:A2 0
5 *1659:D *1715:CLK 0
6 *1659:D *479:32 0.00141687
7 *1659:D *479:39 0.00205992
8 *1659:D *479:46 0.00050264
9 *1659:D *479:105 0.000423366
10 *1659:D *512:10 0.000545628
11 DAT_O[4] *1659:D 6.29232e-05
12 *1716:D *1659:D 0.000305617
*RES
1 *1526:Z *1659:D 22.208 
*END

*D_NET *77 0.00825803
*CONN
*I *1660:D I *D gf180mcu_fd_sc_mcu7t5v0__dffq_1
*I *1527:Z O *D gf180mcu_fd_sc_mcu7t5v0__mux2_2
*CAP
1 *1660:D 0.000212227
2 *1527:Z 0.000212227
3 *1660:D *1640:A1 0.000243466
4 *1660:D *1660:CLK 0.000427072
5 *1660:D *1810:I 0.00257371
6 *1660:D *511:14 0.00133817
7 *1660:D *519:29 0.00278903
8 *1660:D *559:83 0.000335803
9 *1779:I *1660:D 0.00012632
*RES
1 *1527:Z *1660:D 29.752 
*END

*D_NET *78 0.00230167
*CONN
*I *1661:D I *D gf180mcu_fd_sc_mcu7t5v0__dffq_1
*I *1541:Z O *D gf180mcu_fd_sc_mcu7t5v0__mux2_2
*CAP
1 *1661:D 0.000498879
2 *1541:Z 0.000498879
3 *1661:D *361:20 0.000432834
4 *1661:D *471:19 0.000154077
5 *1661:D *581:23 0
6 *1661:D *581:25 0
7 *1725:D *1661:D 0.000717003
*RES
1 *1541:Z *1661:D 14.408 
*END

*D_NET *79 0.000581847
*CONN
*I *1662:D I *D gf180mcu_fd_sc_mcu7t5v0__dffq_1
*I *1543:Z O *D gf180mcu_fd_sc_mcu7t5v0__mux2_2
*CAP
1 *1662:D 0.00025019
2 *1543:Z 0.00025019
3 *1662:D *361:20 8.14679e-05
*RES
1 *1543:Z *1662:D 11.08 
*END

*D_NET *80 0.000548801
*CONN
*I *1663:D I *D gf180mcu_fd_sc_mcu7t5v0__dffq_1
*I *1545:ZN O *D gf180mcu_fd_sc_mcu7t5v0__nor4_1
*CAP
1 *1663:D 0.000237152
2 *1545:ZN 0.000237152
3 *1663:D *1545:A1 7.44974e-05
*RES
1 *1545:ZN *1663:D 10.872 
*END

*D_NET *81 0.000604813
*CONN
*I *1664:D I *D gf180mcu_fd_sc_mcu7t5v0__dffq_1
*I *1547:ZN O *D gf180mcu_fd_sc_mcu7t5v0__aoi211_1
*CAP
1 *1664:D 0.000240311
2 *1547:ZN 0.000240311
3 *1664:D *1609:A1 2.36218e-05
4 *1664:D *473:24 0.000100568
5 *1664:D *565:10 0
*RES
1 *1547:ZN *1664:D 11.184 
*END

*D_NET *82 0.000834603
*CONN
*I *1665:D I *D gf180mcu_fd_sc_mcu7t5v0__dffq_1
*I *1566:Z O *D gf180mcu_fd_sc_mcu7t5v0__and2_1
*CAP
1 *1665:D 0.00039042
2 *1566:Z 0.00039042
3 *1665:D *1566:A2 5.37622e-05
4 *1665:D *1735:D 0
5 *1665:D *1758:I 0
6 *1665:D *472:43 0
7 *1665:D *472:47 0
*RES
1 *1566:Z *1665:D 20.912 
*END

*D_NET *83 0.00216266
*CONN
*I *1666:D I *D gf180mcu_fd_sc_mcu7t5v0__dffq_1
*I *1570:ZN O *D gf180mcu_fd_sc_mcu7t5v0__aoi21_1
*CAP
1 *1666:D 0.000436775
2 *1570:ZN 0.000436775
3 *1666:D *1441:A2 0.000238516
4 *1666:D *1443:A1 0.000188231
5 *1666:D *1570:A2 0.000144343
6 *1666:D *142:199 0
7 *1666:D *287:8 0.00037585
8 *1666:D *483:63 2.92004e-05
9 *1666:D *485:20 0.000312966
*RES
1 *1570:ZN *1666:D 22.368 
*END

*D_NET *84 0.00122712
*CONN
*I *1667:D I *D gf180mcu_fd_sc_mcu7t5v0__dffq_1
*I *1580:ZN O *D gf180mcu_fd_sc_mcu7t5v0__aoi21_1
*CAP
1 *1667:D 0.000551821
2 *1580:ZN 0.000551821
3 *1667:D *1509:A1 0
4 *1667:D *1670:CLK 0
5 *1667:D *1732:CLK 6.03575e-05
6 *1667:D *1813:I 1.60338e-05
7 *1667:D *474:33 2.62817e-05
8 *1667:D *516:8 0
9 *1667:D *517:10 2.08037e-05
*RES
1 *1580:ZN *1667:D 12.848 
*END

*D_NET *85 0.00348121
*CONN
*I *1668:D I *D gf180mcu_fd_sc_mcu7t5v0__dffq_1
*I *1585:ZN O *D gf180mcu_fd_sc_mcu7t5v0__nor3_1
*CAP
1 *1668:D 0.000421547
2 *1585:ZN 0.000421547
3 *1668:D *1584:A2 3.50523e-05
4 *1668:D *1598:B 7.16472e-05
5 *1668:D *316:44 0.00149703
6 *1668:D *316:142 0.000438819
7 *1668:D *352:8 4.55316e-05
8 *1668:D *422:45 0.00033778
9 *1668:D *488:10 9.68773e-05
10 *1668:D *488:27 0.000115377
*RES
1 *1585:ZN *1668:D 24.032 
*END

*D_NET *86 0.00174367
*CONN
*I *1669:D I *D gf180mcu_fd_sc_mcu7t5v0__dffq_1
*I *1589:ZN O *D gf180mcu_fd_sc_mcu7t5v0__aoi21_1
*CAP
1 *1669:D 0.000124546
2 *1589:ZN 0.000124546
3 *1669:D *1508:A2 0.000487059
4 *1669:D *1589:A1 0.000179413
5 *1669:D *124:14 0.000179413
6 *1669:D *359:72 3.74622e-05
7 *1669:D *483:57 0.000305617
8 *1669:D *488:27 0.000305617
*RES
1 *1589:ZN *1669:D 20.288 
*END

*D_NET *87 0.000773312
*CONN
*I *1670:D I *D gf180mcu_fd_sc_mcu7t5v0__dffq_1
*I *1594:ZN O *D gf180mcu_fd_sc_mcu7t5v0__aoi21_1
*CAP
1 *1670:D 0.000102226
2 *1594:ZN 0.000102226
3 *1670:D *1594:A2 0.000140368
4 *1670:D *385:12 0.000428493
*RES
1 *1594:ZN *1670:D 10.664 
*END

*D_NET *88 0.00329987
*CONN
*I *1671:D I *D gf180mcu_fd_sc_mcu7t5v0__dffq_1
*I *1596:Z O *D gf180mcu_fd_sc_mcu7t5v0__mux2_2
*CAP
1 *1671:D 0.000486696
2 *1596:Z 0.000486696
3 *1671:D *1464:A2 0.000640301
4 *1671:D *1562:A2 4.07817e-05
5 *1671:D *1565:B 2.33932e-05
6 *1671:D *1569:A1 0.000972031
7 *1671:D *356:14 3.55699e-06
8 *1671:D *485:20 0.000556749
9 *1671:D *485:28 8.96662e-05
10 *1671:D *486:25 0
*RES
1 *1596:Z *1671:D 24.136 
*END

*D_NET *89 0.00113087
*CONN
*I *1672:D I *D gf180mcu_fd_sc_mcu7t5v0__dffq_1
*I *1598:ZN O *D gf180mcu_fd_sc_mcu7t5v0__oai21_1
*CAP
1 *1672:D 0.000340347
2 *1598:ZN 0.000340347
3 *1672:D *1600:B 7.16472e-05
4 *1672:D *422:45 0.00033778
5 *1672:D *422:52 4.07478e-05
*RES
1 *1598:ZN *1672:D 20.704 
*END

*D_NET *90 0.000793627
*CONN
*I *1673:D I *D gf180mcu_fd_sc_mcu7t5v0__dffq_1
*I *1600:ZN O *D gf180mcu_fd_sc_mcu7t5v0__oai21_1
*CAP
1 *1673:D 0.000285146
2 *1600:ZN 0.000285146
3 *1673:D *1497:A1 0
4 *1673:D *1600:A2 0.000186465
5 *1673:D *137:6 0
6 *1673:D *483:57 3.68715e-05
*RES
1 *1600:ZN *1673:D 11.288 
*END

*D_NET *91 0.00191543
*CONN
*I *1674:D I *D gf180mcu_fd_sc_mcu7t5v0__dffq_1
*I *1601:Z O *D gf180mcu_fd_sc_mcu7t5v0__mux2_2
*CAP
1 *1674:D 0.000269362
2 *1601:Z 0.000269362
3 *1674:D *1497:A1 1.92017e-05
4 *1674:D *1608:A2 0
5 *1674:D *1674:CLK 0.000540599
6 *1674:D *1756:I 1.07369e-05
7 *1674:D *466:25 2.11353e-05
8 *1674:D *474:161 2.20148e-05
9 *1674:D *492:307 0.000763013
*RES
1 *1601:Z *1674:D 21.328 
*END

*D_NET *92 0.00178227
*CONN
*I *1675:D I *D gf180mcu_fd_sc_mcu7t5v0__dffq_1
*I *1602:Z O *D gf180mcu_fd_sc_mcu7t5v0__mux2_2
*CAP
1 *1675:D 0.000786665
2 *1602:Z 0.000786665
3 *1675:D *1602:I1 0.000114706
4 *1675:D *474:137 2.66236e-05
5 *1675:D *483:24 6.7612e-05
*RES
1 *1602:Z *1675:D 15.032 
*END

*D_NET *93 0.000702769
*CONN
*I *1676:D I *D gf180mcu_fd_sc_mcu7t5v0__dffq_1
*I *1603:Z O *D gf180mcu_fd_sc_mcu7t5v0__mux2_2
*CAP
1 *1676:D 0.000325907
2 *1603:Z 0.000325907
3 *1676:D *1602:I1 3.56211e-05
4 *1676:D *467:12 1.53331e-05
5 *1676:D *492:339 0
*RES
1 *1603:Z *1676:D 20.288 
*END

*D_NET *94 0.00211686
*CONN
*I *1677:D I *D gf180mcu_fd_sc_mcu7t5v0__dffq_1
*I *1604:Z O *D gf180mcu_fd_sc_mcu7t5v0__mux2_2
*CAP
1 *1677:D 0.000349661
2 *1604:Z 0.000349661
3 *1677:D *1602:S 3.60231e-05
4 *1677:D *1603:I1 1.8858e-05
5 *1677:D *1604:I1 9.87902e-05
6 *1677:D *467:12 0.00108303
7 *1677:D *468:12 0.000139032
8 *1677:D *518:10 4.18052e-05
*RES
1 *1604:Z *1677:D 13.368 
*END

*D_NET *95 0.000843713
*CONN
*I *1678:D I *D gf180mcu_fd_sc_mcu7t5v0__dffq_1
*I *1605:Z O *D gf180mcu_fd_sc_mcu7t5v0__mux2_2
*CAP
1 *1678:D 0.000269336
2 *1605:Z 0.000269336
3 *1678:D *1482:A2 6.87156e-05
4 *1678:D *1604:I0 0
5 *1678:D *1605:S 2.68214e-05
6 *1678:D *467:38 0.000209505
*RES
1 *1605:Z *1678:D 11.08 
*END

*D_NET *96 0.000695934
*CONN
*I *1679:D I *D gf180mcu_fd_sc_mcu7t5v0__dffq_1
*I *1606:Z O *D gf180mcu_fd_sc_mcu7t5v0__and2_1
*CAP
1 *1679:D 0.000345628
2 *1606:Z 0.000345628
3 *1679:D *1569:A1 4.67771e-06
4 *1679:D *472:41 0
5 *1679:D *484:14 0
*RES
1 *1606:Z *1679:D 11.6 
*END

*D_NET *97 0.0006309
*CONN
*I *1680:D I *D gf180mcu_fd_sc_mcu7t5v0__dffq_1
*I *1607:ZN O *D gf180mcu_fd_sc_mcu7t5v0__nor2_1
*CAP
1 *1680:D 8.25878e-05
2 *1607:ZN 8.25878e-05
3 *1680:D *1562:A1 0
4 *1680:D *1566:A2 0.000126515
5 *1680:D *1735:D 0
6 *1680:D *127:16 0.000339209
*RES
1 *1607:ZN *1680:D 10.248 
*END

*D_NET *98 0.00144857
*CONN
*I *1681:D I *D gf180mcu_fd_sc_mcu7t5v0__dffq_1
*I *1608:ZN O *D gf180mcu_fd_sc_mcu7t5v0__nor2_1
*CAP
1 *1681:D 0.000246165
2 *1608:ZN 0.000246165
3 *1681:D *1608:A2 0.000591484
4 *1681:D *1734:CLK 4.07478e-05
5 *1681:D *474:40 0.000203364
6 *1681:D *474:44 0.000115166
7 *1731:D *1681:D 5.47431e-06
*RES
1 *1608:ZN *1681:D 12.328 
*END

*D_NET *99 0.00175111
*CONN
*I *1682:D I *D gf180mcu_fd_sc_mcu7t5v0__dffq_1
*I *1609:Z O *D gf180mcu_fd_sc_mcu7t5v0__and2_1
*CAP
1 *1682:D 0.000541736
2 *1609:Z 0.000541736
3 *1682:D *1609:A2 7.61518e-05
4 *1682:D *485:20 0.000591484
*RES
1 *1609:Z *1682:D 13.368 
*END

*D_NET *100 0.00639542
*CONN
*I *1683:D I *D gf180mcu_fd_sc_mcu7t5v0__dffq_1
*I *1612:ZN O *D gf180mcu_fd_sc_mcu7t5v0__nor2_1
*CAP
1 *1683:D 0.000287742
2 *1612:ZN 0.000287742
3 *1683:D *1612:A1 9.7618e-05
4 *1683:D *1612:A2 0.000293318
5 *1683:D *1615:A2 5.6979e-06
6 *1683:D *477:55 0
7 *1683:D *492:23 0.00266062
8 ADDR_O[0] *1683:D 0
9 *1780:I *1683:D 0.00276268
*RES
1 *1612:ZN *1683:D 26.216 
*END

*D_NET *101 0.0101077
*CONN
*I *1684:D I *D gf180mcu_fd_sc_mcu7t5v0__dffq_1
*I *1614:ZN O *D gf180mcu_fd_sc_mcu7t5v0__nor2_1
*CAP
1 *1684:D 0.00169387
2 *1614:ZN 0.00169387
3 *1684:D *1616:A2 0.000509839
4 *1684:D *1685:D 0.00515615
5 *10:18 *1684:D 0.00105397
*RES
1 *1614:ZN *1684:D 46.7042 
*END

*D_NET *102 0.0114859
*CONN
*I *1685:D I *D gf180mcu_fd_sc_mcu7t5v0__dffq_1
*I *1616:ZN O *D gf180mcu_fd_sc_mcu7t5v0__nor2_1
*CAP
1 *1685:D 0.000863468
2 *1616:ZN 0.000863468
3 *1685:D *1614:A2 3.20448e-05
4 *1685:D *1616:A2 0.00407817
5 *1685:D *1685:CLK 6.05423e-06
6 *1685:D *492:171 0.000486586
7 *1684:D *1685:D 0.00515615
*RES
1 *1616:ZN *1685:D 47.0169 
*END

*D_NET *103 0.00475186
*CONN
*I *1686:D I *D gf180mcu_fd_sc_mcu7t5v0__dffq_1
*I *1618:ZN O *D gf180mcu_fd_sc_mcu7t5v0__nor2_1
*CAP
1 *1686:D 0.00093919
2 *1618:ZN 0.00093919
3 *1686:D *1412:B2 0
4 *1686:D *1616:A2 0.000157761
5 *1686:D *1618:A2 0.000337769
6 *1686:D *1685:CLK 0.000283521
7 *1686:D *476:80 0
8 *1686:D *477:55 0.000501134
9 *1686:D *492:10 0.000173585
10 *1686:D *492:23 6.40609e-05
11 *1686:D *492:145 0.000159517
12 *1720:D *1686:D 0.000145442
13 *1780:I *1686:D 0.000368907
14 *10:18 *1686:D 0.000681789
*RES
1 *1618:ZN *1686:D 31.52 
*END

*D_NET *104 0.00820496
*CONN
*I *1687:D I *D gf180mcu_fd_sc_mcu7t5v0__dffq_1
*I *1620:ZN O *D gf180mcu_fd_sc_mcu7t5v0__nor2_1
*CAP
1 *1687:D 0.00106097
2 *1620:ZN 0.00106097
3 *1687:D *1417:A1 4.55798e-05
4 *1687:D *1417:B1 0.000104393
5 *1687:D *1421:A2 0.00192975
6 *1687:D *1422:B 4.66495e-06
7 *1687:D *1611:B2 0.000130774
8 *1687:D *1613:A1 2.86115e-06
9 *1687:D *1620:A2 0.000414635
10 *1687:D *1621:A1 0.000551187
11 *1687:D *1793:I 5.47431e-06
12 *1687:D *1794:I 0.000145317
13 *1687:D *1798:I 0.000119703
14 *1687:D *250:38 0.000144116
15 *1687:D *262:20 0.000156231
16 *1687:D *269:14 0.000240325
17 *1687:D *451:10 2.84252e-05
18 *1687:D *452:14 2.71402e-05
19 *1687:D *477:43 0
20 ADDR_O[1] *1687:D 0.00203244
*RES
1 *1620:ZN *1687:D 32.872 
*END

*D_NET *105 0.0085001
*CONN
*I *1688:D I *D gf180mcu_fd_sc_mcu7t5v0__dffq_1
*I *1622:ZN O *D gf180mcu_fd_sc_mcu7t5v0__nor2_1
*CAP
1 *1688:D 0.000332337
2 *1622:ZN 0.000332337
3 *1688:D *1413:A3 3.20057e-06
4 *1688:D *1426:A2 0.00266099
5 *1688:D *1610:A2 0.000222305
6 *1688:D *1611:A2 0
7 *1688:D *1622:A2 0.000121589
8 *1688:D *149:10 0.00125389
9 ADDR_O[4] *1688:D 0.00258523
10 *1723:D *1688:D 0.000988214
*RES
1 *1622:ZN *1688:D 29.544 
*END

*D_NET *106 0.00908388
*CONN
*I *1689:D I *D gf180mcu_fd_sc_mcu7t5v0__dffq_1
*I *1624:ZN O *D gf180mcu_fd_sc_mcu7t5v0__nor2_1
*CAP
1 *1689:D 0.00103695
2 *1624:ZN 0.00103695
3 *1689:D *1380:A2 0.000810629
4 *1689:D *1422:A1 0.000752333
5 *1689:D *1422:A2 0.000125846
6 *1689:D *1422:B 3.57634e-06
7 *1689:D *1610:A2 0.000363319
8 *1689:D *1624:A2 0.00395949
9 *1689:D *1723:CLK 7.15269e-06
10 *1689:D *149:10 1.0639e-05
11 *1689:D *280:18 0.000118633
12 *1689:D *425:25 0.000265775
13 *1689:D *425:172 0.000118926
14 *1689:D *476:38 6.22361e-05
15 *1689:D *492:228 0.000254943
16 ADDR_O[4] *1689:D 9.95746e-05
17 *1723:D *1689:D 3.4596e-05
18 *1783:I *1689:D 2.23162e-05
*RES
1 *1624:ZN *1689:D 33.288 
*END

*D_NET *107 0.00764031
*CONN
*I *1690:D I *D gf180mcu_fd_sc_mcu7t5v0__dffq_1
*I *1626:ZN O *D gf180mcu_fd_sc_mcu7t5v0__nor2_1
*CAP
1 *1690:D 0.000959491
2 *1626:ZN 0.000959491
3 *1690:D *1626:A2 2.28626e-05
4 *1690:D *1644:A1 0.00124671
5 *1690:D *1644:A2 8.21146e-06
6 *1690:D *1644:B 0.00184071
7 *1690:D *1800:I 0.00085642
8 *1690:D *279:67 0.000389359
9 *1690:D *425:204 0.000219921
10 *1690:D *476:38 3.32065e-05
11 *1690:D *477:33 2.9741e-05
12 ADDR_O[5] *1690:D 0.000131647
13 ADDR_O[6] *1690:D 0.000847612
14 *1783:I *1690:D 9.49286e-05
*RES
1 *1626:ZN *1690:D 30.792 
*END

*D_NET *108 0.00326322
*CONN
*I *1691:D I *D gf180mcu_fd_sc_mcu7t5v0__dffq_1
*I *1629:ZN O *D gf180mcu_fd_sc_mcu7t5v0__nor2_1
*CAP
1 *1691:D 0.000916611
2 *1629:ZN 0.000916611
3 *1691:D *1428:A1 4.34158e-05
4 *1691:D *1630:A1 1.823e-05
5 *1691:D *1769:I 0.000185729
6 *1691:D *492:412 0.000182695
7 *1691:D *492:435 0.000445032
8 *1712:D *1691:D 0
9 *1789:I *1691:D 0.000341949
10 *1790:I *1691:D 0.000212952
*RES
1 *1629:ZN *1691:D 25.696 
*END

*D_NET *109 0.00100224
*CONN
*I *1692:D I *D gf180mcu_fd_sc_mcu7t5v0__dffq_1
*I *1631:ZN O *D gf180mcu_fd_sc_mcu7t5v0__nor2_1
*CAP
1 *1692:D 0.000218832
2 *1631:ZN 0.000218832
3 *1692:D *1630:A1 9.58004e-06
4 *1692:D *1630:A2 3.95619e-06
5 *1692:D *1631:A1 9.76253e-05
6 *1692:D *1693:D 0.000168189
7 *1692:D *425:96 0.000192905
8 DAT_O[0] *1692:D 2.47495e-05
9 DAT_O[1] *1692:D 6.75705e-05
*RES
1 *1631:ZN *1692:D 20.288 
*END

*D_NET *110 0.00551568
*CONN
*I *1693:D I *D gf180mcu_fd_sc_mcu7t5v0__dffq_1
*I *1633:ZN O *D gf180mcu_fd_sc_mcu7t5v0__nor2_1
*CAP
1 *1693:D 0.000591175
2 *1633:ZN 0.000591175
3 *1693:D *1521:S 0.000259802
4 *1693:D *1627:A3 0.000203544
5 *1693:D *1634:A1 0.000123321
6 *1693:D *425:79 0.000175001
7 *1693:D *425:96 7.93873e-05
8 *1693:D *434:61 0.000111569
9 *1693:D *492:446 1.02907e-05
10 *1693:D *492:465 0.000691626
11 DAT_O[0] *1693:D 0.00251059
12 *1692:D *1693:D 0.000168189
*RES
1 *1633:ZN *1693:D 27.88 
*END

*D_NET *111 0.00553931
*CONN
*I *1694:D I *D gf180mcu_fd_sc_mcu7t5v0__dffq_1
*I *1635:ZN O *D gf180mcu_fd_sc_mcu7t5v0__nor2_1
*CAP
1 *1694:D 0.000537274
2 *1635:ZN 0.000537274
3 *1694:D *1376:A2 2.4581e-05
4 *1694:D *1376:B2 0
5 *1694:D *1378:A1 0.000255354
6 *1694:D *1526:S 6.41072e-05
7 *1694:D *1635:A1 0.00159871
8 *1694:D *507:12 0.000176038
9 DAT_O[4] *1694:D 0.00234597
*RES
1 *1635:ZN *1694:D 26.632 
*END

*D_NET *112 0.0144519
*CONN
*I *1695:D I *D gf180mcu_fd_sc_mcu7t5v0__dffq_1
*I *1637:ZN O *D gf180mcu_fd_sc_mcu7t5v0__nor2_1
*CAP
1 *1695:D 0.00231948
2 *1637:ZN 0.000582961
3 *112:16 0.00290244
4 *1695:D *1288:A2 0.000401831
5 *1695:D *1289:B 0.000591156
6 *1695:D *1294:A1 4.42529e-05
7 *1695:D *1312:A1 0.000786975
8 *1695:D *1349:A1 0.00016289
9 *1695:D *1378:A1 0
10 *1695:D *1378:A2 0.000113016
11 *1695:D *1635:A2 0.000560497
12 *1695:D *1707:CLK 3.97039e-05
13 *1695:D *132:21 0.000229365
14 *1695:D *179:107 9.00121e-05
15 *1695:D *439:22 0.000651939
16 *1695:D *459:12 2.19312e-06
17 *1695:D *492:465 4.18042e-05
18 *1695:D *557:42 0.000143458
19 *112:16 *1302:A1 0.000474513
20 *112:16 *1525:I1 0.000340797
21 *112:16 *1697:D 9.95131e-05
22 *112:16 *131:12 6.4773e-05
23 *112:16 *142:25 2.13186e-05
24 *112:16 *158:25 0.000488643
25 *112:16 *158:36 6.88149e-05
26 *112:16 *161:25 4.55764e-06
27 *112:16 *458:20 8.07741e-05
28 DAT_O[5] *1695:D 5.52632e-05
29 DAT_O[6] *1695:D 0.00308899
*RES
1 *1637:ZN *112:16 24.136 
2 *112:16 *1695:D 35.624 
*END

*D_NET *113 0.00389282
*CONN
*I *1696:D I *D gf180mcu_fd_sc_mcu7t5v0__dffq_1
*I *1639:ZN O *D gf180mcu_fd_sc_mcu7t5v0__nor2_1
*CAP
1 *1696:D 0.000578113
2 *1639:ZN 0.000578113
3 *1696:D *1378:A2 0.00029984
4 *1696:D *1638:B2 7.75437e-05
5 *1696:D *1639:A2 0.000410703
6 *1696:D *425:133 0.000149923
7 *1696:D *425:144 0.000299284
8 *1696:D *434:81 0.000438464
9 *1696:D *434:94 0.00101075
10 *1696:D *492:465 5.00828e-05
*RES
1 *1639:ZN *1696:D 17.216 
*END

*D_NET *114 0.0148497
*CONN
*I *1697:D I *D gf180mcu_fd_sc_mcu7t5v0__dffq_1
*I *1641:ZN O *D gf180mcu_fd_sc_mcu7t5v0__nor2_1
*CAP
1 *1697:D 0.00125749
2 *1641:ZN 0.00125749
3 *1697:D *1300:A2 0.000140552
4 *1697:D *1302:A1 2.91549e-05
5 *1697:D *1303:A3 0.000314703
6 *1697:D *1363:I1 0.00292208
7 *1697:D *1374:I0 0.00325642
8 *1697:D *1525:I1 0.000178559
9 *1697:D *1638:B2 0.0011582
10 *1697:D *1641:A2 0.000354408
11 *1697:D *1771:I 4.78732e-05
12 *1697:D *458:12 0.000161139
13 *1697:D *458:20 0.000171885
14 *1697:D *556:69 0.000420931
15 *1697:D *559:12 1.96837e-05
16 CYC_O *1697:D 0.00127192
17 *11:16 *1697:D 0.00178774
18 *112:16 *1697:D 9.95131e-05
*RES
1 *1641:ZN *1697:D 42.856 
*END

*D_NET *115 0.00346937
*CONN
*I *1698:D I *D gf180mcu_fd_sc_mcu7t5v0__dffq_1
*I *1643:ZN O *D gf180mcu_fd_sc_mcu7t5v0__nor2_1
*CAP
1 *1698:D 0.000500423
2 *1643:ZN 0.000500423
3 *1698:D *1522:I0 0
4 *1698:D *1522:I1 3.8552e-05
5 *1698:D *1522:S 0
6 *1698:D *1643:A1 1.71326e-05
7 *1698:D *1643:A2 0.000679271
8 *1698:D *559:12 0.00162363
9 *1698:D *559:77 0.00010994
*RES
1 *1643:ZN *1698:D 14.928 
*END

*D_NET *116 0.00453478
*CONN
*I *1699:D I *D gf180mcu_fd_sc_mcu7t5v0__dffq_1
*I *1645:ZN O *D gf180mcu_fd_sc_mcu7t5v0__aoi21_1
*CAP
1 *1699:D 0.00112928
2 *1645:ZN 0.00112928
3 *1699:D *1346:A4 3.43806e-05
4 *1699:D *1625:A1 0.000222318
5 *1699:D *1626:A2 3.66596e-05
6 *1699:D *1644:A2 0.00158291
7 *1699:D *1691:CLK 1.33114e-05
8 *1699:D *1800:I 2.25463e-05
9 *1699:D *477:31 3.07284e-05
10 *1699:D *503:8 5.58579e-05
11 ADDR_O[7] *1699:D 0.000123403
12 *1783:I *1699:D 0.0001541
*RES
1 *1645:ZN *1699:D 28.192 
*END

*D_NET *117 0.0137764
*CONN
*I *1700:D I *D gf180mcu_fd_sc_mcu7t5v0__dffq_1
*I *1647:ZN O *D gf180mcu_fd_sc_mcu7t5v0__nor2_1
*CAP
1 *1700:D 0.00110171
2 *1647:ZN 0.00110171
3 *1700:D *1292:A3 0.000330495
4 *1700:D *1297:A2 0.000654104
5 *1700:D *1354:A1 3.85294e-05
6 *1700:D *1370:A1 6.22117e-05
7 *1700:D *1373:B 0.00156406
8 *1700:D *1376:A1 0.000798048
9 *1700:D *1376:A2 0
10 *1700:D *1522:I0 0.00249583
11 *1700:D *1641:A2 0.00011444
12 *1700:D *1647:A2 0.000761576
13 *1700:D *1776:I 0.00130993
14 *1700:D *180:44 0.000196221
15 *1700:D *492:362 0.000116466
16 *1700:D *559:12 0.00011444
17 *1700:D *560:20 0.00184014
18 *1700:D *573:12 0.000775837
19 *1704:D *1700:D 0.000400694
*RES
1 *1647:ZN *1700:D 42.752 
*END

*D_NET *118 0.00103534
*CONN
*I *1701:D I *D gf180mcu_fd_sc_mcu7t5v0__dffq_1
*I *1649:ZN O *D gf180mcu_fd_sc_mcu7t5v0__aoi21_1
*CAP
1 *1701:D 0.000111116
2 *1649:ZN 0.000111116
3 *1701:D *1398:A1 3.4596e-05
4 *1701:D *1649:A2 0.000170159
5 *1701:D *121:10 3.10787e-05
6 *1701:D *122:28 0.000437089
7 *1701:D *122:38 0.000113027
8 *1701:D *492:282 2.71548e-05
*RES
1 *1649:ZN *1701:D 10.768 
*END

*D_NET *119 0.00222324
*CONN
*I *1702:D I *D gf180mcu_fd_sc_mcu7t5v0__dffq_1
*I *1651:ZN O *D gf180mcu_fd_sc_mcu7t5v0__oai211_1
*CAP
1 *1702:D 0.000622527
2 *1651:ZN 0.000622527
3 *1702:D *1243:I 0
4 *1702:D *1523:A1 0.000810773
5 *1702:D *132:21 0
6 *1702:D *475:72 5.36275e-05
7 *1702:D *475:76 0.000113781
*RES
1 *1651:ZN *1702:D 23.304 
*END

*D_NET *120 0.00823838
*CONN
*I *1344:A1 I *D gf180mcu_fd_sc_mcu7t5v0__and4_1
*I *1651:A1 I *D gf180mcu_fd_sc_mcu7t5v0__oai211_1
*I *1495:A1 I *D gf180mcu_fd_sc_mcu7t5v0__nand2_1
*I *1243:ZN O *D gf180mcu_fd_sc_mcu7t5v0__clkinv_1
*CAP
1 *1344:A1 0.000588514
2 *1651:A1 9.943e-05
3 *1495:A1 0.000412654
4 *1243:ZN 0
5 *120:27 0.00171071
6 *120:6 0.00143542
7 *1344:A1 *1363:S 0
8 *1344:A1 *1479:A2 0
9 *1344:A1 *1524:A1 0.000105902
10 *1344:A1 *1524:B 0.00018974
11 *1344:A1 *1651:C 1.63202e-05
12 *1344:A1 *131:31 0.000147992
13 *1344:A1 *152:52 8.21498e-05
14 *1344:A1 *175:31 0.000185295
15 *1344:A1 *175:35 1.56624e-05
16 *1344:A1 *554:19 0.00220713
17 *1495:A1 *1243:I 0
18 *1495:A1 *1495:A2 0.000122244
19 *1495:A1 *1501:A2 0
20 *1495:A1 *1501:A4 0
21 *1495:A1 *1506:A1 0.000276018
22 *1495:A1 *136:6 0
23 *1495:A1 *456:17 0
24 *1495:A1 *464:6 5.47431e-06
25 *1651:A1 *1649:A2 2.30094e-05
26 *1651:A1 *554:6 2.30094e-05
27 *120:27 *1479:A2 0
28 *120:27 *1524:B 0.000435926
29 *120:27 *1654:CLK 1.8311e-05
30 *120:27 *1741:I 5.17819e-05
31 *120:27 *351:10 8.56865e-05
*RES
1 *1243:ZN *120:6 9 
2 *120:6 *1495:A1 12.536 
3 *120:6 *120:27 16.592 
4 *120:27 *1651:A1 9.52 
5 *120:27 *1344:A1 16.28 
*END

*D_NET *121 0.0161104
*CONN
*I *1398:A1 I *D gf180mcu_fd_sc_mcu7t5v0__oai221_1
*I *1520:A1 I *D gf180mcu_fd_sc_mcu7t5v0__oai21_1
*I *1244:ZN O *D gf180mcu_fd_sc_mcu7t5v0__clkinv_1
*CAP
1 *1398:A1 0.001292
2 *1520:A1 0.000299208
3 *1244:ZN 0.000419187
4 *121:10 0.00201039
5 *1398:A1 *1279:A1 6.32118e-05
6 *1398:A1 *1279:A2 0.000874882
7 *1398:A1 *1331:A2 0.000571698
8 *1398:A1 *1332:A1 4.97628e-05
9 *1398:A1 *1395:B2 0.00198287
10 *1398:A1 *1398:B1 2.18546e-05
11 *1398:A1 *1398:B2 1.04907e-05
12 *1398:A1 *1431:A1 0.00139416
13 *1398:A1 *1434:A1 0.000361348
14 *1398:A1 *1434:A3 0.00027784
15 *1398:A1 *1435:A2 0
16 *1398:A1 *122:38 0.000964376
17 *1398:A1 *128:29 0
18 *1398:A1 *144:8 9.09864e-05
19 *1398:A1 *492:263 6.53438e-05
20 *1398:A1 *492:282 0.00134631
21 *1398:A1 *561:8 0.000701403
22 *1398:A1 *561:21 0.000132315
23 *1398:A1 *581:14 0.000367897
24 *1520:A1 *1519:A1 2.63271e-05
25 *1520:A1 *361:36 0.000352713
26 *1520:A1 *488:109 0
27 *1520:A1 *553:12 5.31148e-05
28 *121:10 *1648:A2 4.37046e-05
29 *121:10 *1649:A2 6.95257e-05
30 *121:10 *1730:CLK 0
31 *121:10 *122:28 0.000477837
32 *121:10 *122:38 0.000113027
33 *121:10 *160:12 7.87395e-06
34 *121:10 *361:36 8.64348e-05
35 *121:10 *553:12 7.76861e-06
36 *121:10 *553:38 9.6017e-06
37 *1701:D *1398:A1 3.4596e-05
38 *1701:D *121:10 3.10787e-05
39 *1729:D *1398:A1 0.00149923
*RES
1 *1244:ZN *121:10 12.744 
2 *121:10 *1520:A1 11.808 
3 *121:10 *1398:A1 33.544 
*END

*D_NET *122 0.0181948
*CONN
*I *1649:A1 I *D gf180mcu_fd_sc_mcu7t5v0__aoi21_1
*I *1395:B2 I *D gf180mcu_fd_sc_mcu7t5v0__oai221_1
*I *1518:A1 I *D gf180mcu_fd_sc_mcu7t5v0__oai21_1
*I *1245:ZN O *D gf180mcu_fd_sc_mcu7t5v0__clkinv_1
*CAP
1 *1649:A1 0
2 *1395:B2 0.00199983
3 *1518:A1 0.000426321
4 *1245:ZN 0.000655289
5 *122:38 0.00292728
6 *122:28 0.00115642
7 *1395:B2 *1251:I 1.43055e-05
8 *1395:B2 *1266:I 1.91879e-05
9 *1395:B2 *1330:A1 0.00105017
10 *1395:B2 *1331:A2 0.000580926
11 *1395:B2 *1332:A1 0.000175906
12 *1395:B2 *1395:B1 0.00011484
13 *1395:B2 *1398:A2 5.63044e-06
14 *1395:B2 *1398:B2 1.30206e-06
15 *1395:B2 *128:29 0
16 *1395:B2 *143:12 2.63994e-05
17 *1395:B2 *144:8 0.000256285
18 *1395:B2 *144:16 0.000803219
19 *1395:B2 *471:19 7.83723e-05
20 *1395:B2 *492:263 0.000203739
21 *1395:B2 *492:282 0.000219289
22 *1395:B2 *581:23 0.000168433
23 *1518:A1 *356:130 4.41433e-05
24 *1518:A1 *361:20 3.60303e-05
25 *1518:A1 *361:28 5.53884e-05
26 *1518:A1 *471:11 0.000193323
27 *1518:A1 *488:109 1.85359e-05
28 *122:28 *323:30 0.000865163
29 *122:28 *475:39 0.000381743
30 *122:28 *487:175 0.000496044
31 *122:28 *492:282 7.41397e-05
32 *122:38 *1435:A2 0
33 *122:38 *471:11 8.32297e-05
34 *122:38 *492:263 1.41447e-05
35 *1398:A1 *1395:B2 0.00198287
36 *1398:A1 *122:38 0.000964376
37 *1701:D *122:28 0.000437089
38 *1701:D *122:38 0.000113027
39 *1718:D *1395:B2 0.000145619
40 *1729:D *1395:B2 0.000815958
41 *121:10 *122:28 0.000477837
42 *121:10 *122:38 0.000113027
*RES
1 *1245:ZN *122:28 36.3387 
2 *122:28 *122:38 9.076 
3 *122:38 *1518:A1 12.328 
4 *122:38 *1395:B2 32.816 
5 *122:28 *1649:A1 4.5 
*END

*D_NET *123 0.0245235
*CONN
*I *1592:B I *D gf180mcu_fd_sc_mcu7t5v0__oai21_1
*I *1466:A1 I *D gf180mcu_fd_sc_mcu7t5v0__nand2_1
*I *1458:A1 I *D gf180mcu_fd_sc_mcu7t5v0__nor4_1
*I *1449:A1 I *D gf180mcu_fd_sc_mcu7t5v0__nor3_1
*I *1471:A1 I *D gf180mcu_fd_sc_mcu7t5v0__nand2_1
*I *1456:A1 I *D gf180mcu_fd_sc_mcu7t5v0__nor3_1
*I *1447:A1 I *D gf180mcu_fd_sc_mcu7t5v0__nor2_1
*I *1467:A1 I *D gf180mcu_fd_sc_mcu7t5v0__aoi21_1
*I *1549:A1 I *D gf180mcu_fd_sc_mcu7t5v0__aoi21_1
*I *1246:ZN O *D gf180mcu_fd_sc_mcu7t5v0__clkinv_1
*CAP
1 *1592:B 0.000678243
2 *1466:A1 9.40711e-05
3 *1458:A1 0
4 *1449:A1 0.000176319
5 *1471:A1 0.000568615
6 *1456:A1 0
7 *1447:A1 0
8 *1467:A1 0.000235369
9 *1549:A1 0.000331016
10 *1246:ZN 0
11 *123:49 0.000870795
12 *123:47 0.000512783
13 *123:45 0.000816919
14 *123:34 0.000997588
15 *123:12 0.00125375
16 *123:6 0.00146974
17 *123:4 0.000798953
18 *1449:A1 *1449:A2 0.000155002
19 *1449:A1 *1449:A3 2.60017e-05
20 *1449:A1 *1456:A2 0
21 *1449:A1 *1456:A3 8.2459e-05
22 *1449:A1 *299:22 0.00048891
23 *1449:A1 *299:67 0.000559042
24 *1466:A1 *1468:A1 8.02494e-05
25 *1466:A1 *1480:B 1.71326e-05
26 *1466:A1 *480:113 9.09864e-05
27 *1467:A1 *1467:A2 7.62531e-05
28 *1467:A1 *1560:A1 1.80385e-06
29 *1467:A1 *299:43 6.57403e-05
30 *1467:A1 *480:38 7.09795e-05
31 *1467:A1 *487:83 6.93471e-05
32 *1471:A1 *1471:A2 0.000222127
33 *1471:A1 *1535:B 0.00023086
34 *1471:A1 *1539:A1 8.69048e-05
35 *1471:A1 *299:67 0.000237084
36 *1471:A1 *302:8 5.77668e-05
37 *1471:A1 *317:51 7.87395e-06
38 *1471:A1 *359:16 0.000295827
39 *1471:A1 *372:12 0.000260055
40 *1549:A1 *1549:B 0.00042704
41 *1549:A1 *1556:A1 1.95612e-05
42 *1549:A1 *1556:A2 0.000726087
43 *1549:A1 *1556:A3 0
44 *1549:A1 *1556:A4 6.64018e-06
45 *1549:A1 *375:18 0.000192301
46 *1592:B *1460:A2 1.3074e-05
47 *1592:B *1577:A1 0.00062995
48 *1592:B *1586:A1 0.000161016
49 *1592:B *1588:A1 2.30903e-05
50 *1592:B *1593:A2 0.000639166
51 *1592:B *1594:A1 0.00147488
52 *1592:B *480:14 0.000281653
53 *1592:B *480:16 3.4596e-05
54 *123:6 *1462:A3 0.000101591
55 *123:6 *480:16 0.000548443
56 *123:12 *1462:A1 0.00044772
57 *123:12 *1462:A2 9.21299e-05
58 *123:12 *1462:A3 0.00023456
59 *123:12 *1475:A1 0.000171408
60 *123:12 *1556:A2 0.000469796
61 *123:12 *1556:A4 2.69701e-06
62 *123:12 *1560:A1 0.000607004
63 *123:12 *297:14 0.00045324
64 *123:12 *480:16 0.000595343
65 *123:12 *480:18 0.000504619
66 *123:12 *480:24 0.000412756
67 *123:12 *487:62 0.000344595
68 *123:34 *1575:A4 0.00016483
69 *123:34 *125:8 0.000487069
70 *123:34 *316:71 0.000102089
71 *123:34 *486:109 0.000103983
72 *123:34 *486:117 1.78561e-06
73 *123:34 *490:25 0.000114204
74 *123:45 *1575:A1 4.54968e-05
75 *123:45 *1575:A2 5.4278e-05
76 *123:45 *1575:A4 2.13536e-05
77 *123:45 *316:71 6.09829e-06
78 *123:45 *480:104 0
79 *123:45 *488:94 0
80 *123:47 *1258:I 0.000215244
81 *123:47 *1458:A2 0.000560747
82 *123:47 *1468:A1 0.000160641
83 *123:47 *1468:A3 0
84 *123:47 *1530:A1 4.45041e-05
85 *123:47 *1535:B 2.71548e-05
86 *123:47 *1567:A1 0.0001339
87 *123:47 *480:113 0.000241982
88 *123:49 *1456:A2 0.000228035
89 *123:49 *1535:B 1.85722e-05
90 *123:49 *1567:A1 0.000179296
91 *123:49 *302:8 1.07369e-05
*RES
1 *1246:ZN *123:4 4.5 
2 *123:4 *123:6 1.56 
3 *123:6 *123:12 13.652 
4 *123:12 *1549:A1 12.432 
5 *123:12 *1467:A1 10.56 
6 *123:6 *123:34 10.012 
7 *123:34 *1447:A1 9 
8 *123:34 *123:45 6.684 
9 *123:45 *123:47 4.888 
10 *123:47 *123:49 1.976 
11 *123:49 *1456:A1 4.5 
12 *123:49 *1471:A1 10.532 
13 *123:49 *1449:A1 16.308 
14 *123:47 *1458:A1 4.5 
15 *123:45 *1466:A1 5.54 
16 *123:4 *1592:B 20.468 
*END

*D_NET *124 0.01657
*CONN
*I *1479:A1 I *D gf180mcu_fd_sc_mcu7t5v0__nand2_1
*I *1459:A3 I *D gf180mcu_fd_sc_mcu7t5v0__nand4_1
*I *1450:A1 I *D gf180mcu_fd_sc_mcu7t5v0__nand4_1
*I *1457:A1 I *D gf180mcu_fd_sc_mcu7t5v0__nand3_1
*I *1461:A1 I *D gf180mcu_fd_sc_mcu7t5v0__nand4_1
*I *1538:A3 I *D gf180mcu_fd_sc_mcu7t5v0__nand4_1
*I *1589:A1 I *D gf180mcu_fd_sc_mcu7t5v0__aoi21_1
*I *1247:ZN O *D gf180mcu_fd_sc_mcu7t5v0__clkinv_1
*CAP
1 *1479:A1 9.59719e-05
2 *1459:A3 0
3 *1450:A1 9.27691e-05
4 *1457:A1 0.000236056
5 *1461:A1 0
6 *1538:A3 0.000304438
7 *1589:A1 6.4449e-05
8 *1247:ZN 0.000231425
9 *124:59 0.000328825
10 *124:41 0.000431781
11 *124:37 0.000321616
12 *124:33 0.000626206
13 *124:14 0.000761546
14 *124:10 0.000592562
15 *1450:A1 *1450:A2 0.000487069
16 *1450:A1 *480:104 0.000147028
17 *1450:A1 *485:73 0.000833548
18 *1457:A1 *1457:A2 0.000226367
19 *1457:A1 *1462:A3 7.65111e-06
20 *1457:A1 *480:104 8.58618e-05
21 *1457:A1 *485:73 0.000855229
22 *1457:A1 *490:75 0.000103788
23 *1479:A1 *1508:A2 0.000498837
24 *1479:A1 *359:62 0.0001823
25 *1479:A1 *492:282 0.000324227
26 *1538:A3 *300:59 0.000274511
27 *1538:A3 *307:12 0.000249055
28 *1538:A3 *422:45 0
29 *1538:A3 *483:57 2.38656e-05
30 *1538:A3 *487:52 0.000103788
31 *1538:A3 *490:46 5.47431e-06
32 *1589:A1 *1589:B 0.000166817
33 *1589:A1 *1669:CLK 0.000174813
34 *1589:A1 *359:72 7.05624e-05
35 *124:10 *1480:A2 0.000113016
36 *124:10 *1481:B 8.32398e-05
37 *124:10 *299:104 0.000488457
38 *124:10 *309:48 5.33151e-05
39 *124:10 *489:8 0.000125575
40 *124:14 *1460:A1 0.000133448
41 *124:14 *1508:A2 0.000205964
42 *124:14 *1597:A2 0.000717769
43 *124:14 *309:48 0.000230694
44 *124:14 *359:72 9.87827e-05
45 *124:14 *422:45 0.000159376
46 *124:14 *492:282 0.000496345
47 *124:33 *1459:A4 5.57504e-05
48 *124:33 *1589:B 0.000513957
49 *124:33 *480:14 0.000144405
50 *124:33 *488:27 0.00102928
51 *124:33 *488:33 0.000256322
52 *124:37 *1459:A4 3.4596e-05
53 *124:37 *300:59 0.000719033
54 *124:37 *488:33 0.000343422
55 *124:37 *488:43 0.000711445
56 *124:41 *1461:A2 2.28381e-05
57 *124:41 *300:59 0.000388107
58 *124:41 *483:57 2.81522e-06
59 *124:41 *488:43 0.000174813
60 *1669:D *1589:A1 0.000179413
61 *1669:D *124:14 0.000179413
*RES
1 *1247:ZN *124:10 11.496 
2 *124:10 *124:14 4.992 
3 *124:14 *1589:A1 10.04 
4 *124:14 *124:33 10.22 
5 *124:33 *124:37 3.536 
6 *124:37 *124:41 1.456 
7 *124:41 *1538:A3 7.1 
8 *124:41 *1461:A1 4.5 
9 *124:37 *124:59 4.5 
10 *124:59 *1457:A1 12.016 
11 *124:59 *1450:A1 11.392 
12 *124:33 *1459:A3 4.5 
13 *124:10 *1479:A1 11.392 
*END

*D_NET *125 0.00538609
*CONN
*I *1450:A2 I *D gf180mcu_fd_sc_mcu7t5v0__nand4_1
*I *1461:A2 I *D gf180mcu_fd_sc_mcu7t5v0__nand4_1
*I *1581:A1 I *D gf180mcu_fd_sc_mcu7t5v0__nor2_1
*I *1455:A1 I *D gf180mcu_fd_sc_mcu7t5v0__nand2_1
*I *1248:ZN O *D gf180mcu_fd_sc_mcu7t5v0__clkinv_1
*CAP
1 *1450:A2 4.51646e-05
2 *1461:A2 0.00011328
3 *1581:A1 0
4 *1455:A1 0.000176616
5 *1248:ZN 0
6 *125:28 0.00028945
7 *125:8 0.000504653
8 *125:4 0.000459043
9 *1450:A2 *480:104 0.000487069
10 *1455:A1 *1581:A2 0.000307088
11 *1455:A1 *1582:A4 4.19992e-06
12 *1455:A1 *486:109 4.55996e-05
13 *1455:A1 *490:14 6.39739e-06
14 *1455:A1 *563:34 0.00016643
15 *1461:A2 *483:57 0.000374809
16 *1461:A2 *488:43 7.89589e-05
17 *125:8 *486:109 0.000392879
18 *125:8 *490:14 5.76031e-05
19 *125:8 *490:25 2.48961e-06
20 *125:28 *483:57 0.000639166
21 *125:28 *488:27 0
22 *125:28 *488:33 1.86109e-05
23 *125:28 *488:43 0.000219608
24 *1450:A1 *1450:A2 0.000487069
25 *123:34 *125:8 0.000487069
26 *124:41 *1461:A2 2.28381e-05
*RES
1 *1248:ZN *125:4 4.5 
2 *125:4 *125:8 7.724 
3 *125:8 *1455:A1 10.352 
4 *125:8 *1581:A1 9 
5 *125:4 *125:28 2.08 
6 *125:28 *1461:A2 5.644 
7 *125:28 *1450:A2 14.852 
*END

*D_NET *126 0.00740589
*CONN
*I *1578:B I *D gf180mcu_fd_sc_mcu7t5v0__oai21_1
*I *1577:B2 I *D gf180mcu_fd_sc_mcu7t5v0__aoi22_1
*I *1455:A2 I *D gf180mcu_fd_sc_mcu7t5v0__nand2_1
*I *1581:A2 I *D gf180mcu_fd_sc_mcu7t5v0__nor2_1
*I *1249:ZN O *D gf180mcu_fd_sc_mcu7t5v0__clkinv_1
*CAP
1 *1578:B 1.75057e-05
2 *1577:B2 0.00039154
3 *1455:A2 0
4 *1581:A2 7.12411e-05
5 *1249:ZN 6.26645e-05
6 *126:30 0.00049277
7 *126:10 0.000515907
8 *126:8 0.000591055
9 *1577:B2 *1577:B1 0.000523615
10 *1577:B2 *1578:A1 0.000268613
11 *1577:B2 *1579:A1 5.64251e-05
12 *1577:B2 *1579:A2 0.00015899
13 *1577:B2 *1580:A2 3.32327e-05
14 *1577:B2 *1670:CLK 6.35093e-06
15 *1577:B2 *316:31 0.000802642
16 *1577:B2 *359:74 5.65788e-06
17 *1577:B2 *403:30 3.61986e-05
18 *1577:B2 *404:30 1.80703e-05
19 *1578:B *1577:A1 0.000269917
20 *1578:B *1593:A2 0.000188422
21 *1578:B *316:31 3.42651e-05
22 *1581:A2 *486:109 0.000387312
23 *1581:A2 *563:34 2.42322e-05
24 *126:8 *1577:A1 6.73915e-06
25 *126:8 *1585:A3 9.76253e-05
26 *126:8 *487:26 1.07369e-05
27 *126:10 *1577:A1 0.000796445
28 *126:10 *1582:A3 0.000215267
29 *126:10 *1583:A1 2.42026e-05
30 *126:10 *1585:A3 0.000178541
31 *126:10 *563:34 0.000554309
32 *126:30 *359:74 1.2629e-05
33 *126:30 *403:30 5.19951e-05
34 *126:30 *487:26 0.000193683
35 *1455:A1 *1581:A2 0.000307088
*RES
1 *1249:ZN *126:8 5.124 
2 *126:8 *126:10 5.304 
3 *126:10 *1581:A2 14.644 
4 *126:10 *1455:A2 4.5 
5 *126:8 *126:30 5.436 
6 *126:30 *1577:B2 13.784 
7 *126:30 *1578:B 9.728 
*END

*D_NET *127 0.00448888
*CONN
*I *1562:A1 I *D gf180mcu_fd_sc_mcu7t5v0__nand2_1
*I *1607:A1 I *D gf180mcu_fd_sc_mcu7t5v0__nor2_1
*I *1250:ZN O *D gf180mcu_fd_sc_mcu7t5v0__clkinv_1
*CAP
1 *1562:A1 0.000154001
2 *1607:A1 0
3 *1250:ZN 0.000930472
4 *127:16 0.00108447
5 *1562:A1 *1511:A2 1.23682e-05
6 *1562:A1 *1671:CLK 0
7 *1562:A1 *485:32 1.12327e-05
8 *127:16 *1250:I 0.0004162
9 *127:16 *1511:A2 6.18411e-06
10 *127:16 *1566:A2 0.00103541
11 *127:16 *1671:CLK 0
12 *127:16 *1758:I 0.0004162
13 *127:16 *1760:I 8.31292e-05
14 *127:16 *356:14 0
15 *127:16 *486:12 0
16 *1680:D *1562:A1 0
17 *1680:D *127:16 0.000339209
*RES
1 *1250:ZN *127:16 22.236 
2 *127:16 *1607:A1 4.5 
3 *127:16 *1562:A1 5.956 
*END

*D_NET *128 0.0106128
*CONN
*I *1383:A1 I *D gf180mcu_fd_sc_mcu7t5v0__and4_1
*I *1279:A1 I *D gf180mcu_fd_sc_mcu7t5v0__nand2_1
*I *1384:A1 I *D gf180mcu_fd_sc_mcu7t5v0__nand4_1
*I *1547:A1 I *D gf180mcu_fd_sc_mcu7t5v0__aoi211_1
*I *1251:ZN O *D gf180mcu_fd_sc_mcu7t5v0__clkinv_1
*CAP
1 *1383:A1 0
2 *1279:A1 0.000365386
3 *1384:A1 0
4 *1547:A1 0.000357856
5 *1251:ZN 0
6 *128:40 0.000501592
7 *128:29 0.001385
8 *128:4 0.00160664
9 *1279:A1 *1267:I 2.73715e-06
10 *1279:A1 *1279:A2 0.000793387
11 *1279:A1 *1434:A1 0.000167018
12 *1279:A1 *1434:A2 0.000175906
13 *1279:A1 *1434:A3 0.000188577
14 *1279:A1 *143:31 0.00011934
15 *1279:A1 *143:46 0.00011246
16 *1279:A1 *552:25 5.34458e-06
17 *1279:A1 *552:32 2.12222e-05
18 *1279:A1 *561:21 2.46717e-05
19 *1547:A1 *1444:A1 0
20 *1547:A1 *1444:A2 0
21 *1547:A1 *1664:CLK 0
22 *1547:A1 *473:37 0
23 *1547:A1 *492:72 0.000136616
24 *128:29 *1251:I 0.0004162
25 *128:29 *1321:A3 4.02644e-05
26 *128:29 *1321:A4 0.000538444
27 *128:29 *1396:A2 0.000591484
28 *128:29 *1398:B1 5.52248e-05
29 *128:29 *1398:B2 0.000451319
30 *128:29 *1398:C 1.07369e-05
31 *128:29 *1547:C 0
32 *128:29 *142:180 0.00139801
33 *128:29 *447:131 3.09205e-05
34 *128:29 *448:27 0.000124416
35 *128:29 *492:83 0
36 *128:29 *552:8 0.000148864
37 *128:29 *561:8 0.000144165
38 *128:40 *1384:A2 9.49602e-05
39 *128:40 *143:31 9.42848e-05
40 *128:40 *244:10 0.000346997
41 *128:40 *447:131 1.01702e-05
42 *128:40 *552:8 7.95519e-06
43 *128:40 *552:25 8.14136e-05
44 *1395:B2 *128:29 0
45 *1398:A1 *1279:A1 6.32118e-05
46 *1398:A1 *128:29 0
47 *1718:D *128:29 0
*RES
1 *1251:ZN *128:4 4.5 
2 *128:4 *1547:A1 16.724 
3 *128:4 *128:29 22 
4 *128:29 *1384:A1 4.5 
5 *128:29 *128:40 2.184 
6 *128:40 *1279:A1 9.492 
7 *128:40 *1383:A1 4.5 
*END

*D_NET *129 0.00293667
*CONN
*I *1435:A1 I *D gf180mcu_fd_sc_mcu7t5v0__nor2_1
*I *1436:B3 I *D gf180mcu_fd_sc_mcu7t5v0__oai33_1
*I *1252:ZN O *D gf180mcu_fd_sc_mcu7t5v0__clkinv_1
*CAP
1 *1435:A1 0.000193071
2 *1436:B3 0.000133151
3 *1252:ZN 0.000157466
4 *129:10 0.000483689
5 *1435:A1 *1435:A2 8.1598e-06
6 *1435:A1 *1730:CLK 0.000908515
7 *1435:A1 *1757:I 6.51039e-05
8 *1436:B3 *1436:B2 0.000256311
9 *1436:B3 *1730:CLK 0.000194511
10 *1436:B3 *1757:I 0.000161032
11 *1436:B3 *142:147 0.000107831
12 *129:10 *492:257 5.93571e-05
13 *129:10 *492:263 6.17457e-05
14 *1726:D *129:10 0
15 *1730:D *1435:A1 0.000146725
*RES
1 *1252:ZN *129:10 15.06 
2 *129:10 *1436:B3 6.476 
3 *129:10 *1435:A1 7.1 
*END

*D_NET *130 0.00501527
*CONN
*I *1431:A1 I *D gf180mcu_fd_sc_mcu7t5v0__nor2_1
*I *1434:A1 I *D gf180mcu_fd_sc_mcu7t5v0__oai32_1
*I *1253:ZN O *D gf180mcu_fd_sc_mcu7t5v0__clkinv_1
*CAP
1 *1431:A1 0.000480977
2 *1434:A1 0.000528634
3 *1253:ZN 0
4 *130:4 0.00100961
5 *1431:A1 *1252:I 0.000134833
6 *1431:A1 *1253:I 2.38656e-05
7 *1431:A1 *1435:A2 5.13239e-06
8 *1431:A1 *1729:CLK 1.32276e-05
9 *1431:A1 *1757:I 0
10 *1431:A1 *154:22 0
11 *1434:A1 *1253:I 0.000167101
12 *1434:A1 *1267:I 7.36936e-05
13 *1434:A1 *1279:A2 1.57479e-05
14 *1434:A1 *1434:A2 5.79038e-05
15 *1434:A1 *1729:CLK 0.000521318
16 *1279:A1 *1434:A1 0.000167018
17 *1398:A1 *1431:A1 0.00139416
18 *1398:A1 *1434:A1 0.000361348
19 *1725:D *1434:A1 6.06951e-05
*RES
1 *1253:ZN *130:4 4.5 
2 *130:4 *1434:A1 10.636 
3 *130:4 *1431:A1 10.012 
*END

*D_NET *131 0.0215553
*CONN
*I *1294:A1 I *D gf180mcu_fd_sc_mcu7t5v0__aoi21_1
*I *1412:A1 I *D gf180mcu_fd_sc_mcu7t5v0__oai32_1
*I *1524:A1 I *D gf180mcu_fd_sc_mcu7t5v0__oai21_1
*I *1254:ZN O *D gf180mcu_fd_sc_mcu7t5v0__clkinv_1
*CAP
1 *1294:A1 0.000359814
2 *1412:A1 0
3 *1524:A1 5.31834e-05
4 *1254:ZN 0
5 *131:31 0.00584569
6 *131:12 0.00637643
7 *131:4 0.000837366
8 *1294:A1 *1294:B 0.000925256
9 *1294:A1 *132:21 0.000117308
10 *1294:A1 *459:12 0.00037297
11 *1294:A1 *459:33 1.23748e-05
12 *1524:A1 *1651:C 6.55399e-05
13 *131:12 *1524:A2 3.4596e-05
14 *131:12 *1650:A1 8.16884e-06
15 *131:12 *1703:CLK 0.000116101
16 *131:12 *158:25 0.000109102
17 *131:12 *160:12 6.84196e-06
18 *131:12 *161:10 0.00180061
19 *131:12 *161:25 0.00031561
20 *131:31 *1389:A1 4.94991e-05
21 *131:31 *1389:A3 0.000758211
22 *131:31 *1399:A2 0.000430001
23 *131:31 *1404:A1 0.000115856
24 *131:31 *1404:A2 0.000257493
25 *131:31 *1434:A3 0
26 *131:31 *1436:A3 0.000127788
27 *131:31 *1618:A2 9.84829e-05
28 *131:31 *1651:C 4.0513e-05
29 *131:31 *142:60 2.35688e-05
30 *131:31 *154:59 0.000107431
31 *131:31 *205:42 7.29199e-05
32 *131:31 *247:10 0.00071645
33 *131:31 *249:10 0.0001106
34 *131:31 *449:30 8.82081e-06
35 *131:31 *492:62 4.85342e-05
36 *131:31 *492:64 0.000425046
37 *131:31 *504:46 0.000302564
38 *1344:A1 *1524:A1 0.000105902
39 *1344:A1 *131:31 0.000147992
40 *1657:D *131:12 0.000141606
41 *1695:D *1294:A1 4.42529e-05
42 *112:16 *131:12 6.4773e-05
*RES
1 *1254:ZN *131:4 4.5 
2 *131:4 *131:12 10.844 
3 *131:12 *1524:A1 9.728 
4 *131:12 *131:31 47.584 
5 *131:31 *1412:A1 9 
6 *131:4 *1294:A1 18.804 
*END

*D_NET *132 0.0122193
*CONN
*I *1498:A1 I *D gf180mcu_fd_sc_mcu7t5v0__nand2_1
*I *1349:A1 I *D gf180mcu_fd_sc_mcu7t5v0__and4_1
*I *1289:A1 I *D gf180mcu_fd_sc_mcu7t5v0__aoi21_1
*I *1499:A1 I *D gf180mcu_fd_sc_mcu7t5v0__aoi22_1
*I *1255:ZN O *D gf180mcu_fd_sc_mcu7t5v0__clkinv_1
*CAP
1 *1498:A1 0.000544013
2 *1349:A1 0.000479122
3 *1289:A1 0
4 *1499:A1 0.000358544
5 *1255:ZN 0
6 *132:21 0.00128739
7 *132:8 0.00133288
8 *132:4 0.000710081
9 *1349:A1 *1288:A2 0.000251178
10 *1349:A1 *1289:B 0.00057941
11 *1349:A1 *1312:A1 0.000639156
12 *1349:A1 *1359:A2 0.000743891
13 *1349:A1 *152:56 0.000966936
14 *1349:A1 *175:44 8.52736e-05
15 *1349:A1 *557:12 3.33615e-05
16 *1498:A1 *1491:A1 0.000143493
17 *1498:A1 *1497:A1 0.000498827
18 *1498:A1 *1497:A2 0.000783873
19 *1498:A1 *1500:A4 1.07369e-05
20 *1498:A1 *1501:A1 1.06825e-05
21 *1498:A1 *1505:A1 0.000498806
22 *1498:A1 *1506:A2 3.93698e-05
23 *1498:A1 *1601:I1 0.000113016
24 *1498:A1 *136:23 0
25 *1498:A1 *343:18 1.43288e-05
26 *1498:A1 *457:12 1.60773e-05
27 *1498:A1 *461:12 0.000427527
28 *1498:A1 *465:8 4.07478e-05
29 *1499:A1 *1499:B1 3.71243e-05
30 *1499:A1 *1500:A3 1.76416e-05
31 *1499:A1 *1500:A4 1.28023e-05
32 *1499:A1 *1506:A2 4.15842e-05
33 *1499:A1 *456:17 0
34 *1499:A1 *457:12 0
35 *132:8 *1506:A2 6.16518e-05
36 *132:8 *457:12 1.66971e-05
37 *132:21 *1294:B 0
38 *132:21 *1703:CLK 0
39 *132:21 *457:12 0
40 *132:21 *475:76 0
41 *1294:A1 *132:21 0.000117308
42 *1695:D *1349:A1 0.00016289
43 *1695:D *132:21 0.000229365
44 *1702:D *132:21 0
45 *1703:D *132:21 0.000913509
*RES
1 *1255:ZN *132:4 4.5 
2 *132:4 *132:8 5.644 
3 *132:8 *1499:A1 11.704 
4 *132:8 *132:21 8.008 
5 *132:21 *1289:A1 9 
6 *132:21 *1349:A1 16.072 
7 *132:4 *1498:A1 20.676 
*END

*D_NET *133 0.0013445
*CONN
*I *1274:A1 I *D gf180mcu_fd_sc_mcu7t5v0__and2_1
*I *1273:A1 I *D gf180mcu_fd_sc_mcu7t5v0__nor2_1
*I *1608:A1 I *D gf180mcu_fd_sc_mcu7t5v0__nor2_1
*I *1256:ZN O *D gf180mcu_fd_sc_mcu7t5v0__clkinv_1
*CAP
1 *1274:A1 0
2 *1273:A1 0
3 *1608:A1 0.000166441
4 *1256:ZN 0.000226363
5 *133:10 0.000275384
6 *133:8 0.000335307
7 *1608:A1 *1608:A2 0
8 *1608:A1 *474:40 0.000122244
9 *133:8 *1273:A2 9.11499e-05
10 *133:8 *522:14 0
11 *133:10 *1273:A2 0.00012761
12 *133:10 *1608:A2 0
*RES
1 *1256:ZN *133:8 11.184 
2 *133:8 *133:10 1.352 
3 *133:10 *1608:A1 10.456 
4 *133:10 *1273:A1 9 
5 *133:8 *1274:A1 9 
*END

*D_NET *134 0.00610736
*CONN
*I *1582:A3 I *D gf180mcu_fd_sc_mcu7t5v0__nor4_1
*I *1470:A1 I *D gf180mcu_fd_sc_mcu7t5v0__nor2_1
*I *1553:B2 I *D gf180mcu_fd_sc_mcu7t5v0__oai221_1
*I *1536:B2 I *D gf180mcu_fd_sc_mcu7t5v0__oai22_1
*I *1257:ZN O *D gf180mcu_fd_sc_mcu7t5v0__clkinv_1
*CAP
1 *1582:A3 0.000284013
2 *1470:A1 0.000154522
3 *1553:B2 0.000148684
4 *1536:B2 0.000185437
5 *1257:ZN 0
6 *134:36 0.000438535
7 *134:12 0.000614987
8 *134:4 0.000280866
9 *1470:A1 *1594:B 1.33325e-06
10 *1470:A1 *301:10 5.34984e-06
11 *1470:A1 *303:31 1.90528e-05
12 *1470:A1 *316:10 4.07478e-05
13 *1470:A1 *385:12 1.09486e-05
14 *1470:A1 *486:109 0.000262946
15 *1470:A1 *563:44 0.000182219
16 *1536:B2 *1458:A2 0.000135779
17 *1536:B2 *1536:A1 0.000352347
18 *1536:B2 *1552:A2 0
19 *1536:B2 *1552:A3 1.49279e-05
20 *1536:B2 *301:18 0.000225638
21 *1536:B2 *386:20 8.58666e-05
22 *1553:B2 *1458:A2 0.000271774
23 *1553:B2 *1475:A2 0.000122244
24 *1553:B2 *1475:A3 5.52781e-05
25 *1553:B2 *1553:C 1.32276e-05
26 *1553:B2 *386:20 4.67771e-06
27 *1582:A3 *1577:A1 1.73223e-05
28 *1582:A3 *301:10 3.4596e-05
29 *1582:A3 *303:31 7.7502e-05
30 *1582:A3 *486:109 0.0003995
31 *1582:A3 *563:34 0.00039259
32 *134:12 *1553:A2 9.35542e-06
33 *134:12 *1553:B1 0.000108449
34 *134:12 *1553:C 0.000103788
35 *134:12 *1577:A1 0.000268435
36 *134:12 *303:31 0.000202306
37 *134:12 *303:39 0.000307715
38 *134:12 *486:94 0
39 *134:12 *486:109 0
40 *134:12 *563:44 5.91309e-05
41 *126:10 *1582:A3 0.000215267
*RES
1 *1257:ZN *134:4 4.5 
2 *134:4 *134:12 7.516 
3 *134:12 *1536:B2 10.976 
4 *134:12 *1553:B2 10.56 
5 *134:4 *134:36 4.5 
6 *134:36 *1470:A1 10.56 
7 *134:36 *1582:A3 12.12 
*END

*D_NET *135 0.00355995
*CONN
*I *1458:A4 I *D gf180mcu_fd_sc_mcu7t5v0__nor4_1
*I *1456:A2 I *D gf180mcu_fd_sc_mcu7t5v0__nor3_1
*I *1529:A1 I *D gf180mcu_fd_sc_mcu7t5v0__oai21_1
*I *1258:ZN O *D gf180mcu_fd_sc_mcu7t5v0__clkinv_1
*CAP
1 *1458:A4 0
2 *1456:A2 0.000229367
3 *1529:A1 0.000276091
4 *1258:ZN 0.000178077
5 *135:23 0.000404319
6 *135:8 0.00062912
7 *1456:A2 *1456:A3 0
8 *1456:A2 *1458:A3 0.000116476
9 *1456:A2 *1535:B 0.00039058
10 *1456:A2 *1537:A1 9.35542e-06
11 *1456:A2 *356:113 5.23324e-05
12 *1456:A2 *489:56 0.000113016
13 *1529:A1 *1458:A2 0.000166888
14 *1529:A1 *1530:A2 8.73965e-05
15 *1529:A1 *309:35 0.000259996
16 *135:8 *1458:A2 0.000129834
17 *135:8 *1530:A2 4.17589e-06
18 *135:8 *1535:B 1.28651e-05
19 *135:8 *316:98 0
20 *135:8 *356:113 3.76581e-05
21 *135:23 *1530:A2 0.000178559
22 *135:23 *1535:B 1.95239e-05
23 *135:23 *1537:A1 3.62791e-05
24 *1449:A1 *1456:A2 0
25 *123:49 *1456:A2 0.000228035
*RES
1 *1258:ZN *135:8 10.352 
2 *135:8 *1529:A1 10.976 
3 *135:8 *135:23 5.748 
4 *135:23 *1456:A2 16.308 
5 *135:23 *1458:A4 4.5 
*END

*D_NET *136 0.00541231
*CONN
*I *1499:B1 I *D gf180mcu_fd_sc_mcu7t5v0__aoi22_1
*I *1496:A1 I *D gf180mcu_fd_sc_mcu7t5v0__nand2_1
*I *1598:A2 I *D gf180mcu_fd_sc_mcu7t5v0__oai21_1
*I *1259:ZN O *D gf180mcu_fd_sc_mcu7t5v0__clkinv_1
*CAP
1 *1499:B1 0.000188084
2 *1496:A1 2.44118e-05
3 *1598:A2 0.000274205
4 *1259:ZN 0.000406288
5 *136:23 0.000677846
6 *136:6 0.00114584
7 *1496:A1 *1496:A2 9.76253e-05
8 *1496:A1 *1501:A1 9.76253e-05
9 *1499:B1 *1499:A2 5.20034e-05
10 *1499:B1 *1500:A1 6.06017e-05
11 *1499:B1 *1500:A3 0.000490958
12 *1499:B1 *351:10 2.16156e-05
13 *1499:B1 *456:17 0
14 *1598:A2 *1260:I 0
15 *1598:A2 *1601:S 0
16 *136:6 *1495:A2 5.47431e-06
17 *136:6 *1506:A1 0
18 *136:6 *1600:B 0
19 *136:6 *464:6 0.000897733
20 *136:23 *1499:A2 4.36433e-05
21 *136:23 *1500:A3 0.000331109
22 *136:23 *1500:A4 1.73875e-05
23 *136:23 *1501:A3 0.000134354
24 *136:23 *1600:B 0
25 *136:23 *1601:S 6.92168e-05
26 *136:23 *137:6 1.91467e-05
27 *136:23 *341:6 0
28 *136:23 *465:28 0.000320012
29 *1495:A1 *136:6 0
30 *1498:A1 *136:23 0
31 *1499:A1 *1499:B1 3.71243e-05
*RES
1 *1259:ZN *136:6 8.14 
2 *136:6 *1598:A2 15.476 
3 *136:6 *136:23 8.868 
4 *136:23 *1496:A1 9.312 
5 *136:23 *1499:B1 11.184 
*END

*D_NET *137 0.00505285
*CONN
*I *1497:A1 I *D gf180mcu_fd_sc_mcu7t5v0__nand2_1
*I *1600:A2 I *D gf180mcu_fd_sc_mcu7t5v0__oai21_1
*I *1260:ZN O *D gf180mcu_fd_sc_mcu7t5v0__clkinv_1
*CAP
1 *1497:A1 0.000679595
2 *1600:A2 0.000296283
3 *1260:ZN 0.00013085
4 *137:6 0.00110673
5 *1497:A1 *1497:A2 0.000104736
6 *1497:A1 *1501:A1 0.000258744
7 *1497:A1 *1601:I0 0.000276007
8 *1497:A1 *1601:I1 8.1598e-06
9 *1497:A1 *1601:S 0.000129604
10 *1497:A1 *1674:CLK 5.13977e-05
11 *1497:A1 *343:18 0.000537959
12 *1497:A1 *465:8 8.75081e-05
13 *1497:A1 *465:28 1.33438e-05
14 *1497:A1 *466:25 0
15 *1497:A1 *466:34 0.00049014
16 *1497:A1 *469:6 2.24654e-05
17 *1600:A2 *1601:S 0.000107711
18 *1600:A2 *483:57 2.63674e-05
19 *137:6 *465:28 1.61622e-06
20 *1498:A1 *1497:A1 0.000498827
21 *1673:D *1497:A1 0
22 *1673:D *1600:A2 0.000186465
23 *1673:D *137:6 0
24 *1674:D *1497:A1 1.92017e-05
25 *136:23 *137:6 1.91467e-05
*RES
1 *1260:ZN *137:6 5.228 
2 *137:6 *1600:A2 16.1 
3 *137:6 *1497:A1 21.404 
*END

*D_NET *138 0.0121746
*CONN
*I *1452:A1 I *D gf180mcu_fd_sc_mcu7t5v0__nor2_1
*I *1473:A1 I *D gf180mcu_fd_sc_mcu7t5v0__nand2_1
*I *1463:A1 I *D gf180mcu_fd_sc_mcu7t5v0__nor2_1
*I *1533:A1 I *D gf180mcu_fd_sc_mcu7t5v0__nor3_1
*I *1512:A1 I *D gf180mcu_fd_sc_mcu7t5v0__nand2_1
*I *1595:A1 I *D gf180mcu_fd_sc_mcu7t5v0__nor4_1
*I *1563:C I *D gf180mcu_fd_sc_mcu7t5v0__aoi211_1
*I *1261:ZN O *D gf180mcu_fd_sc_mcu7t5v0__clkinv_1
*CAP
1 *1452:A1 0
2 *1473:A1 5.47136e-05
3 *1463:A1 8.72474e-05
4 *1533:A1 0.000173828
5 *1512:A1 0
6 *1595:A1 0.00023329
7 *1563:C 4.13132e-05
8 *1261:ZN 5.41417e-05
9 *138:71 0.000846723
10 *138:40 0.000259702
11 *138:25 0.000468697
12 *138:21 0.000300477
13 *138:12 0.000264767
14 *138:6 0.00100591
15 *1463:A1 *1563:B 8.42233e-05
16 *1463:A1 *1568:B 3.4596e-05
17 *1463:A1 *463:34 8.52105e-06
18 *1463:A1 *472:26 0.000367959
19 *1473:A1 *139:19 6.50665e-06
20 *1473:A1 *485:47 0.000140313
21 *1473:A1 *486:35 0.000127087
22 *1533:A1 *1516:A2 2.81522e-06
23 *1533:A1 *1590:A2 0.000135894
24 *1533:A1 *1595:A3 3.4596e-05
25 *1533:A1 *483:63 0.000146631
26 *1563:C *1563:B 9.35542e-06
27 *1563:C *1568:B 0.000103788
28 *1563:C *472:26 0.00017298
29 *1595:A1 *1563:A2 0.000136293
30 *1595:A1 *1568:A1 2.14739e-05
31 *1595:A1 *1570:A1 0.000398132
32 *1595:A1 *1595:A2 0.000105709
33 *1595:A1 *396:6 8.04335e-05
34 *1595:A1 *422:14 0.000188403
35 *1595:A1 *472:26 0
36 *1595:A1 *483:63 8.72353e-05
37 *1595:A1 *484:33 0.000341532
38 *138:6 *393:8 2.04597e-06
39 *138:6 *394:6 0
40 *138:6 *463:6 2.81522e-06
41 *138:12 *1565:A1 0.000477603
42 *138:12 *1568:B 0.0011582
43 *138:12 *1595:A2 0.00108348
44 *138:12 *356:14 0.000102451
45 *138:21 *1568:B 0.000376528
46 *138:21 *472:26 0.00035117
47 *138:25 *1564:C 0.000334711
48 *138:25 *1568:A2 1.23478e-05
49 *138:25 *139:51 3.17547e-05
50 *138:25 *139:68 5.40777e-05
51 *138:25 *292:16 1.71581e-05
52 *138:40 *1568:A2 2.76472e-05
53 *138:40 *1595:A3 0.000178492
54 *138:40 *292:16 6.79959e-05
55 *138:40 *483:63 3.22108e-05
56 *138:40 *486:52 0.000197059
57 *138:71 *1465:A1 3.35294e-05
58 *138:71 *1473:A2 6.47521e-06
59 *138:71 *1558:A2 8.61516e-05
60 *138:71 *1561:A2 6.8199e-07
61 *138:71 *1561:A3 0.000322666
62 *138:71 *1565:A2 4.52811e-05
63 *138:71 *139:19 0.000199988
64 *138:71 *139:30 8.13929e-05
65 *138:71 *139:40 9.03122e-05
66 *138:71 *356:14 3.94674e-05
67 *138:71 *360:12 4.8749e-06
68 *138:71 *393:8 1.03286e-05
69 *138:71 *394:6 0
70 *138:71 *485:32 4.07478e-05
71 *138:71 *485:47 0.000106908
72 *138:71 *486:25 6.52129e-05
73 *138:71 *486:35 7.5904e-06
*RES
1 *1261:ZN *138:6 4.812 
2 *138:6 *138:12 13.264 
3 *138:12 *1563:C 5.02 
4 *138:12 *138:21 1.144 
5 *138:21 *138:25 5.852 
6 *138:25 *1595:A1 12.016 
7 *138:25 *138:40 5.748 
8 *138:40 *1512:A1 4.5 
9 *138:40 *1533:A1 6.164 
10 *138:21 *1463:A1 5.644 
11 *138:6 *138:71 14.928 
12 *138:71 *1473:A1 14.644 
13 *138:71 *1452:A1 4.5 
*END

*D_NET *139 0.0225599
*CONN
*I *1452:A2 I *D gf180mcu_fd_sc_mcu7t5v0__nor2_1
*I *1528:A1 I *D gf180mcu_fd_sc_mcu7t5v0__nand2_1
*I *1576:A1 I *D gf180mcu_fd_sc_mcu7t5v0__aoi21_1
*I *1506:B I *D gf180mcu_fd_sc_mcu7t5v0__oai21_1
*I *1563:B I *D gf180mcu_fd_sc_mcu7t5v0__aoi211_1
*I *1564:A2 I *D gf180mcu_fd_sc_mcu7t5v0__aoi211_1
*I *1511:A1 I *D gf180mcu_fd_sc_mcu7t5v0__nor2_1
*I *1473:A2 I *D gf180mcu_fd_sc_mcu7t5v0__nand2_1
*I *1262:ZN O *D gf180mcu_fd_sc_mcu7t5v0__clkinv_1
*CAP
1 *1452:A2 0
2 *1528:A1 0.000145485
3 *1576:A1 0.000101072
4 *1506:B 0.000676844
5 *1563:B 0.000220966
6 *1564:A2 6.51484e-05
7 *1511:A1 0.000327397
8 *1473:A2 0.000126799
9 *1262:ZN 0
10 *139:80 0.0034922
11 *139:68 0.00315755
12 *139:51 0.000787351
13 *139:40 0.000882462
14 *139:30 0.000647154
15 *139:19 0.000468811
16 *139:4 0.000169767
17 *1473:A2 *485:32 1.85523e-05
18 *1473:A2 *485:47 3.6383e-06
19 *1473:A2 *486:31 0.000435067
20 *1506:B *1479:A2 0
21 *1506:B *1480:A1 1.60428e-05
22 *1506:B *1480:B 0.000110947
23 *1506:B *1481:A1 0.000325671
24 *1506:B *1481:B 0.00012632
25 *1506:B *1599:A1 6.03575e-05
26 *1506:B *299:104 0.000221911
27 *1506:B *464:6 1.19584e-05
28 *1511:A1 *1464:A2 0.000171397
29 *1511:A1 *1511:A2 3.4596e-05
30 *1511:A1 *356:14 0.000285923
31 *1511:A1 *485:32 0.00010019
32 *1511:A1 *486:25 8.1598e-06
33 *1528:A1 *292:16 3.85374e-05
34 *1528:A1 *297:22 7.13101e-05
35 *1563:B *1568:A1 2.14739e-05
36 *1563:B *1568:B 0.000458096
37 *1563:B *396:6 0.000233749
38 *1563:B *463:34 4.26345e-05
39 *1563:B *483:63 1.71324e-06
40 *1564:A2 *1564:A1 3.28137e-05
41 *1564:A2 *393:8 1.64684e-05
42 *1576:A1 *1468:A1 0
43 *1576:A1 *1480:B 6.32781e-05
44 *1576:A1 *1576:B 1.71326e-05
45 *139:19 *1465:A1 0.000427051
46 *139:19 *485:47 0.000155247
47 *139:19 *486:25 7.29199e-05
48 *139:30 *1559:A1 7.87395e-06
49 *139:30 *311:12 0.000410048
50 *139:30 *485:32 7.9669e-06
51 *139:30 *486:31 0
52 *139:40 *1558:A2 9.12098e-05
53 *139:40 *1558:A3 0.00016643
54 *139:40 *1560:A1 2.38656e-05
55 *139:40 *1561:A3 2.32625e-05
56 *139:40 *1564:A1 1.43411e-05
57 *139:40 *297:22 0.000194511
58 *139:40 *360:12 0.000468395
59 *139:40 *393:8 2.6374e-05
60 *139:40 *486:35 0.00188289
61 *139:51 *1561:A3 0.000159365
62 *139:51 *1564:C 1.67036e-05
63 *139:51 *292:16 6.54234e-06
64 *139:51 *297:22 0.000315167
65 *139:68 *1568:A2 0.00072589
66 *139:68 *292:16 1.18918e-05
67 *139:68 *297:22 0.000473327
68 *139:80 *1468:A1 3.14958e-05
69 *139:80 *1480:B 8.21146e-06
70 *139:80 *1535:B 0.000363011
71 *139:80 *1575:A2 0.000497696
72 *139:80 *1576:B 0.000158287
73 *139:80 *299:95 0.000223464
74 *139:80 *299:104 0.000722386
75 *139:80 *316:71 0.000113001
76 *1463:A1 *1563:B 8.42233e-05
77 *1473:A1 *139:19 6.50665e-06
78 *1563:C *1563:B 9.35542e-06
79 *138:25 *139:51 3.17547e-05
80 *138:25 *139:68 5.40777e-05
81 *138:71 *1473:A2 6.47521e-06
82 *138:71 *139:19 0.000199988
83 *138:71 *139:30 8.13929e-05
84 *138:71 *139:40 9.03122e-05
*RES
1 *1262:ZN *139:4 4.5 
2 *139:4 *1473:A2 5.956 
3 *139:4 *139:19 10.56 
4 *139:19 *1511:A1 7.62 
5 *139:19 *139:30 1.352 
6 *139:30 *139:40 15.552 
7 *139:40 *1564:A2 5.02 
8 *139:40 *139:51 6.892 
9 *139:51 *1563:B 11.6 
10 *139:51 *139:68 3.744 
11 *139:68 *139:80 31.7 
12 *139:80 *1506:B 10.532 
13 *139:80 *1576:A1 5.54 
14 *139:68 *1528:A1 9.936 
15 *139:30 *1452:A2 4.5 
*END

*D_NET *140 0.0362091
*CONN
*I *1372:A1 I *D gf180mcu_fd_sc_mcu7t5v0__nand4_1
*I *1356:A1 I *D gf180mcu_fd_sc_mcu7t5v0__nand4_1
*I *1377:A1 I *D gf180mcu_fd_sc_mcu7t5v0__nand4_1
*I *1627:A1 I *D gf180mcu_fd_sc_mcu7t5v0__nor3_1
*I *1361:A1 I *D gf180mcu_fd_sc_mcu7t5v0__nand4_1
*I *1346:A1 I *D gf180mcu_fd_sc_mcu7t5v0__nand4_1
*I *1351:A1 I *D gf180mcu_fd_sc_mcu7t5v0__nand4_1
*I *1367:A1 I *D gf180mcu_fd_sc_mcu7t5v0__and4_1
*I *1341:A1 I *D gf180mcu_fd_sc_mcu7t5v0__and4_1
*I *1339:A1 I *D gf180mcu_fd_sc_mcu7t5v0__nand3_1
*I *1340:C I *D gf180mcu_fd_sc_mcu7t5v0__oai211_1
*I *1332:B I *D gf180mcu_fd_sc_mcu7t5v0__oai211_1
*I *1324:A1 I *D gf180mcu_fd_sc_mcu7t5v0__aoi21_1
*I *1283:A1 I *D gf180mcu_fd_sc_mcu7t5v0__nand2_1
*I *1263:ZN O *D gf180mcu_fd_sc_mcu7t5v0__clkinv_1
*CAP
1 *1372:A1 3.6366e-05
2 *1356:A1 0
3 *1377:A1 0
4 *1627:A1 0.000332772
5 *1361:A1 0
6 *1346:A1 0.000444595
7 *1351:A1 0
8 *1367:A1 0
9 *1341:A1 0.000113559
10 *1339:A1 0
11 *1340:C 0.000118885
12 *1332:B 0.000102933
13 *1324:A1 0.000166995
14 *1283:A1 0.000137582
15 *1263:ZN 0.000499892
16 *140:150 0.000465444
17 *140:143 0.000344134
18 *140:125 0.000816195
19 *140:114 0.000266508
20 *140:101 0.000920619
21 *140:72 0.000376974
22 *140:66 0.000495798
23 *140:60 0.00109611
24 *140:45 0.000343971
25 *140:41 0.00020576
26 *140:22 0.000386482
27 *140:16 0.0007016
28 *1283:A1 *1372:A4 2.21365e-05
29 *1283:A1 *141:27 1.12327e-05
30 *1283:A1 *141:37 4.30651e-05
31 *1283:A1 *157:8 6.32132e-05
32 *1283:A1 *230:26 0.000514298
33 *1283:A1 *492:412 0.000514298
34 *1324:A1 *1324:B 3.22108e-05
35 *1324:A1 *1438:C 0.000406476
36 *1324:A1 *1440:A1 0.00023882
37 *1324:A1 *192:8 4.18042e-05
38 *1324:A1 *192:32 5.24641e-05
39 *1324:A1 *192:41 7.66041e-05
40 *1324:A1 *281:10 0.000355296
41 *1324:A1 *578:18 0.00020821
42 *1332:B *1332:C 0.000199988
43 *1332:B *1340:A1 0.000125283
44 *1332:B *1433:A2 6.88313e-05
45 *1332:B *156:29 3.76797e-05
46 *1332:B *200:12 0.000168733
47 *1332:B *219:28 6.46802e-05
48 *1340:C *1429:A3 0.000146529
49 *1340:C *156:16 0.000454958
50 *1341:A1 *1341:A2 0.000327138
51 *1341:A1 *1341:A3 1.57479e-05
52 *1341:A1 *425:53 0.000160555
53 *1341:A1 *580:10 2.39523e-06
54 *1346:A1 *1346:A2 0.000122864
55 *1346:A1 *1630:A1 0
56 *1346:A1 *503:8 0
57 *1346:A1 *504:10 0.000339102
58 *1346:A1 *577:133 3.18325e-05
59 *1627:A1 *1352:B 0.00101502
60 *1627:A1 *1378:B 0.0001133
61 *1627:A1 *1627:A2 0.00208135
62 *1627:A1 *1692:CLK 0.000568633
63 *140:16 *1271:I 0.000337769
64 *140:16 *1347:B 0.000297733
65 *140:16 *1348:I0 0.000100568
66 *140:16 *1371:A1 1.23478e-05
67 *140:16 *1371:A2 2.45762e-05
68 *140:16 *1373:B 0.00161168
69 *140:16 *1477:I3 0.000125962
70 *140:16 *1521:S 0.000136093
71 *140:16 *323:30 0.000197059
72 *140:16 *478:117 0.000263437
73 *140:16 *578:68 3.94467e-05
74 *140:22 *1347:B 3.86178e-05
75 *140:22 *1372:A2 0.00045502
76 *140:22 *230:26 0.000243165
77 *140:22 *491:49 0.00031757
78 *140:22 *492:412 0.000221466
79 *140:41 *1347:B 0.000466947
80 *140:41 *1372:A4 0.00016066
81 *140:45 *1347:B 0.000617635
82 *140:45 *1372:A4 0.000214356
83 *140:60 *578:18 0.000260006
84 *140:66 *1428:A1 9.09652e-05
85 *140:66 *192:41 0.000107322
86 *140:66 *207:12 0.00033537
87 *140:66 *492:228 0.000739625
88 *140:72 *156:29 1.823e-05
89 *140:72 *193:22 2.68412e-05
90 *140:72 *200:12 0.000261879
91 *140:72 *204:10 0.00125248
92 *140:72 *207:12 0.000103788
93 *140:72 *219:28 7.03164e-05
94 *140:72 *492:228 0.000103788
95 *140:72 *579:48 0.00105595
96 *140:101 *1341:A3 4.25523e-05
97 *140:101 *1428:A1 1.23748e-05
98 *140:101 *425:53 0.000160585
99 *140:101 *491:55 0.000880688
100 *140:101 *491:70 0.000134488
101 *140:101 *577:94 6.85626e-05
102 *140:101 *578:18 0.000237839
103 *140:101 *580:10 3.39247e-06
104 *140:114 *1341:A2 0.000262946
105 *140:114 *1644:A2 0.000359322
106 *140:114 *577:111 0.00143227
107 *140:114 *577:124 0.000116476
108 *140:114 *579:12 0.000832926
109 *140:125 *1644:A2 0.000367033
110 *140:125 *491:83 9.76261e-05
111 *140:125 *504:10 2.25032e-05
112 *140:125 *577:124 0.000284045
113 *140:143 *1352:B 0.000966936
114 *140:143 *1630:A1 0.000169099
115 *140:143 *577:133 1.07369e-05
116 *140:143 *577:140 5.89482e-05
117 *140:150 *1352:B 0.00106766
118 *140:150 *1630:A1 0.000422972
119 DAT_O[0] *140:16 2.36218e-05
120 DAT_O[0] *140:22 5.42311e-05
121 *1786:I *140:101 0.000757707
122 *1786:I *140:125 0
123 *1788:I *1627:A1 1.41447e-05
124 *1789:I *1627:A1 4.07904e-05
*RES
1 *1263:ZN *140:16 20.78 
2 *140:16 *140:22 6.996 
3 *140:22 *1283:A1 11.496 
4 *140:22 *140:41 5.852 
5 *140:41 *140:45 6.268 
6 *140:45 *1324:A1 12.952 
7 *140:45 *140:60 1.04 
8 *140:60 *140:66 9.284 
9 *140:66 *140:72 8.868 
10 *140:72 *1332:B 10.352 
11 *140:72 *1340:C 10.352 
12 *140:66 *1339:A1 4.5 
13 *140:60 *140:101 13.444 
14 *140:101 *1341:A1 5.852 
15 *140:101 *140:114 9.284 
16 *140:114 *1367:A1 9 
17 *140:114 *140:125 6.892 
18 *140:125 *1351:A1 4.5 
19 *140:125 *1346:A1 8.14 
20 *140:125 *140:143 3.016 
21 *140:143 *1361:A1 4.5 
22 *140:143 *140:150 3.016 
23 *140:150 *1627:A1 20.052 
24 *140:150 *1377:A1 4.5 
25 *140:41 *1356:A1 4.5 
26 *140:16 *1372:A1 4.812 
*END

*D_NET *141 0.0447403
*CONN
*I *1345:B1 I *D gf180mcu_fd_sc_mcu7t5v0__oai22_1
*I *1376:B1 I *D gf180mcu_fd_sc_mcu7t5v0__oai22_1
*I *1350:B1 I *D gf180mcu_fd_sc_mcu7t5v0__oai22_1
*I *1371:B1 I *D gf180mcu_fd_sc_mcu7t5v0__oai22_1
*I *1360:B1 I *D gf180mcu_fd_sc_mcu7t5v0__oai22_1
*I *1366:A2 I *D gf180mcu_fd_sc_mcu7t5v0__oai221_1
*I *1355:B1 I *D gf180mcu_fd_sc_mcu7t5v0__oai22_1
*I *1283:A2 I *D gf180mcu_fd_sc_mcu7t5v0__nand2_1
*I *1324:A2 I *D gf180mcu_fd_sc_mcu7t5v0__aoi21_1
*I *1332:C I *D gf180mcu_fd_sc_mcu7t5v0__oai211_1
*I *1323:B I *D gf180mcu_fd_sc_mcu7t5v0__oai21_1
*I *1315:A2 I *D gf180mcu_fd_sc_mcu7t5v0__oai221_1
*I *1264:ZN O *D gf180mcu_fd_sc_mcu7t5v0__clkinv_1
*CAP
1 *1345:B1 5.46228e-05
2 *1376:B1 0.00108514
3 *1350:B1 6.74531e-05
4 *1371:B1 7.90903e-05
5 *1360:B1 0
6 *1366:A2 0.000139093
7 *1355:B1 0.000576658
8 *1283:A2 3.6366e-05
9 *1324:A2 0
10 *1332:C 0.000102878
11 *1323:B 7.4508e-05
12 *1315:A2 6.45351e-05
13 *1264:ZN 0
14 *141:151 0.0012571
15 *141:140 0.000438608
16 *141:120 0.000478062
17 *141:114 0.000593973
18 *141:112 0.00061235
19 *141:57 0.000982634
20 *141:37 0.00117245
21 *141:27 0.000853109
22 *141:25 0.00117419
23 *141:8 0.000269947
24 *141:4 0.000615141
25 *1315:A2 *1352:A2 0.000655629
26 *1315:A2 *1369:A1 3.22108e-05
27 *1315:A2 *208:27 0.000113027
28 *1315:A2 *478:121 0.000664447
29 *1323:B *1340:A1 0.000144649
30 *1323:B *1433:A2 0.000412354
31 *1332:C *1322:A2 0.000103788
32 *1332:C *1332:A1 2.38773e-05
33 *1332:C *1340:A1 0.00012643
34 *1332:C *1433:A2 0.000537638
35 *1345:B1 *1345:A1 0.000178559
36 *1345:B1 *1348:I1 0.000269832
37 *1345:B1 *176:58 3.18325e-05
38 *1350:B1 *556:18 0.000705253
39 *1350:B1 *560:58 0.000705253
40 *1355:B1 *1271:I 0.000108937
41 *1355:B1 *1420:A2 0.000480985
42 *1355:B1 *1762:I 0.00100521
43 *1355:B1 *471:72 0
44 *1355:B1 *488:109 0.00016439
45 *1355:B1 *560:58 0.000490202
46 *1366:A2 *1270:I 4.18042e-05
47 *1366:A2 *1366:B2 9.96291e-05
48 *1366:A2 *1369:A2 4.67771e-06
49 *1366:A2 *176:45 0.000645296
50 *1366:A2 *558:54 6.78557e-05
51 *1366:A2 *578:102 0.00019118
52 *1371:B1 *1373:B 0.00069295
53 *1371:B1 *1478:S1 0.00069295
54 *1376:B1 *1376:B2 0.000507751
55 *1376:B1 *1522:I1 3.17547e-05
56 *1376:B1 *1630:B2 3.7112e-05
57 *1376:B1 *1634:B2 0.00388315
58 *1376:B1 *479:72 0.000476164
59 *1376:B1 *479:80 0.00057304
60 *1376:B1 *479:151 0.000257303
61 *1376:B1 *492:465 0.00382487
62 *1376:B1 *507:12 7.75288e-05
63 *1376:B1 *554:34 0.00072101
64 *141:8 *1315:A1 5.36452e-06
65 *141:8 *1347:A1 1.36398e-06
66 *141:25 *1264:I 5.47431e-06
67 *141:25 *1343:B1 0.000114515
68 *141:25 *1347:A1 0.000397125
69 *141:25 *1352:A2 0.000441747
70 *141:25 *1477:I3 0
71 *141:25 *478:121 0.000408794
72 *141:27 *1264:I 2.77165e-05
73 *141:27 *1343:B1 1.07369e-05
74 *141:27 *1347:B 0
75 *141:27 *1372:A4 0
76 *141:27 *567:6 0
77 *141:37 *1264:I 1.5399e-05
78 *141:37 *1368:B 1.21594e-05
79 *141:37 *1372:A4 0
80 *141:37 *1430:A2 2.46957e-05
81 *141:37 *1440:B 0.000179413
82 *141:37 *207:12 0.000524078
83 *141:37 *208:14 0
84 *141:37 *282:12 0.000146714
85 *141:37 *492:232 9.7618e-05
86 *141:37 *492:249 0.000641985
87 *141:37 *578:18 0.000819734
88 *141:57 *1385:A3 0
89 *141:57 *1429:A1 8.1598e-06
90 *141:57 *1429:A2 2.89763e-05
91 *141:57 *150:42 0.000993402
92 *141:57 *152:31 3.14958e-05
93 *141:57 *175:22 0.000397156
94 *141:57 *192:8 0.000103788
95 *141:57 *192:10 3.23671e-05
96 *141:57 *205:14 1.74086e-05
97 *141:57 *208:14 7.39835e-05
98 *141:57 *281:10 0.000215368
99 *141:57 *282:12 9.19654e-05
100 *141:57 *577:26 0.000855556
101 *141:57 *578:18 0.000452535
102 *141:112 *1315:A1 3.26114e-05
103 *141:112 *1345:A1 9.7618e-05
104 *141:112 *1347:A1 0.000185064
105 *141:112 *1348:I1 5.19815e-05
106 *141:112 *1477:I2 0.000626044
107 *141:112 *1792:I 0.000113016
108 *141:112 *519:6 5.43621e-05
109 *141:112 *578:87 6.12449e-05
110 *141:120 *1369:A1 9.3396e-05
111 *141:120 *1369:A2 5.78216e-06
112 *141:120 *208:54 8.68138e-05
113 *141:120 *519:6 0.000754043
114 *141:120 *554:19 0.000488136
115 *141:120 *578:102 3.22108e-05
116 *141:140 *176:66 0.000434154
117 *141:140 *208:54 3.81056e-05
118 *141:140 *554:19 7.17651e-05
119 *141:140 *554:34 0.00135105
120 *141:151 *176:66 8.64348e-05
121 *141:151 *208:73 5.69537e-05
122 *141:151 *554:34 0.000525881
123 DAT_O[2] *1376:B1 0.00138212
124 DAT_O[3] *141:120 1.95539e-05
125 *1283:A1 *141:27 1.12327e-05
126 *1283:A1 *141:37 4.30651e-05
127 *1332:B *1332:C 0.000199988
128 *1714:D *1366:A2 5.63044e-06
129 *1714:D *141:120 2.96383e-05
130 *1738:I *141:27 6.5428e-05
131 *1789:I *1355:B1 5.17344e-05
*RES
1 *1264:ZN *141:4 4.5 
2 *141:4 *141:8 4.812 
3 *141:8 *1315:A2 11.08 
4 *141:8 *141:25 7.204 
5 *141:25 *141:27 3.016 
6 *141:27 *141:37 14.304 
7 *141:37 *141:57 22.132 
8 *141:57 *1323:B 10.144 
9 *141:57 *1332:C 10.872 
10 *141:37 *1324:A2 4.5 
11 *141:27 *1283:A2 4.812 
12 *141:25 *1355:B1 19.948 
13 *141:4 *141:112 5.096 
14 *141:112 *141:114 4.5 
15 *141:114 *141:120 8.036 
16 *141:120 *1366:A2 15.58 
17 *141:120 *1360:B1 4.5 
18 *141:114 *141:140 3.848 
19 *141:140 *1371:B1 10.976 
20 *141:140 *141:151 1.56 
21 *141:151 *1350:B1 10.976 
22 *141:151 *1376:B1 30.528 
23 *141:112 *1345:B1 5.436 
*END

*D_NET *142 0.0630293
*CONN
*I *1433:A4 I *D gf180mcu_fd_sc_mcu7t5v0__nand4_1
*I *1328:C I *D gf180mcu_fd_sc_mcu7t5v0__oai211_1
*I *1326:A1 I *D gf180mcu_fd_sc_mcu7t5v0__nand2_1
*I *1513:B I *D gf180mcu_fd_sc_mcu7t5v0__oai21_1
*I *1515:A2 I *D gf180mcu_fd_sc_mcu7t5v0__nand2_1
*I *1606:A1 I *D gf180mcu_fd_sc_mcu7t5v0__and2_1
*I *1609:A1 I *D gf180mcu_fd_sc_mcu7t5v0__and2_1
*I *1432:A2 I *D gf180mcu_fd_sc_mcu7t5v0__nand2_1
*I *1292:A1 I *D gf180mcu_fd_sc_mcu7t5v0__nand3_1
*I *1303:A1 I *D gf180mcu_fd_sc_mcu7t5v0__nand3_1
*I *1297:A1 I *D gf180mcu_fd_sc_mcu7t5v0__nand3_1
*I *1288:B I *D gf180mcu_fd_sc_mcu7t5v0__oai21_1
*I *1648:B I *D gf180mcu_fd_sc_mcu7t5v0__oai21_1
*I *1651:C I *D gf180mcu_fd_sc_mcu7t5v0__oai211_1
*I *1298:B I *D gf180mcu_fd_sc_mcu7t5v0__oai21_1
*I *1293:B I *D gf180mcu_fd_sc_mcu7t5v0__oai21_1
*I *1265:ZN O *D gf180mcu_fd_sc_mcu7t5v0__clkinv_1
*CAP
1 *1433:A4 0
2 *1328:C 0.000350506
3 *1326:A1 3.95421e-05
4 *1513:B 0
5 *1515:A2 0.000851834
6 *1606:A1 0
7 *1609:A1 0.000408254
8 *1432:A2 0
9 *1292:A1 0
10 *1303:A1 9.13637e-05
11 *1297:A1 0.000158149
12 *1288:B 1.79153e-05
13 *1648:B 0.00113318
14 *1651:C 0.00041933
15 *1298:B 8.77334e-06
16 *1293:B 0.000373693
17 *1265:ZN 0.0017555
18 *142:222 0.000983783
19 *142:199 0.00169278
20 *142:184 0.00155138
21 *142:180 0.00240205
22 *142:159 0.00224535
23 *142:157 0.00109049
24 *142:147 0.000981978
25 *142:101 0.000249513
26 *142:99 0.000216294
27 *142:60 0.00133519
28 *142:50 0.000942843
29 *142:33 0.000616539
30 *142:25 0.000746419
31 *142:14 0.00256308
32 *1288:B *557:42 4.18042e-05
33 *1293:B *1293:A1 2.38656e-05
34 *1293:B *1523:A1 1.71324e-06
35 *1293:B *158:25 0.000134859
36 *1293:B *160:34 3.65975e-05
37 *1293:B *161:25 9.41125e-05
38 *1297:A1 *1292:A2 0.000424112
39 *1297:A1 *1292:A3 9.20244e-05
40 *1297:A1 *1299:A2 1.91879e-05
41 *1297:A1 *1303:A2 0.000561774
42 *1297:A1 *1354:A1 0.000236426
43 *1297:A1 *1641:A2 5.23324e-05
44 *1298:B *1299:A1 0.000113016
45 *1298:B *219:28 0.000113016
46 *1303:A1 *1303:A2 0.000582349
47 *1303:A1 *1312:A3 0.000188241
48 *1303:A1 *1363:I0 6.11661e-05
49 *1303:A1 *1641:A2 0.000184061
50 *1328:C *1324:B 0.000260055
51 *1328:C *1328:A1 0.000260618
52 *1328:C *1390:A4 7.95519e-06
53 *1328:C *1417:B1 8.24826e-05
54 *1328:C *193:22 3.4596e-05
55 *1328:C *193:26 4.27968e-05
56 *1328:C *193:28 3.61058e-05
57 *1328:C *193:30 1.90528e-05
58 *1515:A2 *1564:A1 2.73715e-06
59 *1515:A2 *1569:A1 0
60 *1515:A2 *1570:A2 0
61 *1515:A2 *1595:A2 0.000158673
62 *1515:A2 *1596:I1 0.000248324
63 *1515:A2 *356:14 0
64 *1515:A2 *393:8 9.62885e-05
65 *1515:A2 *463:16 0
66 *1515:A2 *484:14 0.00172934
67 *1515:A2 *485:28 0
68 *1609:A1 *1547:A2 0
69 *1609:A1 *1609:A2 0.000175302
70 *1609:A1 *565:10 1.78817e-06
71 *1648:B *1284:A1 0.000153764
72 *1648:B *1286:A1 8.44565e-06
73 *1648:B *1524:A2 1.15486e-05
74 *1648:B *150:78 0.00105024
75 *1648:B *154:59 0.000365179
76 *1648:B *161:10 0.000242689
77 *1648:B *504:26 0.000351244
78 *1648:B *504:46 0.000185295
79 *1651:C *1524:B 2.17484e-05
80 *1651:C *1649:A2 0.000113016
81 *1651:C *1650:A1 2.57864e-05
82 *1651:C *1651:B 0.000182208
83 *1651:C *158:10 0
84 *1651:C *160:12 0.000271764
85 *1651:C *160:16 0.000355286
86 *1651:C *160:25 0.000113027
87 *1651:C *504:46 3.56338e-05
88 *142:14 *1294:A2 0
89 *142:14 *1298:A2 0
90 *142:14 *1492:A2 2.66791e-05
91 *142:14 *1493:A2 0.000214724
92 *142:14 *1501:A1 1.8413e-05
93 *142:14 *1503:B1 0
94 *142:14 *1505:A1 0.00107278
95 *142:14 *1523:A1 0
96 *142:14 *1602:I1 0.000176623
97 *142:14 *1604:I0 0
98 *142:14 *158:25 1.60428e-05
99 *142:14 *158:36 0.000196277
100 *142:14 *161:25 7.63325e-05
101 *142:14 *343:18 1.99013e-05
102 *142:14 *458:20 7.43413e-05
103 *142:14 *466:25 0.00216928
104 *142:14 *492:324 0.000729296
105 *142:25 *1298:A2 2.19671e-06
106 *142:25 *1303:A3 0.00113175
107 *142:25 *161:25 0.000105973
108 *142:25 *458:20 0
109 *142:33 *1299:A1 0.000328552
110 *142:33 *1359:A2 3.37878e-06
111 *142:33 *219:28 0.000303184
112 *142:50 *1298:A1 2.33885e-05
113 *142:50 *1298:A2 0.000116476
114 *142:50 *1300:A1 0.000199998
115 *142:50 *1359:A2 0.000147017
116 *142:50 *219:28 3.07722e-06
117 *142:50 *504:46 0.000755098
118 *142:50 *557:42 3.99388e-05
119 *142:60 *1284:A1 0.00033778
120 *142:60 *1284:A2 0.000224754
121 *142:60 *1284:A4 0.000109278
122 *142:60 *154:81 0.000113027
123 *142:60 *219:28 0.000143815
124 *142:60 *504:46 0.000170708
125 *142:60 *557:6 5.13977e-05
126 *142:60 *557:42 0.000117701
127 *142:99 *1299:A1 0.000103788
128 *142:99 *1303:A3 0.000107648
129 *142:99 *1359:A2 0
130 *142:99 *1363:I0 0.000515535
131 *142:99 *1363:S 0.000103788
132 *142:99 *219:28 2.45102e-05
133 *142:99 *458:12 9.35542e-06
134 *142:147 *1436:B2 0.000366914
135 *142:147 *1730:CLK 0.00199944
136 *142:147 *154:22 0.000296083
137 *142:147 *282:12 2.22205e-05
138 *142:147 *447:131 0.000338134
139 *142:147 *504:26 0.00307059
140 *142:157 *1332:A1 0.000470972
141 *142:157 *1338:A1 0.000498612
142 *142:157 *1434:B1 8.93487e-05
143 *142:157 *1759:I 6.86591e-05
144 *142:157 *154:22 4.80972e-05
145 *142:157 *157:82 0.000305217
146 *142:157 *447:131 3.4596e-05
147 *142:159 *1432:A1 4.11879e-05
148 *142:159 *1436:A3 0.000217224
149 *142:159 *152:8 4.6157e-05
150 *142:159 *157:59 0.000490202
151 *142:159 *157:82 6.91919e-05
152 *142:159 *205:38 7.95519e-06
153 *142:180 *1276:A4 0.00019175
154 *142:180 *1306:A3 9.35542e-06
155 *142:180 *1306:A4 0.000617635
156 *142:180 *1320:A1 0.00100552
157 *142:180 *1321:A1 9.11686e-06
158 *142:180 *1393:A1 0.00078772
159 *142:180 *1403:A2 0.000257927
160 *142:180 *1444:A1 9.66619e-05
161 *142:180 *1547:B 0.000122694
162 *142:180 *205:38 0.000736224
163 *142:180 *249:10 0.000210108
164 *142:180 *253:12 0.000406919
165 *142:180 *288:10 0.000117979
166 *142:180 *447:68 1.01873e-05
167 *142:180 *492:72 0
168 *142:180 *565:36 0.000471838
169 *142:184 *1445:B1 2.13874e-05
170 *142:184 *1513:A1 0.000243774
171 *142:184 *1609:A2 8.80979e-05
172 *142:184 *291:10 9.36264e-05
173 *142:184 *565:10 3.56211e-05
174 *142:199 *1606:A2 0.000531148
175 *142:199 *1664:CLK 0
176 *142:199 *287:8 0.000100945
177 *142:199 *472:43 0
178 *142:199 *527:10 0.000832926
179 *142:222 *1317:A1 5.29105e-05
180 *142:222 *1317:A2 1.11438e-05
181 *142:222 *1331:A1 0.000179413
182 *142:222 *1332:A1 0
183 *142:222 *1333:A2 1.17431e-05
184 *142:222 *1338:A1 0
185 *142:222 *1386:B 0.00101588
186 *142:222 *1388:A4 7.63929e-06
187 *142:222 *1415:A2 0.000180208
188 *142:222 *1417:B1 0.000113962
189 *142:222 *1759:I 4.54968e-05
190 *142:222 *152:19 0.000262946
191 *142:222 *193:30 4.80795e-05
192 *142:222 *193:34 4.40795e-05
193 *142:222 *241:33 6.50665e-06
194 *1344:A1 *1651:C 1.63202e-05
195 *1436:B3 *142:147 0.000107831
196 *1524:A1 *1651:C 6.55399e-05
197 *1664:D *1609:A1 2.36218e-05
198 *1666:D *142:199 0
199 *1704:D *142:99 0.000185295
200 *1707:D *142:25 0.000438808
201 *1707:D *142:50 5.12394e-05
202 *1726:D *142:147 0.000281172
203 *11:16 *142:99 2.88595e-06
204 *112:16 *142:25 2.13186e-05
205 *128:29 *142:180 0.00139801
206 *131:31 *1651:C 4.0513e-05
207 *131:31 *142:60 2.35688e-05
*RES
1 *1265:ZN *142:14 30.868 
2 *142:14 *1293:B 7.308 
3 *142:14 *142:25 8.972 
4 *142:25 *142:33 6.06 
5 *142:33 *1298:B 4.812 
6 *142:33 *142:50 14.512 
7 *142:50 *142:60 9.7 
8 *142:60 *1651:C 13.16 
9 *142:60 *1648:B 15.448 
10 *142:50 *1288:B 4.812 
11 *142:25 *142:99 7.204 
12 *142:99 *142:101 4.5 
13 *142:101 *1297:A1 11.496 
14 *142:101 *1303:A1 10.976 
15 *142:99 *1292:A1 4.5 
16 *1648:B *142:147 25.564 
17 *142:147 *142:157 13.056 
18 *142:157 *142:159 2.184 
19 *142:159 *1432:A2 4.5 
20 *142:159 *142:180 30.84 
21 *142:180 *142:184 2.704 
22 *142:184 *1609:A1 7.828 
23 *142:184 *142:199 16.8 
24 *142:199 *1606:A1 4.5 
25 *142:199 *1515:A2 11.988 
26 *142:180 *1513:B 4.5 
27 *142:157 *142:222 10.22 
28 *142:222 *1326:A1 9.312 
29 *142:222 *1328:C 11.808 
30 *142:147 *1433:A4 4.5 
*END

*D_NET *143 0.0122904
*CONN
*I *1329:A1 I *D gf180mcu_fd_sc_mcu7t5v0__nor2_1
*I *1317:B1 I *D gf180mcu_fd_sc_mcu7t5v0__aoi22_1
*I *1308:B1 I *D gf180mcu_fd_sc_mcu7t5v0__aoi22_1
*I *1278:A1 I *D gf180mcu_fd_sc_mcu7t5v0__nand2_1
*I *1280:A1 I *D gf180mcu_fd_sc_mcu7t5v0__nand3_1
*I *1383:A2 I *D gf180mcu_fd_sc_mcu7t5v0__and4_1
*I *1384:A2 I *D gf180mcu_fd_sc_mcu7t5v0__nand4_1
*I *1266:ZN O *D gf180mcu_fd_sc_mcu7t5v0__clkinv_1
*CAP
1 *1329:A1 2.36137e-05
2 *1317:B1 9.78051e-05
3 *1308:B1 0.000281
4 *1278:A1 3.3635e-05
5 *1280:A1 0
6 *1383:A2 0
7 *1384:A2 5.88123e-05
8 *1266:ZN 0.000277435
9 *143:89 0.000259195
10 *143:68 0.000509971
11 *143:57 0.000332975
12 *143:46 0.000483755
13 *143:31 0.000472237
14 *143:12 0.000532875
15 *1278:A1 *1308:B2 4.07478e-05
16 *1278:A1 *179:24 4.61456e-05
17 *1278:A1 *205:38 0.000182208
18 *1308:B1 *1308:B2 7.02466e-05
19 *1308:B1 *1317:B2 0.000185295
20 *1308:B1 *149:27 2.81522e-06
21 *1308:B1 *150:12 0.000476186
22 *1308:B1 *150:19 0.000196357
23 *1308:B1 *175:22 0.000615862
24 *1308:B1 *179:16 0.000545367
25 *1308:B1 *205:38 7.18755e-06
26 *1317:B1 *1322:A2 6.8199e-07
27 *1317:B1 *1329:A2 5.13977e-05
28 *1317:B1 *1332:A2 0.000256285
29 *1317:B1 *1340:A2 0
30 *1317:B1 *175:22 0.000403896
31 *1329:A1 *1322:A2 1.60338e-05
32 *1384:A2 *552:8 3.4596e-05
33 *1384:A2 *561:21 6.64442e-05
34 *143:12 *1266:I 3.4596e-05
35 *143:12 *1383:A4 1.78561e-06
36 *143:12 *1543:I1 3.74622e-05
37 *143:12 *552:25 4.07904e-05
38 *143:12 *561:23 2.96915e-06
39 *143:12 *561:29 1.72254e-05
40 *143:12 *581:14 0.000334711
41 *143:12 *581:23 0.000105623
42 *143:31 *1383:A4 0.000262946
43 *143:31 *552:8 7.87395e-06
44 *143:31 *552:25 0
45 *143:31 *561:21 0.000368937
46 *143:46 *1280:A2 3.4596e-05
47 *143:46 *1383:A4 7.50694e-05
48 *143:46 *1434:A3 1.57245e-05
49 *143:46 *1434:B1 0.000497402
50 *143:46 *243:8 1.23748e-05
51 *143:46 *244:10 0
52 *143:46 *447:131 3.22108e-05
53 *143:46 *552:25 1.07369e-05
54 *143:46 *552:32 9.21299e-05
55 *143:57 *1280:A2 0.00017298
56 *143:57 *1331:A2 2.37133e-06
57 *143:57 *1386:C 0.000163104
58 *143:57 *157:59 0.000259996
59 *143:57 *447:131 5.25526e-05
60 *143:57 *552:36 0.000345391
61 *143:57 *552:47 0.000715996
62 *143:68 *1329:A2 3.70435e-05
63 *143:68 *157:59 0.000478241
64 *143:68 *552:47 8.05935e-05
65 *143:68 *552:65 9.87827e-05
66 *143:89 *1322:A2 4.38124e-05
67 *143:89 *1329:A2 0.000364309
68 *143:89 *1386:C 1.6467e-05
69 *143:89 *1388:A4 0.000174815
70 *143:89 *157:59 0.000251178
71 *143:89 *175:22 3.3698e-05
72 *143:89 *243:8 5.39728e-06
73 *1279:A1 *143:31 0.00011934
74 *1279:A1 *143:46 0.00011246
75 *1395:B2 *143:12 2.63994e-05
76 *128:40 *1384:A2 9.49602e-05
77 *128:40 *143:31 9.42848e-05
*RES
1 *1266:ZN *143:12 15.58 
2 *143:12 *1384:A2 5.228 
3 *143:12 *143:31 11.288 
4 *143:31 *1383:A2 4.5 
5 *143:31 *143:46 11.808 
6 *143:46 *1280:A1 4.5 
7 *143:46 *143:57 7.828 
8 *143:57 *1278:A1 9.52 
9 *143:57 *143:68 1.352 
10 *143:68 *1308:B1 13.576 
11 *143:68 *143:89 6.58 
12 *143:89 *1317:B1 6.164 
13 *143:89 *1329:A1 4.812 
*END

*D_NET *144 0.00518915
*CONN
*I *1433:A3 I *D gf180mcu_fd_sc_mcu7t5v0__nand4_1
*I *1277:A1 I *D gf180mcu_fd_sc_mcu7t5v0__nor2_1
*I *1330:A1 I *D gf180mcu_fd_sc_mcu7t5v0__nand2_1
*I *1267:ZN O *D gf180mcu_fd_sc_mcu7t5v0__clkinv_1
*CAP
1 *1433:A3 0.000474522
2 *1277:A1 0
3 *1330:A1 9.88506e-05
4 *1267:ZN 4.88945e-05
5 *144:16 0.000341707
6 *144:8 0.000766273
7 *1330:A1 *581:23 5.13977e-05
8 *1330:A1 *581:25 0.00036165
9 *1433:A3 *1267:I 0.000112311
10 *1433:A3 *1332:A1 8.37192e-05
11 *1433:A3 *154:22 0
12 *1433:A3 *447:131 9.52686e-05
13 *1433:A3 *504:26 1.823e-05
14 *144:16 *1332:A1 2.82894e-06
15 *144:16 *1433:A1 4.74266e-06
16 *144:16 *471:19 2.59405e-05
17 *144:16 *581:25 0.000366731
18 *144:16 *581:34 0.000106908
19 *1395:B2 *1330:A1 0.00105017
20 *1395:B2 *144:8 0.000256285
21 *1395:B2 *144:16 0.000803219
22 *1398:A1 *144:8 9.09864e-05
23 *1729:D *1433:A3 2.7332e-05
24 *1729:D *144:16 1.18566e-06
*RES
1 *1267:ZN *144:8 9.728 
2 *144:8 *144:16 7.724 
3 *144:16 *1330:A1 7.308 
4 *144:16 *1277:A1 4.5 
5 *144:8 *1433:A3 12.432 
*END

*D_NET *145 0.000491938
*CONN
*I *1310:A1 I *D gf180mcu_fd_sc_mcu7t5v0__nor2_1
*I *1268:ZN O *D gf180mcu_fd_sc_mcu7t5v0__clkinv_1
*CAP
1 *1310:A1 9.92551e-05
2 *1268:ZN 9.92551e-05
3 *1310:A1 *1412:A2 0.000146714
4 *1310:A1 *246:14 0.000146714
*RES
1 *1268:ZN *1310:A1 10.144 
*END

*D_NET *146 0.00824016
*CONN
*I *1276:A3 I *D gf180mcu_fd_sc_mcu7t5v0__nand4_1
*I *1306:A1 I *D gf180mcu_fd_sc_mcu7t5v0__and4_1
*I *1307:A2 I *D gf180mcu_fd_sc_mcu7t5v0__nand4_1
*I *1399:A1 I *D gf180mcu_fd_sc_mcu7t5v0__nor2_1
*I *1403:A1 I *D gf180mcu_fd_sc_mcu7t5v0__aoi211_1
*I *1269:ZN O *D gf180mcu_fd_sc_mcu7t5v0__clkinv_1
*CAP
1 *1276:A3 0.000156397
2 *1306:A1 0
3 *1307:A2 0.000208625
4 *1399:A1 0.000155941
5 *1403:A1 1.39585e-05
6 *1269:ZN 0.000102495
7 *146:30 0.000827334
8 *146:10 0.000271008
9 *146:6 0.000665915
10 *1276:A3 *1276:A1 0.000188435
11 *1276:A3 *1276:A4 0.000274212
12 *1276:A3 *1306:A2 3.4596e-05
13 *1307:A2 *1321:A2 3.70435e-05
14 *1307:A2 *149:14 0.000199998
15 *1307:A2 *149:18 0.000274703
16 *1307:A2 *189:12 0.000425774
17 *1307:A2 *450:85 0.000171724
18 *1307:A2 *450:87 6.17392e-05
19 *1399:A1 *1403:B 1.22975e-05
20 *1399:A1 *1403:C 8.38973e-05
21 *1399:A1 *257:10 0.000118049
22 *1399:A1 *449:41 0.000365251
23 *1399:A1 *449:56 0.000410485
24 *1403:A1 *205:38 0.000111075
25 *1403:A1 *248:10 2.88703e-05
26 *146:6 *1389:A1 1.65142e-05
27 *146:6 *1393:A2 4.82603e-06
28 *146:6 *253:12 1.53641e-05
29 *146:6 *449:17 0.000169324
30 *146:10 *1403:A2 0.000452121
31 *146:10 *253:12 0.000189208
32 *146:10 *449:30 0.00047559
33 *146:10 *449:41 0.000329014
34 *146:30 *1276:A1 0.000626863
35 *146:30 *1306:A2 0.000185295
36 *146:30 *1306:A3 0.000158606
37 *146:30 *1321:A1 0.000146297
38 *146:30 *1393:A1 9.61308e-05
39 *146:30 *1393:A2 3.57634e-06
40 *146:30 *253:12 1.17668e-05
41 *146:30 *447:68 0.00012524
42 *1719:D *1403:A1 3.4596e-05
*RES
1 *1269:ZN *146:6 5.228 
2 *146:6 *146:10 6.684 
3 *146:10 *1403:A1 9.312 
4 *146:10 *1399:A1 11.184 
5 *146:6 *146:30 4.888 
6 *146:30 *1307:A2 16.516 
7 *146:30 *1306:A1 4.5 
8 *146:30 *1276:A3 6.268 
*END

*D_NET *147 0.000798232
*CONN
*I *1369:B2 I *D gf180mcu_fd_sc_mcu7t5v0__aoi22_1
*I *1270:ZN O *D gf180mcu_fd_sc_mcu7t5v0__clkinv_1
*CAP
1 *1369:B2 0.00012725
2 *1270:ZN 0.00012725
3 *1369:B2 *1363:S 2.64838e-05
4 *1369:B2 *176:41 2.90808e-05
5 *1369:B2 *208:27 6.0702e-05
6 *1369:B2 *491:30 0.000311611
7 *1369:B2 *554:19 0.000115856
*RES
1 *1270:ZN *1369:B2 19.56 
*END

*D_NET *148 0.00351996
*CONN
*I *1343:B1 I *D gf180mcu_fd_sc_mcu7t5v0__aoi22_1
*I *1271:ZN O *D gf180mcu_fd_sc_mcu7t5v0__clkinv_1
*CAP
1 *1343:B1 0.000668213
2 *1271:ZN 0.000668213
3 *1343:B1 *1264:I 4.84332e-05
4 *1343:B1 *1315:C 1.94605e-05
5 *1343:B1 *1318:A2 4.69619e-06
6 *1343:B1 *1709:CLK 0.000113016
7 *1343:B1 *186:12 0.000170899
8 *1343:B1 *208:27 0.000675435
9 *1343:B1 *478:121 6.05423e-05
10 *1343:B1 *488:109 3.77438e-05
11 *1343:B1 *491:30 0.000928053
12 *141:25 *1343:B1 0.000114515
13 *141:27 *1343:B1 1.07369e-05
*RES
1 *1271:ZN *1343:B1 24.968 
*END

*D_NET *149 0.0106975
*CONN
*I *1311:A1 I *D gf180mcu_fd_sc_mcu7t5v0__nand3_1
*I *1307:A1 I *D gf180mcu_fd_sc_mcu7t5v0__nand4_1
*I *1308:A1 I *D gf180mcu_fd_sc_mcu7t5v0__aoi22_1
*I *1276:A2 I *D gf180mcu_fd_sc_mcu7t5v0__nand4_1
*I *1321:A3 I *D gf180mcu_fd_sc_mcu7t5v0__nand4_1
*I *1320:A3 I *D gf180mcu_fd_sc_mcu7t5v0__and4_1
*I *1275:ZN O *D gf180mcu_fd_sc_mcu7t5v0__nor4_1
*CAP
1 *1311:A1 1.87038e-05
2 *1307:A1 4.67735e-05
3 *1308:A1 0
4 *1276:A2 0
5 *1321:A3 0.000358347
6 *1320:A3 0.00020808
7 *1275:ZN 0.000700351
8 *149:31 0.000595664
9 *149:27 0.000384594
10 *149:18 0.000366108
11 *149:14 0.000680658
12 *149:10 0.00134219
13 *1307:A1 *1307:A3 8.44565e-06
14 *1311:A1 *1407:B 1.60428e-05
15 *1311:A1 *1412:A2 0.000122244
16 *1320:A3 *205:38 0.00030898
17 *1320:A3 *450:81 0
18 *1321:A3 *1321:A2 0
19 *1321:A3 *189:12 5.72836e-05
20 *1321:A3 *244:10 0
21 *1321:A3 *447:131 0.000256274
22 *149:10 *1275:A1 0.00017298
23 *149:10 *1311:A2 2.79795e-05
24 *149:10 *1380:A2 0.000130913
25 *149:10 *1413:A3 0
26 *149:10 *1413:A4 4.33313e-05
27 *149:10 *1423:A1 6.50535e-05
28 *149:10 *1610:A2 0.000764506
29 *149:10 *1622:A1 0.000605863
30 *149:10 *1797:I 0.000158512
31 *149:10 *241:12 3.62815e-05
32 *149:10 *452:14 3.4596e-05
33 *149:10 *454:14 4.51575e-05
34 *149:14 *1311:A2 2.05858e-05
35 *149:14 *1322:A2 1.69737e-05
36 *149:14 *1413:A3 5.98832e-05
37 *149:14 *179:10 0
38 *149:14 *189:12 0.000100317
39 *149:14 *450:85 0.000325271
40 *149:18 *450:85 0.000283521
41 *149:27 *1308:A2 0.000247057
42 *149:27 *175:22 6.09406e-06
43 *149:27 *205:38 6.96851e-05
44 *149:27 *248:10 0
45 *149:31 *150:8 6.03552e-05
46 *149:31 *176:20 1.90528e-05
47 *149:31 *189:12 0.000150492
48 *149:31 *244:10 0
49 *1307:A2 *149:14 0.000199998
50 *1307:A2 *149:18 0.000274703
51 *1308:B1 *149:27 2.81522e-06
52 *1688:D *149:10 0.00125389
53 *1689:D *149:10 1.0639e-05
54 *128:29 *1321:A3 4.02644e-05
*RES
1 *1275:ZN *149:10 17.528 
2 *149:10 *149:14 4.992 
3 *149:14 *149:18 5.228 
4 *149:18 *1320:A3 6.06 
5 *149:18 *149:27 1.352 
6 *149:27 *149:31 6.476 
7 *149:31 *1321:A3 11.496 
8 *149:31 *1276:A2 9 
9 *149:27 *1308:A1 4.5 
10 *149:14 *1307:A1 9.312 
11 *149:10 *1311:A1 9.312 
*END

*D_NET *150 0.0194183
*CONN
*I *1392:A4 I *D gf180mcu_fd_sc_mcu7t5v0__nand4_1
*I *1316:A1 I *D gf180mcu_fd_sc_mcu7t5v0__nand2_1
*I *1287:A1 I *D gf180mcu_fd_sc_mcu7t5v0__or4_1
*I *1284:A1 I *D gf180mcu_fd_sc_mcu7t5v0__nor4_1
*I *1285:A1 I *D gf180mcu_fd_sc_mcu7t5v0__or4_1
*I *1286:A1 I *D gf180mcu_fd_sc_mcu7t5v0__nor4_1
*I *1385:A1 I *D gf180mcu_fd_sc_mcu7t5v0__nand3_1
*I *1317:A1 I *D gf180mcu_fd_sc_mcu7t5v0__aoi22_1
*I *1388:A1 I *D gf180mcu_fd_sc_mcu7t5v0__nand4_1
*I *1276:ZN O *D gf180mcu_fd_sc_mcu7t5v0__nand4_1
*CAP
1 *1392:A4 0.00011777
2 *1316:A1 0.000190991
3 *1287:A1 0
4 *1284:A1 5.49083e-05
5 *1285:A1 0
6 *1286:A1 0.000144921
7 *1385:A1 0
8 *1317:A1 0.000131681
9 *1388:A1 0
10 *1276:ZN 0.000139618
11 *150:78 0.000243819
12 *150:63 0.000514065
13 *150:59 0.00104158
14 *150:51 0.00127023
15 *150:42 0.000503654
16 *150:19 0.000604185
17 *150:12 0.000292553
18 *150:8 0.000363193
19 *1284:A1 *154:81 6.53324e-05
20 *1284:A1 *504:46 0.000114515
21 *1286:A1 *1286:A4 0.000416808
22 *1286:A1 *1524:A2 0.000113016
23 *1286:A1 *323:30 4.6145e-05
24 *1316:A1 *1281:I 6.35093e-06
25 *1316:A1 *179:64 0.000194522
26 *1316:A1 *179:75 4.07478e-05
27 *1316:A1 *208:14 0
28 *1316:A1 *208:27 0
29 *1316:A1 *492:251 0.000379422
30 *1317:A1 *1317:A2 0.000156435
31 *1392:A4 *175:22 0.00017298
32 *1392:A4 *176:20 0.00029
33 *1392:A4 *189:27 1.23478e-05
34 *1392:A4 *244:10 5.08075e-05
35 *1392:A4 *248:10 0.00017298
36 *150:8 *176:20 0.000364104
37 *150:8 *244:10 0.000189974
38 *150:12 *1308:B2 6.97816e-05
39 *150:12 *179:24 4.18157e-05
40 *150:19 *1317:B2 0.00106402
41 *150:19 *179:24 3.61968e-05
42 *150:19 *189:44 0.00128948
43 *150:42 *1317:B2 3.4596e-05
44 *150:42 *175:22 0.00018204
45 *150:42 *179:49 0.000301218
46 *150:42 *189:44 0.0010681
47 *150:42 *577:26 5.04371e-05
48 *150:51 *1322:A1 0.000419265
49 *150:51 *1385:A2 0.000112449
50 *150:51 *152:31 0.000183059
51 *150:51 *175:22 1.73223e-05
52 *150:59 *1281:I 0.000106025
53 *150:59 *1313:A1 0.000106908
54 *150:59 *1313:A2 0.000115371
55 *150:59 *152:31 0.000431375
56 *150:59 *175:31 0
57 *150:59 *219:28 0.00051108
58 *150:59 *455:12 0.000205662
59 *150:59 *492:251 0.000438808
60 *150:63 *1286:A3 5.23324e-05
61 *150:63 *1286:A4 0.000177551
62 *150:63 *1287:A2 3.44502e-05
63 *150:63 *1479:A2 3.52832e-05
64 *150:63 *323:30 7.46648e-05
65 *150:78 *154:59 0.000242172
66 *150:78 *154:81 0.000287766
67 *1308:B1 *150:12 0.000476186
68 *1308:B1 *150:19 0.000196357
69 *1648:B *1284:A1 0.000153764
70 *1648:B *1286:A1 8.44565e-06
71 *1648:B *150:78 0.00105024
72 *141:57 *150:42 0.000993402
73 *142:60 *1284:A1 0.00033778
74 *142:222 *1317:A1 5.29105e-05
75 *149:31 *150:8 6.03552e-05
*RES
1 *1276:ZN *150:8 10.976 
2 *150:8 *150:12 5.852 
3 *150:12 *1388:A1 4.5 
4 *150:12 *150:19 4.056 
5 *150:19 *1317:A1 14.644 
6 *150:19 *150:42 23.2 
7 *150:42 *1385:A1 4.5 
8 *150:42 *150:51 6.892 
9 *150:51 *150:59 13.34 
10 *150:59 *150:63 6.268 
11 *150:63 *1286:A1 10.456 
12 *150:63 *150:78 7.516 
13 *150:78 *1285:A1 4.5 
14 *150:78 *1284:A1 5.852 
15 *150:59 *1287:A1 4.5 
16 *150:51 *1316:A1 10.664 
17 *150:8 *1392:A4 10.456 
*END

*D_NET *151 0.00532324
*CONN
*I *1332:A1 I *D gf180mcu_fd_sc_mcu7t5v0__oai211_1
*I *1277:ZN O *D gf180mcu_fd_sc_mcu7t5v0__nor2_1
*CAP
1 *1332:A1 0.000863429
2 *1277:ZN 0.000863429
3 *1332:A1 *1317:A2 0.000116369
4 *1332:A1 *1322:A2 1.41468e-05
5 *1332:A1 *1338:A1 0.00107325
6 *1332:A1 *1340:A2 0.00031444
7 *1332:A1 *1433:A1 0.000917885
8 *1332:A1 *1433:A2 0.000245811
9 *1332:A1 *1759:I 9.31488e-05
10 *1332:A1 *447:131 1.42728e-05
11 *1332:C *1332:A1 2.38773e-05
12 *1395:B2 *1332:A1 0.000175906
13 *1398:A1 *1332:A1 4.97628e-05
14 *1433:A3 *1332:A1 8.37192e-05
15 *142:157 *1332:A1 0.000470972
16 *142:222 *1332:A1 0
17 *144:16 *1332:A1 2.82894e-06
*RES
1 *1277:ZN *1332:A1 27.256 
*END

*D_NET *152 0.0247881
*CONN
*I *1386:B I *D gf180mcu_fd_sc_mcu7t5v0__aoi211_1
*I *1318:A1 I *D gf180mcu_fd_sc_mcu7t5v0__nand2_1
*I *1344:A2 I *D gf180mcu_fd_sc_mcu7t5v0__and4_1
*I *1349:A2 I *D gf180mcu_fd_sc_mcu7t5v0__and4_1
*I *1312:A1 I *D gf180mcu_fd_sc_mcu7t5v0__nand3_1
*I *1365:A1 I *D gf180mcu_fd_sc_mcu7t5v0__nand3_1
*I *1314:A1 I *D gf180mcu_fd_sc_mcu7t5v0__nand3_1
*I *1331:A1 I *D gf180mcu_fd_sc_mcu7t5v0__aoi21_1
*I *1278:ZN O *D gf180mcu_fd_sc_mcu7t5v0__nand2_1
*CAP
1 *1386:B 0.000372608
2 *1318:A1 6.07099e-05
3 *1344:A2 0
4 *1349:A2 0
5 *1312:A1 0.000604719
6 *1365:A1 0
7 *1314:A1 0
8 *1331:A1 7.43793e-05
9 *1278:ZN 0.000109632
10 *152:56 0.000781978
11 *152:52 0.000467503
12 *152:44 0.000710762
13 *152:33 0.000420518
14 *152:31 0.001143
15 *152:19 0.00150431
16 *152:8 0.000233421
17 *1312:A1 *1312:A2 0.00146027
18 *1312:A1 *1359:A1 0.00106894
19 *1312:A1 *1359:A2 7.14128e-05
20 *1312:A1 *1363:S 0.000772922
21 *1312:A1 *1707:CLK 5.81652e-05
22 *1312:A1 *1714:CLK 0.000306834
23 *1312:A1 *491:30 1.32276e-05
24 *1318:A1 *1313:A1 0.000179413
25 *1318:A1 *1315:C 7.12475e-05
26 *1318:A1 *553:38 9.96631e-05
27 *1331:A1 *1338:A1 1.23748e-05
28 *1331:A1 *1386:C 3.35755e-05
29 *1331:A1 *1759:I 4.97341e-06
30 *1386:B *1322:A2 0.000480913
31 *1386:B *1386:A1 1.07369e-05
32 *1386:B *1386:A2 0.000125984
33 *1386:B *1386:C 9.65672e-05
34 *1386:B *1388:A4 2.22066e-05
35 *152:8 *157:59 0.000480985
36 *152:8 *157:82 3.4596e-05
37 *152:8 *205:38 0.000382831
38 *152:19 *1386:C 3.52044e-05
39 *152:31 *1281:I 2.38656e-05
40 *152:31 *1313:A1 0.000334711
41 *152:31 *1314:A3 8.56628e-05
42 *152:31 *175:22 0.000476454
43 *152:31 *179:24 0.000569964
44 *152:31 *179:49 0.00137129
45 *152:31 *205:38 0.000861958
46 *152:31 *219:28 0.000237838
47 *152:31 *553:38 9.03002e-05
48 *152:44 *1315:C 0.000198469
49 *152:44 *1710:CLK 8.56628e-05
50 *152:44 *175:31 0.00189708
51 *152:44 *179:75 2.73715e-06
52 *152:44 *179:90 0.000331219
53 *152:52 *1285:A4 0
54 *152:52 *1479:A2 5.35037e-05
55 *152:52 *175:35 2.85151e-05
56 *152:52 *175:44 1.12327e-05
57 *152:52 *219:28 0
58 *152:52 *554:19 0.000122905
59 *152:56 *1285:A4 1.85523e-05
60 *152:56 *1363:S 0.000663763
61 *152:56 *159:8 3.23905e-05
62 *152:56 *175:44 1.85523e-05
63 *152:56 *219:28 8.21146e-06
64 DAT_O[6] *1312:A1 0.000331109
65 *1344:A1 *152:52 8.21498e-05
66 *1349:A1 *1312:A1 0.000639156
67 *1349:A1 *152:56 0.000966936
68 *1695:D *1312:A1 0.000786975
69 *141:57 *152:31 3.14958e-05
70 *142:159 *152:8 4.6157e-05
71 *142:222 *1331:A1 0.000179413
72 *142:222 *1386:B 0.00101588
73 *142:222 *152:19 0.000262946
74 *150:51 *152:31 0.000183059
75 *150:59 *152:31 0.000431375
*RES
1 *1278:ZN *152:8 10.768 
2 *152:8 *1331:A1 9.728 
3 *152:8 *152:19 0.728 
4 *152:19 *152:31 22.728 
5 *152:31 *152:33 4.5 
6 *152:33 *1314:A1 4.5 
7 *152:33 *152:44 5.928 
8 *152:44 *152:52 11.288 
9 *152:52 *152:56 3.536 
10 *152:56 *1365:A1 4.5 
11 *152:56 *1312:A1 23.588 
12 *152:52 *1349:A2 4.5 
13 *152:44 *1344:A2 4.5 
14 *152:31 *1318:A1 10.144 
15 *152:19 *1386:B 13.16 
*END

*D_NET *153 0.00510295
*CONN
*I *1386:C I *D gf180mcu_fd_sc_mcu7t5v0__aoi211_1
*I *1280:A2 I *D gf180mcu_fd_sc_mcu7t5v0__nand3_1
*I *1279:ZN O *D gf180mcu_fd_sc_mcu7t5v0__nand2_1
*CAP
1 *1386:C 0.000701054
2 *1280:A2 0.000174278
3 *1279:ZN 0.000386142
4 *153:12 0.00126147
5 *1280:A2 *1434:B1 4.10453e-05
6 *1280:A2 *154:22 6.87156e-05
7 *1280:A2 *447:131 1.12327e-05
8 *1386:C *1322:A2 0.000105483
9 *1386:C *1331:A2 5.3714e-05
10 *1386:C *1338:A1 0
11 *1386:C *1388:A4 0.000365181
12 *1386:C *1436:A3 8.48683e-06
13 *1386:C *1759:I 0
14 *1386:C *157:59 0.000356358
15 *153:12 *1331:A2 0.000100176
16 *153:12 *1433:A1 2.55592e-05
17 *153:12 *1434:B1 9.09888e-05
18 *153:12 *1759:I 0.000570592
19 *153:12 *154:22 0.000229976
20 *1331:A1 *1386:C 3.35755e-05
21 *1386:B *1386:C 9.65672e-05
22 *143:46 *1280:A2 3.4596e-05
23 *143:57 *1280:A2 0.00017298
24 *143:57 *1386:C 0.000163104
25 *143:89 *1386:C 1.6467e-05
26 *152:19 *1386:C 3.52044e-05
*RES
1 *1279:ZN *153:12 17.452 
2 *153:12 *1280:A2 5.956 
3 *153:12 *1386:C 19.324 
*END

*D_NET *154 0.0201082
*CONN
*I *1284:A2 I *D gf180mcu_fd_sc_mcu7t5v0__nor4_1
*I *1285:A2 I *D gf180mcu_fd_sc_mcu7t5v0__or4_1
*I *1287:A2 I *D gf180mcu_fd_sc_mcu7t5v0__or4_1
*I *1286:A2 I *D gf180mcu_fd_sc_mcu7t5v0__nor4_1
*I *1281:I I *D gf180mcu_fd_sc_mcu7t5v0__clkinv_1
*I *1323:A1 I *D gf180mcu_fd_sc_mcu7t5v0__oai21_1
*I *1436:A1 I *D gf180mcu_fd_sc_mcu7t5v0__oai33_1
*I *1280:ZN O *D gf180mcu_fd_sc_mcu7t5v0__nand3_1
*CAP
1 *1284:A2 1.96251e-05
2 *1285:A2 0
3 *1287:A2 4.80364e-05
4 *1286:A2 9.21278e-05
5 *1281:I 0.000248075
6 *1323:A1 0.000207348
7 *1436:A1 0
8 *1280:ZN 0.000790777
9 *154:81 0.000177077
10 *154:61 0.000140164
11 *154:59 0.000806805
12 *154:35 0.000596207
13 *154:31 0.00101702
14 *154:22 0.00101765
15 *1281:I *175:22 0.000113016
16 *1281:I *488:109 0
17 *1281:I *492:251 3.25001e-05
18 *1284:A2 *1284:A4 0.000265501
19 *1286:A2 *1286:A3 0.000722582
20 *1286:A2 *1479:A2 0.000702007
21 *1287:A2 *1286:A3 0.00014647
22 *1287:A2 *1479:A2 0.000331771
23 *1323:A1 *1323:A2 7.2624e-05
24 *1323:A1 *157:82 0.00181874
25 *1323:A1 *219:28 0.00208334
26 *154:22 *1267:I 5.71995e-05
27 *154:22 *1433:A2 0.000103788
28 *154:22 *1434:A2 7.3514e-05
29 *154:22 *1434:B1 2.47121e-05
30 *154:22 *1729:CLK 4.4504e-06
31 *154:22 *282:12 1.07369e-05
32 *154:22 *447:131 0.00137731
33 *154:22 *504:26 0.000250221
34 *154:31 *1436:B2 0.000707775
35 *154:31 *282:12 5.17348e-05
36 *154:31 *447:131 0.000536423
37 *154:31 *504:26 6.03875e-05
38 *154:35 *1757:I 0.000342463
39 *154:35 *488:109 0
40 *154:35 *492:251 8.35178e-06
41 *154:59 *447:131 0.000957174
42 *154:59 *447:133 1.71326e-05
43 *154:59 *447:151 3.22108e-05
44 *154:59 *504:26 0.000210119
45 *154:81 *1284:A4 0.000609308
46 *154:81 *447:151 0.00049014
47 *1280:A2 *154:22 6.87156e-05
48 *1284:A1 *154:81 6.53324e-05
49 *1316:A1 *1281:I 6.35093e-06
50 *1431:A1 *154:22 0
51 *1433:A3 *154:22 0
52 *1648:B *154:59 0.000365179
53 *1726:D *154:22 6.35093e-06
54 *1729:D *154:22 1.95034e-05
55 *1730:D *154:31 0.000488468
56 *131:31 *154:59 0.000107431
57 *142:60 *1284:A2 0.000224754
58 *142:60 *154:81 0.000113027
59 *142:147 *154:22 0.000296083
60 *142:157 *154:22 4.80972e-05
61 *150:59 *1281:I 0.000106025
62 *150:63 *1287:A2 3.44502e-05
63 *150:78 *154:59 0.000242172
64 *150:78 *154:81 0.000287766
65 *152:31 *1281:I 2.38656e-05
66 *153:12 *154:22 0.000229976
*RES
1 *1280:ZN *154:22 22.34 
2 *154:22 *1436:A1 4.5 
3 *154:22 *154:31 3.744 
4 *154:31 *154:35 5.644 
5 *154:35 *1323:A1 14.928 
6 *154:35 *1281:I 11.08 
7 *154:31 *154:59 7.696 
8 *154:59 *154:61 4.5 
9 *154:61 *1286:A2 10.976 
10 *154:61 *1287:A2 9.936 
11 *154:59 *154:81 3.016 
12 *154:81 *1285:A2 4.5 
13 *154:81 *1284:A2 5.228 
*END

*D_NET *155 0.00178598
*CONN
*I *1322:A1 I *D gf180mcu_fd_sc_mcu7t5v0__aoi21_1
*I *1281:ZN O *D gf180mcu_fd_sc_mcu7t5v0__clkinv_1
*CAP
1 *1322:A1 0.000214449
2 *1281:ZN 0.000214449
3 *1322:A1 *175:22 0.000149923
4 *1322:A1 *179:49 0.000116466
5 *1322:A1 *179:64 0.000179413
6 *1322:A1 *190:10 0.000115388
7 *1322:A1 *282:12 0.000174071
8 *1322:A1 *492:251 9.59778e-05
9 *1322:A1 *577:37 0.000106581
10 *150:51 *1322:A1 0.000419265
*RES
1 *1281:ZN *1322:A1 21.328 
*END

*D_NET *156 0.0103386
*CONN
*I *1328:A2 I *D gf180mcu_fd_sc_mcu7t5v0__oai211_1
*I *1334:B I *D gf180mcu_fd_sc_mcu7t5v0__aoi21_1
*I *1433:A2 I *D gf180mcu_fd_sc_mcu7t5v0__nand4_1
*I *1282:ZN O *D gf180mcu_fd_sc_mcu7t5v0__nor2_1
*CAP
1 *1328:A2 0.000143226
2 *1334:B 0.000119805
3 *1433:A2 0.000334632
4 *1282:ZN 0.000287955
5 *156:29 0.000308201
6 *156:16 0.000667756
7 *1328:A2 *1338:A1 0.000359903
8 *1328:A2 *1390:A4 0.000500761
9 *1328:A2 *193:26 0
10 *1328:A2 *193:28 0
11 *1328:A2 *194:8 0.000500761
12 *1328:A2 *204:10 0.000528636
13 *1334:B *1429:A3 0.000171397
14 *1334:B *579:65 0.000171397
15 *1433:A2 *1338:A1 0.00156422
16 *1433:A2 *1340:A1 9.96631e-05
17 *1433:A2 *447:131 0.000530182
18 *1433:A2 *504:26 3.01933e-05
19 *156:16 *1322:A2 0.000705795
20 *156:16 *1385:A3 8.1598e-06
21 *156:16 *1429:A3 4.44654e-05
22 *156:16 *200:12 0.000254486
23 *156:16 *205:14 9.88256e-05
24 *156:16 *205:38 1.823e-05
25 *156:16 *208:14 0.000371515
26 *156:29 *1338:A1 0.000380579
27 *156:29 *204:10 0.000258582
28 *1323:B *1433:A2 0.000412354
29 *1332:A1 *1433:A2 0.000245811
30 *1332:B *1433:A2 6.88313e-05
31 *1332:B *156:29 3.76797e-05
32 *1332:C *1433:A2 0.000537638
33 *1340:C *156:16 0.000454958
34 *140:72 *156:29 1.823e-05
35 *154:22 *1433:A2 0.000103788
*RES
1 *1282:ZN *156:16 21.848 
2 *156:16 *1433:A2 15.448 
3 *156:16 *156:29 1.144 
4 *156:29 *1334:B 10.352 
5 *156:29 *1328:A2 11.912 
*END

*D_NET *157 0.0330381
*CONN
*I *1381:A1 I *D gf180mcu_fd_sc_mcu7t5v0__nand2_1
*I *1391:A1 I *D gf180mcu_fd_sc_mcu7t5v0__aoi21_1
*I *1386:A1 I *D gf180mcu_fd_sc_mcu7t5v0__aoi211_1
*I *1284:A3 I *D gf180mcu_fd_sc_mcu7t5v0__nor4_1
*I *1285:A3 I *D gf180mcu_fd_sc_mcu7t5v0__or4_1
*I *1286:A3 I *D gf180mcu_fd_sc_mcu7t5v0__nor4_1
*I *1287:A3 I *D gf180mcu_fd_sc_mcu7t5v0__or4_1
*I *1331:B I *D gf180mcu_fd_sc_mcu7t5v0__aoi21_1
*I *1424:A1 I *D gf180mcu_fd_sc_mcu7t5v0__nand3_1
*I *1335:A1 I *D gf180mcu_fd_sc_mcu7t5v0__nand2_1
*I *1380:A1 I *D gf180mcu_fd_sc_mcu7t5v0__and2_1
*I *1283:ZN O *D gf180mcu_fd_sc_mcu7t5v0__nand2_1
*CAP
1 *1381:A1 0.00032931
2 *1391:A1 2.88222e-05
3 *1386:A1 3.04682e-05
4 *1284:A3 2.96064e-05
5 *1285:A3 0
6 *1286:A3 0.000124732
7 *1287:A3 0
8 *1331:B 0
9 *1424:A1 1.3848e-05
10 *1335:A1 0
11 *1380:A1 0.000276127
12 *1283:ZN 0.000836475
13 *157:102 0.000134867
14 *157:89 0.000238759
15 *157:82 0.00102447
16 *157:59 0.00137997
17 *157:53 0.000514334
18 *157:51 0.00023839
19 *157:49 0.000562195
20 *157:36 0.000257396
21 *157:16 0.000426589
22 *157:8 0.00108757
23 *1284:A3 *1284:A4 0.000387745
24 *1284:A3 *219:28 0.000334265
25 *1286:A3 *1286:A4 0.000866123
26 *1286:A3 *1479:A2 6.11661e-05
27 *1380:A1 *1425:A2 3.18325e-05
28 *1380:A1 *203:18 3.4596e-05
29 *1380:A1 *241:29 0.000190723
30 *1380:A1 *272:6 4.29536e-05
31 *1381:A1 *1380:A2 5.13977e-05
32 *1381:A1 *1412:A2 0.000138807
33 *1381:A1 *193:93 0.000194511
34 *1381:A1 *193:106 0.000671873
35 *1381:A1 *206:14 0.000274374
36 *1386:A1 *1322:A2 4.16532e-05
37 *1386:A1 *1386:A2 7.60693e-05
38 *1391:A1 *1335:A2 3.17817e-05
39 *1391:A1 *206:14 0.000194511
40 *1424:A1 *1390:A3 0.000122244
41 *1424:A1 *1424:A2 1.07369e-05
42 *1424:A1 *1425:A3 1.91879e-05
43 *157:8 *1372:A4 4.31836e-05
44 *157:8 *1382:A1 0.000138578
45 *157:8 *1430:A1 0.000102761
46 *157:8 *1430:A2 5.63044e-06
47 *157:8 *1440:A2 0.00120092
48 *157:8 *203:18 4.9984e-05
49 *157:8 *242:8 0.000388831
50 *157:8 *492:228 0.00183151
51 *157:8 *492:232 7.46298e-05
52 *157:8 *492:249 0.000222291
53 *157:16 *1335:A2 0.000352357
54 *157:16 *1406:A4 2.76367e-05
55 *157:16 *1425:A3 0.000343539
56 *157:16 *242:8 0.000374809
57 *157:16 *251:27 1.57138e-05
58 *157:16 *492:228 0.000123111
59 *157:36 *1424:A2 2.60017e-05
60 *157:36 *1424:A3 0.000271764
61 *157:36 *1610:A1 8.12752e-05
62 *157:36 *241:31 2.82894e-06
63 *157:36 *251:27 0.000134086
64 *157:49 *1390:A3 0.000153764
65 *157:49 *1424:A2 0.000164697
66 *157:49 *241:33 6.51414e-06
67 *157:49 *251:27 3.92713e-05
68 *157:51 *1392:A1 3.74622e-05
69 *157:51 *241:33 5.03091e-05
70 *157:51 *251:27 5.89069e-06
71 *157:53 *1388:A4 0.00019118
72 *157:53 *1392:A1 0.000134677
73 *157:53 *241:33 8.51675e-05
74 *157:59 *1388:A4 0.000476827
75 *157:59 *1392:A1 2.19008e-05
76 *157:59 *243:8 0
77 *157:82 *1323:A2 0.000280946
78 *157:82 *1338:A1 1.25461e-05
79 *157:82 *1436:A3 0.000176877
80 *157:82 *205:38 0.000976171
81 *157:82 *219:28 0.0020443
82 *157:82 *447:131 0.00304763
83 *157:82 *447:151 4.07478e-05
84 *157:82 *504:26 0.000257295
85 *157:89 *219:28 0.000113016
86 *157:89 *447:151 7.22679e-05
87 *157:102 *1284:A4 0.000477837
88 *157:102 *219:28 0.000993345
89 *157:102 *447:151 0.000515509
90 *1283:A1 *157:8 6.32132e-05
91 *1286:A2 *1286:A3 0.000722582
92 *1287:A2 *1286:A3 0.00014647
93 *1323:A1 *157:82 0.00181874
94 *1386:B *1386:A1 1.07369e-05
95 *1386:C *157:59 0.000356358
96 *142:157 *157:82 0.000305217
97 *142:159 *157:59 0.000490202
98 *142:159 *157:82 6.91919e-05
99 *143:57 *157:59 0.000259996
100 *143:68 *157:59 0.000478241
101 *143:89 *157:59 0.000251178
102 *150:63 *1286:A3 5.23324e-05
103 *152:8 *157:59 0.000480985
104 *152:8 *157:82 3.4596e-05
*RES
1 *1283:ZN *157:8 14.692 
2 *157:8 *157:16 11.288 
3 *157:16 *1380:A1 6.58 
4 *157:16 *1335:A1 4.5 
5 *157:8 *157:36 10.56 
6 *157:36 *1424:A1 4.812 
7 *157:36 *157:49 5.956 
8 *157:49 *157:51 0.728 
9 *157:51 *157:53 1.56 
10 *157:53 *157:59 9.908 
11 *157:59 *1331:B 4.5 
12 *157:59 *157:82 26.576 
13 *157:82 *1287:A3 4.5 
14 *157:82 *157:89 0.312 
15 *157:89 *1286:A3 16.308 
16 *157:89 *157:102 2.808 
17 *157:102 *1285:A3 4.5 
18 *157:102 *1284:A3 5.644 
19 *157:53 *1386:A1 9.52 
20 *157:51 *1391:A1 9.52 
21 *157:49 *1381:A1 13.368 
*END

*D_NET *158 0.0099281
*CONN
*I *1296:A2 I *D gf180mcu_fd_sc_mcu7t5v0__nand2_1
*I *1291:A2 I *D gf180mcu_fd_sc_mcu7t5v0__nand2_1
*I *1302:A2 I *D gf180mcu_fd_sc_mcu7t5v0__nand2_1
*I *1650:A2 I *D gf180mcu_fd_sc_mcu7t5v0__nand2_1
*I *1284:ZN O *D gf180mcu_fd_sc_mcu7t5v0__nor4_1
*CAP
1 *1296:A2 0.000537778
2 *1291:A2 0
3 *1302:A2 0
4 *1650:A2 0
5 *1284:ZN 0.000284364
6 *158:36 0.000885869
7 *158:25 0.00117178
8 *158:10 0.00110806
9 *1296:A2 *1297:A3 0.000245632
10 *1296:A2 *1302:A1 9.62682e-06
11 *1296:A2 *1303:A2 0.000280198
12 *1296:A2 *1482:A2 0.000113027
13 *1296:A2 *1485:A1 0.000808601
14 *1296:A2 *1487:A1 3.75515e-05
15 *1296:A2 *1488:C2 8.40463e-05
16 *1296:A2 *1527:I0 5.19714e-05
17 *1296:A2 *1637:A1 0.000110334
18 *1296:A2 *459:33 0.000297254
19 *1296:A2 *462:18 0.00128702
20 *1296:A2 *558:14 0.000208184
21 *158:10 *1703:CLK 1.18566e-06
22 *158:25 *1302:A1 0.000113027
23 *158:25 *1650:A1 4.07478e-05
24 *158:25 *1703:CLK 0.000465422
25 *158:25 *160:25 0
26 *158:36 *1302:A1 0.000159896
27 *158:36 *1303:A2 0.000112472
28 *158:36 *1637:A1 0.00021475
29 *158:36 *161:25 4.73731e-05
30 *158:36 *458:35 1.26446e-05
31 *1293:B *158:25 0.000134859
32 *1651:C *158:10 0
33 *1657:D *158:25 0.000225549
34 *112:16 *158:25 0.000488643
35 *112:16 *158:36 6.88149e-05
36 *131:12 *158:25 0.000109102
37 *142:14 *158:25 1.60428e-05
38 *142:14 *158:36 0.000196277
*RES
1 *1284:ZN *158:10 15.06 
2 *158:10 *1650:A2 4.5 
3 *158:10 *158:25 8.008 
4 *158:25 *1302:A2 4.5 
5 *158:25 *158:36 3.64 
6 *158:36 *1291:A2 4.5 
7 *158:36 *1296:A2 21.508 
*END

*D_NET *159 0.00525113
*CONN
*I *1299:A1 I *D gf180mcu_fd_sc_mcu7t5v0__nor2_1
*I *1288:A1 I *D gf180mcu_fd_sc_mcu7t5v0__oai21_1
*I *1285:Z O *D gf180mcu_fd_sc_mcu7t5v0__or4_1
*CAP
1 *1299:A1 0.000378217
2 *1288:A1 0
3 *1285:Z 0.000300702
4 *159:8 0.000678919
5 *1299:A1 *1288:A2 1.07369e-05
6 *1299:A1 *1363:S 0.000504075
7 *1299:A1 *219:28 0.00101304
8 *159:8 *1288:A2 4.18042e-05
9 *159:8 *1363:S 0.00028463
10 *159:8 *219:28 0.00146126
11 *1298:B *1299:A1 0.000113016
12 *142:33 *1299:A1 0.000328552
13 *142:99 *1299:A1 0.000103788
14 *152:56 *159:8 3.23905e-05
*RES
1 *1285:Z *159:8 9.284 
2 *159:8 *1288:A1 4.5 
3 *159:8 *1299:A1 9.7 
*END

*D_NET *160 0.0146625
*CONN
*I *1648:A2 I *D gf180mcu_fd_sc_mcu7t5v0__oai21_1
*I *1651:A2 I *D gf180mcu_fd_sc_mcu7t5v0__oai211_1
*I *1298:A2 I *D gf180mcu_fd_sc_mcu7t5v0__oai21_1
*I *1294:A2 I *D gf180mcu_fd_sc_mcu7t5v0__aoi21_1
*I *1293:A2 I *D gf180mcu_fd_sc_mcu7t5v0__oai21_1
*I *1649:A2 I *D gf180mcu_fd_sc_mcu7t5v0__aoi21_1
*I *1286:ZN O *D gf180mcu_fd_sc_mcu7t5v0__nor4_1
*CAP
1 *1648:A2 0.000375801
2 *1651:A2 0
3 *1298:A2 0.00019593
4 *1294:A2 0.000349507
5 *1293:A2 0
6 *1649:A2 0.000451019
7 *1286:ZN 0
8 *160:34 0.000687306
9 *160:25 0.000566662
10 *160:16 0.000928287
11 *160:12 0.000437146
12 *160:4 0.000760472
13 *1294:A2 *1523:A1 3.57634e-06
14 *1294:A2 *1705:CLK 0.000125945
15 *1294:A2 *459:33 8.10026e-05
16 *1294:A2 *461:12 0.000184061
17 *1298:A2 *1300:A1 9.46745e-05
18 *1298:A2 *1359:A2 0.000268824
19 *1298:A2 *161:25 0.00106104
20 *1298:A2 *461:12 0.000517182
21 *1648:A2 *1730:CLK 0.000400689
22 *1649:A2 *1244:I 3.79525e-05
23 *1649:A2 *1523:A1 0.00109959
24 *1649:A2 *475:10 0.000101944
25 *1649:A2 *492:282 0.000776202
26 *1649:A2 *554:6 3.08182e-06
27 *160:12 *1244:I 0.000251489
28 *160:12 *1524:A2 4.04689e-05
29 *160:12 *1524:B 8.88029e-05
30 *160:12 *1730:CLK 0.000151892
31 *160:12 *554:6 0.000126301
32 *160:16 *1524:B 0.000179963
33 *160:25 *1293:A1 1.07369e-05
34 *160:25 *1523:A1 0.00215683
35 *160:25 *1651:B 0.000254761
36 *160:34 *1293:A1 4.18157e-05
37 *160:34 *1523:A1 0.000513858
38 *1293:B *160:34 3.65975e-05
39 *1651:A1 *1649:A2 2.30094e-05
40 *1651:C *1649:A2 0.000113016
41 *1651:C *160:12 0.000271764
42 *1651:C *160:16 0.000355286
43 *1651:C *160:25 0.000113027
44 *1657:D *160:25 0
45 *1701:D *1649:A2 0.000170159
46 *1705:D *1294:A2 8.16884e-06
47 *121:10 *1648:A2 4.37046e-05
48 *121:10 *1649:A2 6.95257e-05
49 *121:10 *160:12 7.87395e-06
50 *131:12 *160:12 6.84196e-06
51 *142:14 *1294:A2 0
52 *142:14 *1298:A2 0
53 *142:25 *1298:A2 2.19671e-06
54 *142:50 *1298:A2 0.000116476
55 *158:25 *160:25 0
*RES
1 *1286:ZN *160:4 4.5 
2 *160:4 *160:12 8.972 
3 *160:12 *160:16 5.644 
4 *160:16 *1649:A2 10.428 
5 *160:16 *160:25 5.928 
6 *160:25 *1293:A2 4.5 
7 *160:25 *160:34 6.06 
8 *160:34 *1294:A2 11.912 
9 *160:34 *1298:A2 13.264 
10 *160:12 *1651:A2 9 
11 *160:4 *1648:A2 7.724 
*END

*D_NET *161 0.0132386
*CONN
*I *1290:A1 I *D gf180mcu_fd_sc_mcu7t5v0__nand2_1
*I *1295:A1 I *D gf180mcu_fd_sc_mcu7t5v0__nand2_1
*I *1301:A1 I *D gf180mcu_fd_sc_mcu7t5v0__nand2_1
*I *1289:A2 I *D gf180mcu_fd_sc_mcu7t5v0__aoi21_1
*I *1287:Z O *D gf180mcu_fd_sc_mcu7t5v0__or4_1
*CAP
1 *1290:A1 0
2 *1295:A1 0.000497293
3 *1301:A1 0
4 *1289:A2 0
5 *1287:Z 0.000558097
6 *161:29 0.00081254
7 *161:25 0.000977573
8 *161:10 0.00122042
9 *1295:A1 *1482:A1 0.000194511
10 *1295:A1 *1525:I0 0.000263467
11 *1295:A1 *1525:I1 1.38904e-05
12 *1295:A1 *1525:S 0.000161926
13 *1295:A1 *328:14 3.8585e-05
14 *161:10 *1524:A2 0.000243056
15 *161:10 *504:46 0.000664942
16 *161:25 *1523:A1 0.000289523
17 *161:25 *1525:I1 0.000699142
18 *161:25 *458:35 0.000113027
19 *161:25 *459:12 0.000406983
20 *161:25 *504:46 0.000235468
21 *161:29 *1301:A2 0.000314856
22 *161:29 *1482:A1 0.0008261
23 *161:29 *1483:A2 0.000309364
24 *161:29 *1523:A1 0.000256274
25 *161:29 *458:35 8.89695e-05
26 *161:29 *459:33 4.97842e-05
27 *161:29 *462:12 0.000254486
28 *1293:B *161:25 9.41125e-05
29 *1298:A2 *161:25 0.00106104
30 *1648:B *161:10 0.000242689
31 *112:16 *161:25 4.55764e-06
32 *131:12 *161:10 0.00180061
33 *131:12 *161:25 0.00031561
34 *142:14 *161:25 7.63325e-05
35 *142:25 *161:25 0.000105973
36 *158:36 *161:25 4.73731e-05
*RES
1 *1287:Z *161:10 12.092 
2 *161:10 *1289:A2 4.5 
3 *161:10 *161:25 18.256 
4 *161:25 *161:29 4.368 
5 *161:29 *1301:A1 4.5 
6 *161:29 *1295:A1 17.868 
7 *161:25 *1290:A1 4.5 
*END

*D_NET *162 0.00123729
*CONN
*I *1289:B I *D gf180mcu_fd_sc_mcu7t5v0__aoi21_1
*I *1288:ZN O *D gf180mcu_fd_sc_mcu7t5v0__oai21_1
*CAP
1 *1289:B 3.33611e-05
2 *1288:ZN 3.33611e-05
3 *1349:A1 *1289:B 0.00057941
4 *1695:D *1289:B 0.000591156
*RES
1 *1288:ZN *1289:B 19.56 
*END

*D_NET *163 0.0029932
*CONN
*I *1292:A2 I *D gf180mcu_fd_sc_mcu7t5v0__nand3_1
*I *1290:ZN O *D gf180mcu_fd_sc_mcu7t5v0__nand2_1
*CAP
1 *1292:A2 0.000158449
2 *1290:ZN 0.000158449
3 *1292:A2 *1303:A2 0.000549276
4 *1292:A2 *1641:A2 0.000913509
5 *1292:A2 *458:20 0.000789406
6 *1297:A1 *1292:A2 0.000424112
*RES
1 *1290:ZN *1292:A2 22.68 
*END

*D_NET *164 0.0023144
*CONN
*I *1292:A3 I *D gf180mcu_fd_sc_mcu7t5v0__nand3_1
*I *1291:ZN O *D gf180mcu_fd_sc_mcu7t5v0__nand2_1
*CAP
1 *1292:A3 0.000401749
2 *1291:ZN 0.000401749
3 *1292:A3 *1297:A2 1.60338e-05
4 *1292:A3 *1299:A2 1.29933e-05
5 *1292:A3 *1354:A1 9.82096e-05
6 *1292:A3 *492:362 0.000259996
7 *1292:A3 *556:69 0.000175641
8 *1297:A1 *1292:A3 9.20244e-05
9 *1700:D *1292:A3 0.000330495
10 *11:16 *1292:A3 0.000525508
*RES
1 *1291:ZN *1292:A3 22.576 
*END

*D_NET *165 0.00174355
*CONN
*I *1294:B I *D gf180mcu_fd_sc_mcu7t5v0__aoi21_1
*I *1293:ZN O *D gf180mcu_fd_sc_mcu7t5v0__oai21_1
*CAP
1 *1294:B 8.35718e-05
2 *1293:ZN 8.35718e-05
3 *1294:B *459:33 8.58618e-05
4 *1294:B *461:12 3.41371e-05
5 *1294:A1 *1294:B 0.000925256
6 *1705:D *1294:B 0.000531148
7 *132:21 *1294:B 0
*RES
1 *1293:ZN *1294:B 20.6 
*END

*D_NET *166 0.00653762
*CONN
*I *1297:A2 I *D gf180mcu_fd_sc_mcu7t5v0__nand3_1
*I *1295:ZN O *D gf180mcu_fd_sc_mcu7t5v0__nand2_1
*CAP
1 *1297:A2 0.000711798
2 *1295:ZN 0.000711798
3 *1297:A2 *1295:A2 0
4 *1297:A2 *1299:A2 0.000324136
5 *1297:A2 *1364:A2 0.0002261
6 *1297:A2 *1483:A2 0.000259344
7 *1297:A2 *1488:A1 0.000122244
8 *1297:A2 *1502:A1 6.18411e-06
9 *1297:A2 *1505:A1 7.12358e-05
10 *1297:A2 *1525:I0 0.000238795
11 *1297:A2 *328:14 0.000593269
12 *1297:A2 *459:33 0.000596433
13 *1297:A2 *460:10 7.99333e-05
14 *1297:A2 *492:339 0.000952953
15 *1297:A2 *492:362 0.000159412
16 *1297:A2 *558:14 4.10047e-05
17 *1297:A2 *560:20 0.000714406
18 *1292:A3 *1297:A2 1.60338e-05
19 *1700:D *1297:A2 0.000654104
20 *1706:D *1297:A2 5.52609e-05
21 *11:16 *1297:A2 3.18011e-06
*RES
1 *1295:ZN *1297:A2 28.816 
*END

*D_NET *167 0.00510934
*CONN
*I *1297:A3 I *D gf180mcu_fd_sc_mcu7t5v0__nand3_1
*I *1296:ZN O *D gf180mcu_fd_sc_mcu7t5v0__nand2_1
*CAP
1 *1297:A3 0.000628588
2 *1296:ZN 0.000628588
3 *1297:A3 *1296:A1 0.000976457
4 *1297:A3 *1482:A1 3.81056e-05
5 *1297:A3 *1485:A1 0.00057698
6 *1297:A3 *1525:I1 0.000163714
7 *1297:A3 *1525:S 2.63271e-05
8 *1297:A3 *1737:I 0.000341092
9 *1297:A3 *459:33 0.000331109
10 *1297:A3 *504:46 0.000887713
11 *1297:A3 *519:29 0.000116466
12 *1297:A3 *558:14 0.000148572
13 *1296:A2 *1297:A3 0.000245632
*RES
1 *1296:ZN *1297:A3 26.944 
*END

*D_NET *168 0.00104535
*CONN
*I *1300:A1 I *D gf180mcu_fd_sc_mcu7t5v0__nor2_1
*I *1298:ZN O *D gf180mcu_fd_sc_mcu7t5v0__oai21_1
*CAP
1 *1300:A1 0.000171101
2 *1298:ZN 0.000171101
3 *1300:A1 *1525:I1 0.000218318
4 *1300:A1 *459:12 7.87395e-06
5 *1300:A1 *504:46 6.72202e-05
6 *1298:A2 *1300:A1 9.46745e-05
7 *1707:D *1300:A1 0.000115061
8 *142:50 *1300:A1 0.000199998
*RES
1 *1298:ZN *1300:A1 20.288 
*END

*D_NET *169 0.000560625
*CONN
*I *1300:A2 I *D gf180mcu_fd_sc_mcu7t5v0__nor2_1
*I *1299:ZN O *D gf180mcu_fd_sc_mcu7t5v0__nor2_1
*CAP
1 *1300:A2 3.38631e-05
2 *1299:ZN 3.38631e-05
3 *1300:A2 *1303:A3 0.000352347
4 *1697:D *1300:A2 0.000140552
*RES
1 *1299:ZN *1300:A2 18.936 
*END

*D_NET *170 0.00563139
*CONN
*I *1303:A2 I *D gf180mcu_fd_sc_mcu7t5v0__nand3_1
*I *1301:ZN O *D gf180mcu_fd_sc_mcu7t5v0__nand2_1
*CAP
1 *1303:A2 0.000793233
2 *1301:ZN 0.000793233
3 *1303:A2 *1363:I0 0.000510584
4 *1303:A2 *1482:A1 0.000215549
5 *1303:A2 *1523:A1 5.0164e-05
6 *1303:A2 *1527:I0 3.39247e-06
7 *1303:A2 *458:35 0.000497696
8 *1303:A2 *460:8 3.22108e-05
9 *1303:A2 *556:69 0.000649257
10 *1292:A2 *1303:A2 0.000549276
11 *1296:A2 *1303:A2 0.000280198
12 *1297:A1 *1303:A2 0.000561774
13 *1303:A1 *1303:A2 0.000582349
14 *158:36 *1303:A2 0.000112472
*RES
1 *1301:ZN *1303:A2 28.712 
*END

*D_NET *171 0.00341686
*CONN
*I *1303:A3 I *D gf180mcu_fd_sc_mcu7t5v0__nand3_1
*I *1302:ZN O *D gf180mcu_fd_sc_mcu7t5v0__nand2_1
*CAP
1 *1303:A3 0.000426032
2 *1302:ZN 0.000426032
3 *1303:A3 *1359:A2 0
4 *1303:A3 *1363:I0 0.00010951
5 *1303:A3 *1364:A2 0.000548831
6 *1300:A2 *1303:A3 0.000352347
7 *1697:D *1303:A3 0.000314703
8 *142:25 *1303:A3 0.00113175
9 *142:99 *1303:A3 0.000107648
*RES
1 *1302:ZN *1303:A3 23.824 
*END

*D_NET *172 0.00994568
*CONN
*I *1413:A3 I *D gf180mcu_fd_sc_mcu7t5v0__nand4_1
*I *1307:A4 I *D gf180mcu_fd_sc_mcu7t5v0__nand4_1
*I *1396:A1 I *D gf180mcu_fd_sc_mcu7t5v0__or2_1
*I *1304:Z O *D gf180mcu_fd_sc_mcu7t5v0__and2_1
*CAP
1 *1413:A3 0.000425566
2 *1307:A4 6.38799e-05
3 *1396:A1 9.12112e-05
4 *1304:Z 0.000128728
5 *172:23 0.000961834
6 *172:8 0.000692327
7 *1307:A4 *1322:A2 0.000488479
8 *1307:A4 *1393:A1 9.35542e-06
9 *1307:A4 *248:10 0.000557671
10 *1396:A1 *1304:A2 0.000103788
11 *1396:A1 *1321:A4 2.14739e-05
12 *1396:A1 *1396:A2 0.000151966
13 *1396:A1 *447:110 4.29477e-05
14 *1396:A1 *448:27 0.000419265
15 *1413:A3 *1311:A2 0.00057942
16 *1413:A3 *1322:A2 0.000116476
17 *1413:A3 *1413:A4 0.000635857
18 *1413:A3 *1611:A2 4.26865e-05
19 *1413:A3 *447:79 0.000100928
20 *1413:A3 *450:68 0.00140058
21 *172:8 *187:12 0.000179413
22 *172:23 *1320:A2 0.000421723
23 *172:23 *1320:A4 0.000930516
24 *172:23 *1321:A2 8.88136e-05
25 *172:23 *1322:A2 0.000343518
26 *172:23 *187:12 0.000536234
27 *172:23 *450:68 0.000188241
28 *172:23 *450:85 0.000133696
29 *172:23 *450:87 2.60017e-05
30 *1688:D *1413:A3 3.20057e-06
31 *149:10 *1413:A3 0
32 *149:14 *1413:A3 5.98832e-05
*RES
1 *1304:Z *172:8 9.936 
2 *172:8 *1396:A1 10.56 
3 *172:8 *172:23 6.136 
4 *172:23 *1307:A4 10.56 
5 *172:23 *1413:A3 15.552 
*END

*D_NET *173 0.00278151
*CONN
*I *1399:A2 I *D gf180mcu_fd_sc_mcu7t5v0__nor2_1
*I *1400:A2 I *D gf180mcu_fd_sc_mcu7t5v0__xor2_1
*I *1305:ZN O *D gf180mcu_fd_sc_mcu7t5v0__nand2_1
*CAP
1 *1399:A2 0.000554889
2 *1400:A2 3.47457e-05
3 *1305:ZN 0.000133342
4 *173:6 0.000722977
5 *1399:A2 *1305:A1 0
6 *1399:A2 *1400:A1 0.000355886
7 *1399:A2 *1401:A4 0.000103788
8 *1399:A2 *1403:B 4.77162e-05
9 *1399:A2 *248:10 4.23984e-06
10 *1399:A2 *492:64 0.00016503
11 *1400:A2 *1305:A1 0
12 *1400:A2 *1400:A1 8.56628e-05
13 *1719:D *1399:A2 0.000137866
14 *10:18 *1399:A2 5.36452e-06
15 *131:31 *1399:A2 0.000430001
*RES
1 *1305:ZN *173:6 5.644 
2 *173:6 *1400:A2 5.02 
3 *173:6 *1399:A2 18.596 
*END

*D_NET *174 0.00056827
*CONN
*I *1308:A2 I *D gf180mcu_fd_sc_mcu7t5v0__aoi22_1
*I *1306:Z O *D gf180mcu_fd_sc_mcu7t5v0__and4_1
*CAP
1 *1308:A2 3.70781e-05
2 *1306:Z 3.70781e-05
3 *1308:A2 *205:38 0.000247057
4 *149:27 *1308:A2 0.000247057
*RES
1 *1306:Z *1308:A2 9.728 
*END

*D_NET *175 0.0210055
*CONN
*I *1344:A3 I *D gf180mcu_fd_sc_mcu7t5v0__and4_1
*I *1312:A2 I *D gf180mcu_fd_sc_mcu7t5v0__nand3_1
*I *1365:A2 I *D gf180mcu_fd_sc_mcu7t5v0__nand3_1
*I *1349:A3 I *D gf180mcu_fd_sc_mcu7t5v0__and4_1
*I *1314:A2 I *D gf180mcu_fd_sc_mcu7t5v0__nand3_1
*I *1307:ZN O *D gf180mcu_fd_sc_mcu7t5v0__nand4_1
*CAP
1 *1344:A3 4.47252e-05
2 *1312:A2 0.00083002
3 *1365:A2 7.48179e-05
4 *1349:A3 0
5 *1314:A2 0
6 *1307:ZN 0.0014857
7 *175:44 0.00109775
8 *175:35 0.000308768
9 *175:31 0.000754911
10 *175:22 0.00208003
11 *1312:A2 *1270:I 0.000181751
12 *1312:A2 *1362:A1 7.19016e-05
13 *1312:A2 *1714:CLK 0.00070599
14 *1312:A2 *179:107 5.89482e-05
15 *1312:A2 *461:8 0.00012524
16 *1312:A2 *491:30 0.000443953
17 *1312:A2 *557:12 4.68812e-05
18 *1344:A3 *179:99 4.18042e-05
19 *1344:A3 *179:107 6.18411e-06
20 *1365:A2 *1362:A1 2.80885e-05
21 *1365:A2 *1363:S 0
22 *1365:A2 *557:12 4.54968e-05
23 *175:22 *1315:C 2.89664e-05
24 *175:22 *1317:B2 0.000807322
25 *175:22 *1322:A2 1.70957e-06
26 *175:22 *1329:A2 0.000383426
27 *175:22 *1332:A2 0.000573343
28 *175:22 *1340:A2 0.000280081
29 *175:22 *1385:A2 0.000325466
30 *175:22 *1385:A3 0.000577222
31 *175:22 *1388:A4 3.85837e-05
32 *175:22 *179:16 0.000536139
33 *175:22 *179:64 0.000649328
34 *175:22 *179:75 0.00020943
35 *175:22 *189:27 0.000419311
36 *175:22 *189:44 6.30221e-05
37 *175:22 *248:10 0.000175292
38 *175:22 *577:26 0.000346997
39 *175:22 *578:8 6.64924e-05
40 *175:31 *179:99 5.35362e-06
41 *175:35 *179:99 6.69695e-05
42 *175:44 *1359:A1 0.000406972
43 *175:44 *1359:A2 0.00012524
44 *175:44 *179:99 7.87395e-06
45 *175:44 *179:107 0.000207716
46 *1281:I *175:22 0.000113016
47 *1308:B1 *175:22 0.000615862
48 *1312:A1 *1312:A2 0.00146027
49 *1317:B1 *175:22 0.000403896
50 *1322:A1 *175:22 0.000149923
51 *1344:A1 *175:31 0.000185295
52 *1344:A1 *175:35 1.56624e-05
53 *1349:A1 *175:44 8.52736e-05
54 *1392:A4 *175:22 0.00017298
55 *141:57 *175:22 0.000397156
56 *143:89 *175:22 3.3698e-05
57 *149:27 *175:22 6.09406e-06
58 *150:42 *175:22 0.00018204
59 *150:51 *175:22 1.73223e-05
60 *150:59 *175:31 0
61 *152:31 *175:22 0.000476454
62 *152:44 *175:31 0.00189708
63 *152:52 *175:35 2.85151e-05
64 *152:52 *175:44 1.12327e-05
65 *152:56 *175:44 1.85523e-05
*RES
1 *1307:ZN *175:22 24.572 
2 *175:22 *1314:A2 4.5 
3 *175:22 *175:31 6.24 
4 *175:31 *175:35 1.248 
5 *175:35 *1349:A3 4.5 
6 *175:35 *175:44 7.308 
7 *175:44 *1365:A2 9.728 
8 *175:44 *1312:A2 18.776 
9 *175:31 *1344:A3 5.124 
*END

*D_NET *176 0.0372207
*CONN
*I *1366:B1 I *D gf180mcu_fd_sc_mcu7t5v0__oai221_1
*I *1345:A2 I *D gf180mcu_fd_sc_mcu7t5v0__oai22_1
*I *1355:A2 I *D gf180mcu_fd_sc_mcu7t5v0__oai22_1
*I *1376:A2 I *D gf180mcu_fd_sc_mcu7t5v0__oai22_1
*I *1350:A2 I *D gf180mcu_fd_sc_mcu7t5v0__oai22_1
*I *1371:A2 I *D gf180mcu_fd_sc_mcu7t5v0__oai22_1
*I *1360:A2 I *D gf180mcu_fd_sc_mcu7t5v0__oai22_1
*I *1315:B1 I *D gf180mcu_fd_sc_mcu7t5v0__oai221_1
*I *1308:ZN O *D gf180mcu_fd_sc_mcu7t5v0__aoi22_1
*CAP
1 *1366:B1 0
2 *1345:A2 0
3 *1355:A2 0.000416493
4 *1376:A2 0.00282417
5 *1350:A2 0
6 *1371:A2 9.14652e-05
7 *1360:A2 0
8 *1315:B1 0
9 *1308:ZN 0.00303182
10 *176:83 0.00298342
11 *176:68 0.00025072
12 *176:66 0.000896619
13 *176:58 0.000769707
14 *176:45 0.000568686
15 *176:41 0.000951931
16 *176:20 0.00370464
17 *1355:A2 *1406:A4 1.71326e-05
18 *1355:A2 *1477:I1 0.000337172
19 *1355:A2 *1478:S1 9.05853e-05
20 *1355:A2 *488:109 4.49307e-05
21 *1355:A2 *556:18 0.000513689
22 *1355:A2 *578:62 0.000327211
23 *1371:A2 *1371:A1 0.000157249
24 *1371:A2 *578:66 7.47044e-05
25 *1371:A2 *578:68 0.000509518
26 *1376:A2 *1350:A1 2.46717e-05
27 *1376:A2 *1353:I0 0.000225252
28 *1376:A2 *1353:I1 0.000112355
29 *1376:A2 *1353:S 0.000116422
30 *1376:A2 *1374:I0 0
31 *1376:A2 *1478:I0 4.77174e-05
32 *1376:A2 *1522:I0 0
33 *1376:A2 *1635:A1 0.000887221
34 *1376:A2 *1638:B2 9.8708e-05
35 *1376:A2 *1641:A2 0.00256759
36 *1376:A2 *1715:CLK 8.65561e-05
37 *1376:A2 *1753:I 0.000393276
38 *1376:A2 *1774:I 0.000104466
39 *1376:A2 *208:73 0.000259842
40 *1376:A2 *425:133 1.823e-05
41 *1376:A2 *434:108 0
42 *1376:A2 *471:86 0.000215256
43 *1376:A2 *478:10 0
44 *1376:A2 *509:14 0
45 *1376:A2 *554:34 0.000204669
46 *1376:A2 *555:8 2.17601e-05
47 *1376:A2 *555:49 8.95068e-06
48 *1376:A2 *560:58 0.0001119
49 *1376:A2 *569:10 0
50 *176:20 *1315:B2 0.000113027
51 *176:20 *1315:C 0.000108453
52 *176:20 *1352:A2 4.7461e-05
53 *176:20 *1415:A2 0.000856256
54 *176:20 *179:10 0.000415294
55 *176:20 *179:16 0.000331771
56 *176:20 *179:90 8.21146e-06
57 *176:20 *189:12 2.78013e-05
58 *176:20 *189:27 6.28659e-05
59 *176:20 *244:10 1.48584e-05
60 *176:20 *246:14 0.000108433
61 *176:20 *491:30 0.00026679
62 *176:20 *577:26 0
63 *176:41 *1270:I 7.96094e-05
64 *176:41 *1352:A2 0.00108902
65 *176:41 *1363:S 0.000490129
66 *176:41 *1366:B2 2.64063e-05
67 *176:41 *179:99 6.85302e-05
68 *176:41 *179:107 7.48057e-05
69 *176:41 *491:30 0.000968489
70 *176:45 *1362:A1 0.000279814
71 *176:45 *1363:S 7.05624e-05
72 *176:45 *1366:A1 0.000343518
73 *176:45 *1366:B2 2.90205e-05
74 *176:45 *1526:S 0.000270339
75 *176:45 *558:54 1.73931e-05
76 *176:45 *578:102 7.22138e-05
77 *176:58 *1347:A1 4.07478e-05
78 *176:58 *1348:I1 4.74456e-05
79 *176:58 *1348:S 0.000103788
80 *176:58 *1478:S0 0.000125695
81 *176:58 *1526:S 0.000450555
82 *176:58 *519:6 0
83 *176:58 *558:54 8.38125e-05
84 *176:66 *1478:S1 6.44216e-05
85 *176:66 *1770:I 0.000762565
86 *176:66 *208:54 0.000107648
87 *176:66 *208:73 0.00131517
88 *176:66 *556:18 0.000169691
89 *176:66 *578:62 2.14739e-05
90 *176:83 *1350:A1 1.71326e-05
91 *176:83 *1352:A1 0.000125283
92 *176:83 *1371:A1 0.000157918
93 *176:83 *471:86 4.18157e-05
94 *176:83 *555:8 6.40967e-05
95 *176:83 *555:12 0.000119391
96 *176:83 *559:28 7.92185e-06
97 *176:83 *560:58 1.26446e-05
98 *176:83 *578:66 0.000179413
99 DAT_O[0] *1355:A2 0.000449482
100 DAT_O[4] *1376:A2 0.000103555
101 *1345:B1 *176:58 3.18325e-05
102 *1366:A2 *176:45 0.000645296
103 *1369:B2 *176:41 2.90808e-05
104 *1392:A4 *176:20 0.00029
105 *1659:D *1376:A2 0
106 *1694:D *1376:A2 2.4581e-05
107 *1700:D *1376:A2 0
108 *1710:D *176:41 0.000122244
109 *1738:I *176:20 0
110 *1789:I *1355:A2 0.000269899
111 *140:16 *1371:A2 2.45762e-05
112 *141:140 *176:66 0.000434154
113 *141:151 *176:66 8.64348e-05
114 *149:31 *176:20 1.90528e-05
115 *150:8 *176:20 0.000364104
*RES
1 *1308:ZN *176:20 43.924 
2 *176:20 *1315:B1 4.5 
3 *176:20 *176:41 8.736 
4 *176:41 *176:45 8.14 
5 *176:45 *1360:A2 9 
6 *176:45 *176:58 7.62 
7 *176:58 *176:66 15.656 
8 *176:66 *176:68 4.5 
9 *176:68 *1371:A2 10.56 
10 *176:68 *176:83 6.58 
11 *176:83 *1350:A2 4.5 
12 *176:83 *1376:A2 46.732 
13 *176:66 *1355:A2 10.532 
14 *176:58 *1345:A2 4.5 
15 *176:41 *1366:B1 4.5 
*END

*D_NET *177 0.00281734
*CONN
*I *1413:A4 I *D gf180mcu_fd_sc_mcu7t5v0__nand4_1
*I *1311:A2 I *D gf180mcu_fd_sc_mcu7t5v0__nand3_1
*I *1309:Z O *D gf180mcu_fd_sc_mcu7t5v0__and2_1
*CAP
1 *1413:A4 0.000159537
2 *1311:A2 0.000167109
3 *1309:Z 0
4 *177:6 0.000326646
5 *1311:A2 *1311:A3 0.000148768
6 *1311:A2 *1412:A2 0.000488479
7 *1311:A2 *179:10 0.000113027
8 *1413:A4 *242:8 0.000103788
9 *1413:A4 *451:49 2.81522e-06
10 *1413:A3 *1311:A2 0.00057942
11 *1413:A3 *1413:A4 0.000635857
12 *149:10 *1311:A2 2.79795e-05
13 *149:10 *1413:A4 4.33313e-05
14 *149:14 *1311:A2 2.05858e-05
*RES
1 *1309:Z *177:6 9 
2 *177:6 *1311:A2 11.912 
3 *177:6 *1413:A4 11.08 
*END

*D_NET *178 0.000863047
*CONN
*I *1311:A3 I *D gf180mcu_fd_sc_mcu7t5v0__nand3_1
*I *1310:ZN O *D gf180mcu_fd_sc_mcu7t5v0__nor2_1
*CAP
1 *1311:A3 5.1778e-05
2 *1310:ZN 5.1778e-05
3 *1311:A3 *179:10 0.000113027
4 *1311:A3 *246:14 0.000497696
5 *1311:A2 *1311:A3 0.000148768
*RES
1 *1310:ZN *1311:A3 10.352 
*END

*D_NET *179 0.0294069
*CONN
*I *1392:A3 I *D gf180mcu_fd_sc_mcu7t5v0__nand4_1
*I *1388:A2 I *D gf180mcu_fd_sc_mcu7t5v0__nand4_1
*I *1349:A4 I *D gf180mcu_fd_sc_mcu7t5v0__and4_1
*I *1364:A1 I *D gf180mcu_fd_sc_mcu7t5v0__nand2_1
*I *1312:A3 I *D gf180mcu_fd_sc_mcu7t5v0__nand3_1
*I *1344:A4 I *D gf180mcu_fd_sc_mcu7t5v0__and4_1
*I *1313:A1 I *D gf180mcu_fd_sc_mcu7t5v0__nand2_1
*I *1316:A2 I *D gf180mcu_fd_sc_mcu7t5v0__nand2_1
*I *1385:A2 I *D gf180mcu_fd_sc_mcu7t5v0__nand3_1
*I *1317:A2 I *D gf180mcu_fd_sc_mcu7t5v0__aoi22_1
*I *1311:ZN O *D gf180mcu_fd_sc_mcu7t5v0__nand3_1
*CAP
1 *1392:A3 0
2 *1388:A2 0
3 *1349:A4 0
4 *1364:A1 1.81339e-05
5 *1312:A3 0.000570286
6 *1344:A4 0
7 *1313:A1 0.000236587
8 *1316:A2 0
9 *1385:A2 6.78653e-05
10 *1317:A2 0.000260262
11 *1311:ZN 0.000414434
12 *179:107 0.000949623
13 *179:99 0.000480724
14 *179:90 0.000605687
15 *179:75 0.00108142
16 *179:64 0.000528183
17 *179:49 0.000706726
18 *179:24 0.00102727
19 *179:16 0.000434422
20 *179:10 0.000551191
21 *1312:A3 *1359:A1 1.42418e-05
22 *1312:A3 *1363:I0 0.000149838
23 *1312:A3 *1364:A2 0.00139288
24 *1312:A3 *1641:A2 0.000809422
25 *1312:A3 *556:69 0.000182219
26 *1313:A1 *1313:A2 0.00011484
27 *1313:A1 *1315:C 3.70435e-05
28 *1313:A1 *1778:I 0.000177086
29 *1313:A1 *553:38 9.42457e-05
30 *1317:A2 *1322:A2 2.38656e-05
31 *1317:A2 *1332:A2 2.50877e-05
32 *1317:A2 *1338:A1 1.06742e-05
33 *1317:A2 *1340:A2 1.07369e-05
34 *1364:A1 *1359:A1 5.57504e-05
35 *1364:A1 *1359:A2 3.42651e-05
36 *1364:A1 *1364:A2 7.84197e-05
37 *179:10 *1412:A2 0.000210903
38 *179:10 *189:12 1.34602e-05
39 *179:10 *244:10 1.99013e-05
40 *179:10 *246:14 0.000394401
41 *179:16 *189:12 4.69205e-05
42 *179:24 *1308:B2 0.000488468
43 *179:24 *189:44 0.00145116
44 *179:24 *205:38 0.000155245
45 *179:24 *243:8 0.000122905
46 *179:24 *244:10 0.000131718
47 *179:49 *189:44 0.000948935
48 *179:49 *282:12 0.000345402
49 *179:49 *492:251 1.16405e-05
50 *179:64 *208:14 0
51 *179:64 *282:12 0.000152359
52 *179:64 *578:8 6.32895e-05
53 *179:75 *1315:B2 1.95797e-05
54 *179:75 *1315:C 0.000257533
55 *179:75 *1318:A2 0.000368643
56 *179:75 *208:27 0
57 *179:90 *1315:B2 3.14315e-05
58 *179:90 *1315:C 0.000138808
59 *179:90 *1352:A2 0.000934804
60 *179:90 *1710:CLK 0.000194522
61 *179:99 *1352:A2 0.0004162
62 *179:107 *1270:I 3.12252e-05
63 *179:107 *1288:A2 0.000271753
64 *179:107 *1359:A1 0.00107318
65 *179:107 *1366:B2 3.45498e-05
66 *179:107 *1714:CLK 0.000547029
67 DAT_O[6] *1312:A3 0.00107488
68 *1278:A1 *179:24 4.61456e-05
69 *1303:A1 *1312:A3 0.000188241
70 *1308:B1 *179:16 0.000545367
71 *1311:A2 *179:10 0.000113027
72 *1311:A3 *179:10 0.000113027
73 *1312:A2 *179:107 5.89482e-05
74 *1316:A1 *179:64 0.000194522
75 *1316:A1 *179:75 4.07478e-05
76 *1317:A1 *1317:A2 0.000156435
77 *1318:A1 *1313:A1 0.000179413
78 *1322:A1 *179:49 0.000116466
79 *1322:A1 *179:64 0.000179413
80 *1332:A1 *1317:A2 0.000116369
81 *1344:A3 *179:99 4.18042e-05
82 *1344:A3 *179:107 6.18411e-06
83 *1695:D *179:107 9.00121e-05
84 *142:222 *1317:A2 1.11438e-05
85 *149:14 *179:10 0
86 *150:12 *179:24 4.18157e-05
87 *150:19 *179:24 3.61968e-05
88 *150:42 *179:49 0.000301218
89 *150:51 *1385:A2 0.000112449
90 *150:59 *1313:A1 0.000106908
91 *152:31 *1313:A1 0.000334711
92 *152:31 *179:24 0.000569964
93 *152:31 *179:49 0.00137129
94 *152:44 *179:75 2.73715e-06
95 *152:44 *179:90 0.000331219
96 *175:22 *1385:A2 0.000325466
97 *175:22 *179:16 0.000536139
98 *175:22 *179:64 0.000649328
99 *175:22 *179:75 0.00020943
100 *175:31 *179:99 5.35362e-06
101 *175:35 *179:99 6.69695e-05
102 *175:44 *179:99 7.87395e-06
103 *175:44 *179:107 0.000207716
104 *176:20 *179:10 0.000415294
105 *176:20 *179:16 0.000331771
106 *176:20 *179:90 8.21146e-06
107 *176:41 *179:99 6.85302e-05
108 *176:41 *179:107 7.48057e-05
*RES
1 *1311:ZN *179:10 13.576 
2 *179:10 *179:16 6.996 
3 *179:16 *179:24 14.616 
4 *179:24 *1317:A2 15.58 
5 *179:24 *179:49 20.052 
6 *179:49 *1385:A2 9.936 
7 *179:49 *179:64 6.996 
8 *179:64 *1316:A2 4.5 
9 *179:64 *179:75 4.056 
10 *179:75 *1313:A1 16.412 
11 *179:75 *179:90 5.304 
12 *179:90 *1344:A4 4.5 
13 *179:90 *179:99 1.872 
14 *179:99 *179:107 10.012 
15 *179:107 *1312:A3 35.632 
16 *179:107 *1364:A1 9.416 
17 *179:99 *1349:A4 4.5 
18 *179:16 *1388:A2 4.5 
19 *179:10 *1392:A3 9 
*END

*D_NET *180 0.018093
*CONN
*I *1370:A1 I *D gf180mcu_fd_sc_mcu7t5v0__nor2_1
*I *1375:A1 I *D gf180mcu_fd_sc_mcu7t5v0__nor2_1
*I *1354:A1 I *D gf180mcu_fd_sc_mcu7t5v0__nor2_1
*I *1359:A1 I *D gf180mcu_fd_sc_mcu7t5v0__nor2_1
*I *1312:ZN O *D gf180mcu_fd_sc_mcu7t5v0__nand3_1
*CAP
1 *1370:A1 0.000406058
2 *1375:A1 0.000650942
3 *1354:A1 0.000245943
4 *1359:A1 0.000795475
5 *1312:ZN 0
6 *180:44 0.00135094
7 *180:27 0.00062734
8 *180:4 0.000882932
9 *1354:A1 *1299:A2 8.01745e-05
10 *1354:A1 *1363:I0 0.000139069
11 *1354:A1 *556:69 0.0010977
12 *1359:A1 *1359:A2 4.39457e-05
13 *1359:A1 *1364:A2 1.29135e-05
14 *1359:A1 *1365:A3 0.000145476
15 *1359:A1 *1714:CLK 0.000308707
16 *1359:A1 *1805:I 0.000720662
17 *1359:A1 *491:30 1.23682e-05
18 *1370:A1 *1373:A1 0.00235184
19 *1370:A1 *1373:B 0.000410314
20 *1370:A1 *556:8 0.00022919
21 *1370:A1 *556:14 0.000251439
22 *1375:A1 *1375:A2 1.43e-05
23 *1375:A1 *1378:A1 0.000508061
24 *1375:A1 *1660:CLK 0.000177432
25 *180:27 *491:30 1.83435e-05
26 *180:44 *1362:A2 0.000163477
27 *180:44 *1363:I0 0.000533385
28 *180:44 *1373:A1 0.000352347
29 *180:44 *1373:B 0.000252873
30 DAT_O[6] *1359:A1 0.00028918
31 DAT_O[7] *1375:A1 1.02418e-05
32 *1292:A3 *1354:A1 9.82096e-05
33 *1297:A1 *1354:A1 0.000236426
34 *1312:A1 *1359:A1 0.00106894
35 *1312:A3 *1359:A1 1.42418e-05
36 *1364:A1 *1359:A1 5.57504e-05
37 *1700:D *1354:A1 3.85294e-05
38 *1700:D *1370:A1 6.22117e-05
39 *1700:D *180:44 0.000196221
40 *1704:D *1354:A1 0.000991153
41 *1704:D *180:44 0.000522341
42 *1708:D *1359:A1 4.07478e-05
43 *1708:D *180:27 0.000204967
44 *175:44 *1359:A1 0.000406972
45 *179:107 *1359:A1 0.00107318
*RES
1 *1312:ZN *180:4 4.5 
2 *180:4 *1359:A1 15.004 
3 *180:4 *180:27 5.228 
4 *180:27 *1354:A1 13.784 
5 *180:27 *180:44 5.928 
6 *180:44 *1375:A1 13.888 
7 *180:44 *1370:A1 16.072 
*END

*D_NET *181 0.000203642
*CONN
*I *1314:A3 I *D gf180mcu_fd_sc_mcu7t5v0__nand3_1
*I *1313:ZN O *D gf180mcu_fd_sc_mcu7t5v0__nand2_1
*CAP
1 *1314:A3 5.89897e-05
2 *1313:ZN 5.89897e-05
3 *152:31 *1314:A3 8.56628e-05
*RES
1 *1313:ZN *1314:A3 9.728 
*END

*D_NET *182 0.0016024
*CONN
*I *1315:C I *D gf180mcu_fd_sc_mcu7t5v0__oai221_1
*I *1314:ZN O *D gf180mcu_fd_sc_mcu7t5v0__nand3_1
*CAP
1 *1315:C 0.00034197
2 *1314:ZN 0.00034197
3 *1315:C *1352:A2 1.48501e-05
4 *1315:C *186:12 0
5 *1315:C *478:121 3.56321e-05
6 *1315:C *487:175 0
7 *1315:C *553:38 8.00142e-06
8 *1313:A1 *1315:C 3.70435e-05
9 *1318:A1 *1315:C 7.12475e-05
10 *1343:B1 *1315:C 1.94605e-05
11 *152:44 *1315:C 0.000198469
12 *175:22 *1315:C 2.89664e-05
13 *176:20 *1315:C 0.000108453
14 *179:75 *1315:C 0.000257533
15 *179:90 *1315:C 0.000138808
*RES
1 *1314:ZN *1315:C 21.328 
*END

*D_NET *183 0.00192927
*CONN
*I *1343:A2 I *D gf180mcu_fd_sc_mcu7t5v0__aoi22_1
*I *1315:ZN O *D gf180mcu_fd_sc_mcu7t5v0__oai221_1
*CAP
1 *1343:A2 0.000473111
2 *1315:ZN 0.000473111
3 *1343:A2 *1343:A1 0.000160467
4 *1343:A2 *1368:A2 2.24654e-05
5 *1343:A2 *1369:A1 0.0001024
6 *1343:A2 *186:12 4.44673e-06
7 *1343:A2 *208:27 0.000515166
8 *1709:D *1343:A2 0.000178101
*RES
1 *1315:ZN *1343:A2 14.096 
*END

*D_NET *184 0.00108336
*CONN
*I *1318:A2 I *D gf180mcu_fd_sc_mcu7t5v0__nand2_1
*I *1316:ZN O *D gf180mcu_fd_sc_mcu7t5v0__nand2_1
*CAP
1 *1318:A2 0.000287943
2 *1316:ZN 0.000287943
3 *1318:A2 *1315:B2 1.32276e-05
4 *1318:A2 *1628:B2 0.000115266
5 *1318:A2 *491:30 5.64031e-06
6 *1343:B1 *1318:A2 4.69619e-06
7 *179:75 *1318:A2 0.000368643
*RES
1 *1316:ZN *1318:A2 11.912 
*END

*D_NET *185 0.00172247
*CONN
*I *1340:A2 I *D gf180mcu_fd_sc_mcu7t5v0__oai211_1
*I *1317:ZN O *D gf180mcu_fd_sc_mcu7t5v0__aoi22_1
*CAP
1 *1340:A2 0.000282173
2 *1317:ZN 0.000282173
3 *1340:A2 *1322:A2 2.30847e-05
4 *1340:A2 *1332:A2 0.000497053
5 *1340:A2 *1340:A1 3.2727e-05
6 *1317:A2 *1340:A2 1.07369e-05
7 *1317:B1 *1340:A2 0
8 *1332:A1 *1340:A2 0.00031444
9 *175:22 *1340:A2 0.000280081
*RES
1 *1317:ZN *1340:A2 12.016 
*END

*D_NET *186 0.00422644
*CONN
*I *1368:A1 I *D gf180mcu_fd_sc_mcu7t5v0__aoi211_1
*I *1342:A1 I *D gf180mcu_fd_sc_mcu7t5v0__aoi211_1
*I *1318:ZN O *D gf180mcu_fd_sc_mcu7t5v0__nand2_1
*CAP
1 *1368:A1 0
2 *1342:A1 9.49664e-05
3 *1318:ZN 0.00042922
4 *186:12 0.000524186
5 *1342:A1 *1264:I 0.000568633
6 *1342:A1 *1342:A2 1.91879e-05
7 *1342:A1 *1343:A1 0.000135902
8 *1342:A1 *1368:A2 1.91996e-05
9 *186:12 *1264:I 0.000926006
10 *186:12 *1368:A2 1.12327e-05
11 *186:12 *1369:A1 0.000763015
12 *186:12 *488:109 0.000367587
13 *186:12 *553:38 0.000191955
14 *1315:C *186:12 0
15 *1343:A2 *186:12 4.44673e-06
16 *1343:B1 *186:12 0.000170899
*RES
1 *1318:ZN *186:12 19.116 
2 *186:12 *1342:A1 6.06 
3 *186:12 *1368:A1 4.5 
*END

*D_NET *187 0.00566439
*CONN
*I *1320:A4 I *D gf180mcu_fd_sc_mcu7t5v0__and4_1
*I *1321:A4 I *D gf180mcu_fd_sc_mcu7t5v0__nand4_1
*I *1396:A2 I *D gf180mcu_fd_sc_mcu7t5v0__or2_1
*I *1319:ZN O *D gf180mcu_fd_sc_mcu7t5v0__nor2_1
*CAP
1 *1320:A4 0.000108833
2 *1321:A4 0.000130114
3 *1396:A2 4.68418e-05
4 *1319:ZN 2.84331e-05
5 *187:12 0.00026403
6 *187:8 0.00022434
7 *1320:A4 *1320:A2 0.000268824
8 *1320:A4 *448:49 6.66715e-05
9 *1320:A4 *448:62 0.000410231
10 *1320:A4 *448:68 6.76318e-05
11 *1321:A4 *1304:A2 3.4596e-05
12 *1321:A4 *447:131 7.71138e-05
13 *1396:A2 *1304:A2 0.000113016
14 *1396:A2 *448:27 2.24654e-05
15 *187:8 *1276:A1 0.000103788
16 *187:8 *1321:A1 3.22108e-05
17 *187:12 *1304:A2 0.00017139
18 *187:12 *448:40 0.000263751
19 *187:12 *448:49 0.000280581
20 *1396:A1 *1321:A4 2.14739e-05
21 *1396:A1 *1396:A2 0.000151966
22 *128:29 *1321:A4 0.000538444
23 *128:29 *1396:A2 0.000591484
24 *172:8 *187:12 0.000179413
25 *172:23 *1320:A4 0.000930516
26 *172:23 *187:12 0.000536234
*RES
1 *1319:ZN *187:8 9.312 
2 *187:8 *187:12 6.476 
3 *187:12 *1396:A2 6.06 
4 *187:12 *1321:A4 6.372 
5 *187:8 *1320:A4 11.6 
*END

*D_NET *188 0.00857757
*CONN
*I *1322:A2 I *D gf180mcu_fd_sc_mcu7t5v0__aoi21_1
*I *1320:Z O *D gf180mcu_fd_sc_mcu7t5v0__and4_1
*CAP
1 *1322:A2 0.00148324
2 *1320:Z 0.00148324
3 *1322:A2 *1332:A2 3.30212e-05
4 *1322:A2 *1335:A2 2.73715e-06
5 *1322:A2 *1340:A1 5.81221e-05
6 *1322:A2 *1385:A3 9.35851e-06
7 *1322:A2 *1386:A2 7.63249e-05
8 *1322:A2 *1388:A4 0.000102068
9 *1322:A2 *1392:A1 3.42651e-05
10 *1322:A2 *1393:A1 0.000229202
11 *1322:A2 *1429:A3 8.14046e-05
12 *1322:A2 *189:12 0.000410048
13 *1322:A2 *189:27 0.000333265
14 *1322:A2 *200:12 0.000263725
15 *1322:A2 *208:14 9.35542e-06
16 *1322:A2 *246:14 0.000454752
17 *1322:A2 *248:10 0.000313676
18 *1322:A2 *450:85 3.71367e-05
19 *1322:A2 *577:26 0.00017298
20 *1322:A2 *577:37 0.000372387
21 *1322:A2 *578:8 9.0835e-05
22 *1307:A4 *1322:A2 0.000488479
23 *1317:A2 *1322:A2 2.38656e-05
24 *1317:B1 *1322:A2 6.8199e-07
25 *1329:A1 *1322:A2 1.60338e-05
26 *1332:A1 *1322:A2 1.41468e-05
27 *1332:C *1322:A2 0.000103788
28 *1340:A2 *1322:A2 2.30847e-05
29 *1386:A1 *1322:A2 4.16532e-05
30 *1386:B *1322:A2 0.000480913
31 *1386:C *1322:A2 0.000105483
32 *1413:A3 *1322:A2 0.000116476
33 *143:89 *1322:A2 4.38124e-05
34 *149:14 *1322:A2 1.69737e-05
35 *156:16 *1322:A2 0.000705795
36 *172:23 *1322:A2 0.000343518
37 *175:22 *1322:A2 1.70957e-06
*RES
1 *1320:Z *1322:A2 34.848 
*END

*D_NET *189 0.0142988
*CONN
*I *1385:A3 I *D gf180mcu_fd_sc_mcu7t5v0__nand3_1
*I *1323:A2 I *D gf180mcu_fd_sc_mcu7t5v0__oai21_1
*I *1388:A3 I *D gf180mcu_fd_sc_mcu7t5v0__nand4_1
*I *1392:A2 I *D gf180mcu_fd_sc_mcu7t5v0__nand4_1
*I *1321:ZN O *D gf180mcu_fd_sc_mcu7t5v0__nand4_1
*CAP
1 *1385:A3 0.000235496
2 *1323:A2 0.00027454
3 *1388:A3 0
4 *1392:A2 0
5 *1321:ZN 0.000636655
6 *189:44 0.000932448
7 *189:27 0.000605815
8 *189:12 0.000820058
9 *1323:A2 *1436:A3 0.000417934
10 *1323:A2 *205:38 0.000334711
11 *1323:A2 *245:10 7.94912e-05
12 *1323:A2 *504:26 2.06237e-05
13 *1385:A3 *205:38 0.000379422
14 *1385:A3 *208:14 8.14679e-05
15 *1385:A3 *245:10 2.82894e-06
16 *1385:A3 *577:26 1.18566e-06
17 *189:12 *1321:A2 3.49485e-05
18 *189:12 *1393:A1 0.000410048
19 *189:27 *1388:A4 4.18042e-05
20 *189:27 *1393:A1 0.000182219
21 *189:27 *244:10 0.000331109
22 *189:27 *246:14 4.34691e-05
23 *189:27 *248:10 9.76253e-05
24 *189:44 *1329:A2 3.96709e-05
25 *189:44 *1388:A4 2.63994e-05
26 *189:44 *243:8 0.000403526
27 *189:44 *552:65 3.64459e-05
28 *1307:A2 *189:12 0.000425774
29 *1321:A3 *189:12 5.72836e-05
30 *1322:A2 *1385:A3 9.35851e-06
31 *1322:A2 *189:12 0.000410048
32 *1322:A2 *189:27 0.000333265
33 *1323:A1 *1323:A2 7.2624e-05
34 *1392:A4 *189:27 1.23478e-05
35 *141:57 *1385:A3 0
36 *149:14 *189:12 0.000100317
37 *149:31 *189:12 0.000150492
38 *150:19 *189:44 0.00128948
39 *150:42 *189:44 0.0010681
40 *156:16 *1385:A3 8.1598e-06
41 *157:82 *1323:A2 0.000280946
42 *175:22 *1385:A3 0.000577222
43 *175:22 *189:27 0.000419311
44 *175:22 *189:44 6.30221e-05
45 *176:20 *189:12 2.78013e-05
46 *176:20 *189:27 6.28659e-05
47 *179:10 *189:12 1.34602e-05
48 *179:16 *189:12 4.69205e-05
49 *179:24 *189:44 0.00145116
50 *179:49 *189:44 0.000948935
*RES
1 *1321:ZN *189:12 19.532 
2 *189:12 *1392:A2 4.5 
3 *189:12 *189:27 12.016 
4 *189:27 *1388:A3 4.5 
5 *189:27 *189:44 21.716 
6 *189:44 *1323:A2 12.12 
7 *189:44 *1385:A3 11.704 
*END

*D_NET *190 0.00176544
*CONN
*I *1368:A2 I *D gf180mcu_fd_sc_mcu7t5v0__aoi211_1
*I *1342:A2 I *D gf180mcu_fd_sc_mcu7t5v0__aoi211_1
*I *1322:ZN O *D gf180mcu_fd_sc_mcu7t5v0__aoi21_1
*CAP
1 *1368:A2 0.00014719
2 *1342:A2 3.60115e-05
3 *1322:ZN 0.000141758
4 *190:10 0.00032496
5 *1342:A2 *1343:A1 3.4596e-05
6 *1342:A2 *208:14 0
7 *1368:A2 *1343:A1 0.000395355
8 *1368:A2 *208:14 0
9 *190:10 *492:251 8.86098e-05
10 *190:10 *577:37 9.42233e-05
11 *190:10 *577:46 0.000209694
12 *1322:A1 *190:10 0.000115388
13 *1342:A1 *1342:A2 1.91879e-05
14 *1342:A1 *1368:A2 1.91996e-05
15 *1343:A2 *1368:A2 2.24654e-05
16 *1709:D *1368:A2 7.22185e-06
17 *1709:D *190:10 2.62558e-05
18 *1738:I *190:10 7.20938e-05
19 *186:12 *1368:A2 1.12327e-05
*RES
1 *1322:ZN *190:10 15.684 
2 *190:10 *1342:A2 4.812 
3 *190:10 *1368:A2 5.956 
*END

*D_NET *191 0.00245778
*CONN
*I *1340:A1 I *D gf180mcu_fd_sc_mcu7t5v0__oai211_1
*I *1323:ZN O *D gf180mcu_fd_sc_mcu7t5v0__oai21_1
*CAP
1 *1340:A1 0.000362518
2 *1323:ZN 0.000362518
3 *1340:A1 *219:28 0.0010847
4 *1340:A1 *504:26 6.11661e-05
5 *1322:A2 *1340:A1 5.81221e-05
6 *1323:B *1340:A1 0.000144649
7 *1332:B *1340:A1 0.000125283
8 *1332:C *1340:A1 0.00012643
9 *1340:A2 *1340:A1 3.2727e-05
10 *1433:A2 *1340:A1 9.96631e-05
*RES
1 *1323:ZN *1340:A1 22.16 
*END

*D_NET *192 0.0168607
*CONN
*I *1428:A1 I *D gf180mcu_fd_sc_mcu7t5v0__nand2_1
*I *1437:A1 I *D gf180mcu_fd_sc_mcu7t5v0__aoi21_1
*I *1337:B I *D gf180mcu_fd_sc_mcu7t5v0__aoi211_1
*I *1327:A1 I *D gf180mcu_fd_sc_mcu7t5v0__nor2_1
*I *1429:A2 I *D gf180mcu_fd_sc_mcu7t5v0__nand3_1
*I *1324:ZN O *D gf180mcu_fd_sc_mcu7t5v0__aoi21_1
*CAP
1 *1428:A1 0.00144485
2 *1437:A1 8.19876e-05
3 *1337:B 0
4 *1327:A1 8.71853e-05
5 *1429:A2 0.00014177
6 *1324:ZN 0.000130972
7 *192:41 0.00177889
8 *192:32 0.00032604
9 *192:10 0.000274833
10 *192:8 0.000250833
11 *1327:A1 *1337:C 5.63044e-06
12 *1327:A1 *1429:A1 0.000242172
13 *1327:A1 *194:8 2.81522e-06
14 *1428:A1 *1353:I0 0.00144017
15 *1428:A1 *1358:S 7.10144e-05
16 *1428:A1 *1361:A4 0.000566888
17 *1428:A1 *1428:A2 0.00117951
18 *1428:A1 *1753:I 2.24654e-05
19 *1428:A1 *193:16 0.00207049
20 *1428:A1 *222:28 0.00126807
21 *1428:A1 *491:55 0.00156716
22 *1428:A1 *492:412 0
23 *1428:A1 *579:12 0.000219948
24 *1428:A1 *579:18 3.17547e-05
25 *1429:A2 *1429:A1 0.000241685
26 *1429:A2 *1429:A3 0.000344989
27 *1429:A2 *205:14 0.000253847
28 *1437:A1 *1347:B 3.42651e-05
29 *1437:A1 *1438:B 0.00054882
30 *1437:A1 *1438:C 0.000194511
31 *1437:A1 *1440:A2 5.34458e-06
32 *1437:A1 *203:18 0.000316553
33 *1437:A1 *579:18 2.14739e-05
34 *192:8 *1324:B 4.05593e-05
35 *192:8 *1429:A1 2.19962e-05
36 *192:8 *281:10 1.91879e-05
37 *192:10 *205:14 0.00024497
38 *192:10 *281:10 7.80235e-06
39 *192:32 *205:14 0.000392683
40 *192:32 *281:10 1.20838e-05
41 *192:41 *1430:A1 0.000205816
42 *192:41 *200:23 3.35294e-05
43 *192:41 *203:18 6.49835e-06
44 *192:41 *205:14 7.47044e-05
45 *192:41 *579:18 4.38131e-05
46 *1324:A1 *192:8 4.18042e-05
47 *1324:A1 *192:32 5.24641e-05
48 *1324:A1 *192:41 7.66041e-05
49 *1691:D *1428:A1 4.34158e-05
50 *1790:I *1428:A1 0
51 *140:66 *1428:A1 9.09652e-05
52 *140:66 *192:41 0.000107322
53 *140:101 *1428:A1 1.23748e-05
54 *141:57 *1429:A2 2.89763e-05
55 *141:57 *192:8 0.000103788
56 *141:57 *192:10 3.23671e-05
*RES
1 *1324:ZN *192:8 10.144 
2 *192:8 *192:10 0.728 
3 *192:10 *1429:A2 10.872 
4 *192:10 *1327:A1 9.728 
5 *192:8 *192:32 1.144 
6 *192:32 *1337:B 9 
7 *192:32 *192:41 2.6 
8 *192:41 *1437:A1 10.768 
9 *192:41 *1428:A1 28.24 
*END

*D_NET *193 0.0325424
*CONN
*I *1428:A2 I *D gf180mcu_fd_sc_mcu7t5v0__nand2_1
*I *1438:A2 I *D gf180mcu_fd_sc_mcu7t5v0__aoi211_1
*I *1437:A2 I *D gf180mcu_fd_sc_mcu7t5v0__aoi21_1
*I *1328:B I *D gf180mcu_fd_sc_mcu7t5v0__oai211_1
*I *1424:A2 I *D gf180mcu_fd_sc_mcu7t5v0__nand3_1
*I *1381:A2 I *D gf180mcu_fd_sc_mcu7t5v0__nand2_1
*I *1380:A2 I *D gf180mcu_fd_sc_mcu7t5v0__and2_1
*I *1391:A2 I *D gf180mcu_fd_sc_mcu7t5v0__aoi21_1
*I *1334:A2 I *D gf180mcu_fd_sc_mcu7t5v0__aoi21_1
*I *1326:A2 I *D gf180mcu_fd_sc_mcu7t5v0__nand2_1
*I *1429:A3 I *D gf180mcu_fd_sc_mcu7t5v0__nand3_1
*I *1386:A2 I *D gf180mcu_fd_sc_mcu7t5v0__aoi211_1
*I *1333:A1 I *D gf180mcu_fd_sc_mcu7t5v0__nand2_1
*I *1325:ZN O *D gf180mcu_fd_sc_mcu7t5v0__nand2_1
*CAP
1 *1428:A2 0.00053422
2 *1438:A2 0.000214866
3 *1437:A2 0
4 *1328:B 0
5 *1424:A2 0.000156673
6 *1381:A2 0
7 *1380:A2 0.000340405
8 *1391:A2 0
9 *1334:A2 0
10 *1326:A2 0.000233491
11 *1429:A3 0.000504812
12 *1386:A2 0.000321965
13 *1333:A1 0
14 *1325:ZN 0.000108849
15 *193:148 0.000254907
16 *193:106 0.000613396
17 *193:93 0.000353687
18 *193:91 0.000403548
19 *193:67 0.000233491
20 *193:34 0.000397123
21 *193:30 0.000735752
22 *193:28 0.000275422
23 *193:26 0.000380092
24 *193:22 0.000509676
25 *193:16 0.00154347
26 *193:10 0.0017311
27 *1326:A2 *1335:A2 3.29304e-05
28 *1326:A2 *206:14 0.000238799
29 *1380:A2 *1407:B 0.000257552
30 *1380:A2 *1412:A2 2.593e-05
31 *1380:A2 *1622:A1 0.000140475
32 *1380:A2 *241:12 0.000345373
33 *1380:A2 *241:23 1.39778e-05
34 *1380:A2 *272:6 0.000236009
35 *1386:A2 *1335:A2 0.000646616
36 *1386:A2 *1415:A1 5.13977e-05
37 *1424:A2 *1390:A3 1.83273e-05
38 *1424:A2 *1425:A3 0.000113027
39 *1424:A2 *1610:A1 9.95131e-05
40 *1424:A2 *241:31 7.38065e-05
41 *1424:A2 *241:33 0.000345387
42 *1424:A2 *492:228 3.12437e-05
43 *1428:A2 *1353:I1 0.00010321
44 *1428:A2 *1753:I 0.00108556
45 *1428:A2 *471:86 6.27162e-05
46 *1428:A2 *569:10 9.604e-05
47 *1429:A3 *1336:A2 2.14739e-05
48 *1429:A3 *1429:A1 2.05998e-05
49 *1429:A3 *200:23 0.000398059
50 *1429:A3 *208:14 0.000149121
51 *1429:A3 *579:65 8.44565e-06
52 *1438:A2 *1347:B 0.000102417
53 *1438:A2 *1438:A1 4.16304e-05
54 *1438:A2 *1439:A3 0.000481522
55 *193:10 *578:143 0.0015812
56 *193:16 *1347:B 0.00169048
57 *193:16 *1440:A2 0.000107648
58 *193:16 *1727:CLK 0.000763905
59 *193:16 *1744:I 0.000226377
60 *193:16 *471:86 2.62902e-05
61 *193:22 *1324:B 0.000143078
62 *193:22 *1328:A1 0
63 *193:22 *1347:B 0.000113773
64 *193:22 *1382:A1 0.000127762
65 *193:22 *1390:A4 0.000161929
66 *193:22 *1440:A2 0.000560661
67 *193:22 *204:10 5.07131e-05
68 *193:22 *579:48 1.67665e-05
69 *193:22 *580:32 0
70 *193:26 *204:10 0
71 *193:28 *1338:A1 6.57935e-06
72 *193:30 *1333:A2 0.000343966
73 *193:30 *1338:A1 7.59999e-06
74 *193:34 *1333:A2 0.00026188
75 *193:91 *1390:A3 7.14197e-05
76 *193:91 *1390:A4 0.000408718
77 *193:91 *194:8 0.000254943
78 *193:91 *206:14 7.2452e-05
79 *193:93 *1390:A3 9.92195e-05
80 *193:93 *206:14 2.44843e-05
81 *193:106 *1390:A3 0.000406983
82 *193:106 *1407:B 0.000402011
83 *193:148 *1347:B 0.000248324
84 *193:148 *1439:A3 4.50135e-05
85 *193:148 *1440:A2 9.76253e-05
86 *1322:A2 *1386:A2 7.63249e-05
87 *1322:A2 *1429:A3 8.14046e-05
88 *1328:A2 *193:26 0
89 *1328:A2 *193:28 0
90 *1328:C *193:22 3.4596e-05
91 *1328:C *193:26 4.27968e-05
92 *1328:C *193:28 3.61058e-05
93 *1328:C *193:30 1.90528e-05
94 *1334:B *1429:A3 0.000171397
95 *1340:C *1429:A3 0.000146529
96 *1381:A1 *1380:A2 5.13977e-05
97 *1381:A1 *193:93 0.000194511
98 *1381:A1 *193:106 0.000671873
99 *1386:A1 *1386:A2 7.60693e-05
100 *1386:B *1386:A2 0.000125984
101 *1424:A1 *1424:A2 1.07369e-05
102 *1428:A1 *1428:A2 0.00117951
103 *1428:A1 *193:16 0.00207049
104 *1429:A2 *1429:A3 0.000344989
105 *1689:D *1380:A2 0.000810629
106 *1784:I *193:16 0.000744967
107 *1785:I *193:16 0.000176862
108 *1789:I *193:10 0.0015812
109 *140:72 *193:22 2.68412e-05
110 *142:222 *193:30 4.80795e-05
111 *142:222 *193:34 4.40795e-05
112 *149:10 *1380:A2 0.000130913
113 *156:16 *1429:A3 4.44654e-05
114 *157:36 *1424:A2 2.60017e-05
115 *157:49 *1424:A2 0.000164697
*RES
1 *1325:ZN *193:10 17.764 
2 *193:10 *193:16 17.604 
3 *193:16 *193:22 8.868 
4 *193:22 *193:26 5.228 
5 *193:26 *193:28 0.728 
6 *193:28 *193:30 1.352 
7 *193:30 *193:34 5.228 
8 *193:34 *1333:A1 4.5 
9 *193:34 *1386:A2 8.244 
10 *193:30 *1429:A3 14.096 
11 *193:28 *193:67 4.5 
12 *193:67 *1326:A2 6.372 
13 *193:67 *1334:A2 4.5 
14 *193:26 *193:91 6.58 
15 *193:91 *193:93 0.936 
16 *193:93 *1391:A2 4.5 
17 *193:93 *193:106 3.744 
18 *193:106 *1380:A2 18.388 
19 *193:106 *1381:A2 4.5 
20 *193:91 *1424:A2 15.58 
21 *193:22 *1328:B 4.5 
22 *193:16 *193:148 5.228 
23 *193:148 *1437:A2 4.5 
24 *193:148 *1438:A2 6.788 
25 *193:10 *1428:A2 11.468 
*END

*D_NET *194 0.00280255
*CONN
*I *1337:C I *D gf180mcu_fd_sc_mcu7t5v0__aoi211_1
*I *1327:A2 I *D gf180mcu_fd_sc_mcu7t5v0__nor2_1
*I *1326:ZN O *D gf180mcu_fd_sc_mcu7t5v0__nand2_1
*CAP
1 *1337:C 8.05512e-05
2 *1327:A2 5.86375e-05
3 *1326:ZN 0.000369753
4 *194:8 0.000508942
5 *1337:C *1324:B 1.40331e-05
6 *194:8 *1324:B 1.14014e-05
7 *194:8 *1338:A1 0.00017298
8 *194:8 *1338:B 0.000225767
9 *194:8 *1390:A4 6.00917e-05
10 *194:8 *1429:A1 1.78214e-05
11 *194:8 *206:14 0.00050716
12 *194:8 *579:65 1.12609e-05
13 *1327:A1 *1337:C 5.63044e-06
14 *1327:A1 *194:8 2.81522e-06
15 *1328:A2 *194:8 0.000500761
16 *193:91 *194:8 0.000254943
*RES
1 *1326:ZN *194:8 8.66 
2 *194:8 *1327:A2 5.02 
3 *194:8 *1337:C 5.124 
*END

*D_NET *195 0.00325129
*CONN
*I *1339:A3 I *D gf180mcu_fd_sc_mcu7t5v0__nand3_1
*I *1390:A4 I *D gf180mcu_fd_sc_mcu7t5v0__nand4_1
*I *1338:B I *D gf180mcu_fd_sc_mcu7t5v0__oai21_1
*I *1327:ZN O *D gf180mcu_fd_sc_mcu7t5v0__nor2_1
*CAP
1 *1339:A3 3.47457e-05
2 *1390:A4 0.000195545
3 *1338:B 0.000120025
4 *1327:ZN 0.000120025
5 *195:22 0.00023029
6 *1338:B *1324:B 5.96811e-05
7 *1338:B *1336:A2 0.000344585
8 *1338:B *504:26 0.000334675
9 *1339:A3 *1324:B 8.56628e-05
10 *1390:A4 *1324:B 5.49373e-05
11 *1390:A4 *1328:A1 0.000254943
12 *1390:A4 *1390:A3 3.4596e-05
13 *1390:A4 *204:12 1.63622e-05
14 *1328:A2 *1390:A4 0.000500761
15 *1328:C *1390:A4 7.95519e-06
16 *193:22 *1390:A4 0.000161929
17 *193:91 *1390:A4 0.000408718
18 *194:8 *1338:B 0.000225767
19 *194:8 *1390:A4 6.00917e-05
*RES
1 *1327:ZN *1338:B 19.664 
2 *1338:B *195:22 4.5 
3 *195:22 *1390:A4 7.828 
4 *195:22 *1339:A3 5.02 
*END

*D_NET *196 0.00149936
*CONN
*I *1382:A1 I *D gf180mcu_fd_sc_mcu7t5v0__nor3_1
*I *1328:ZN O *D gf180mcu_fd_sc_mcu7t5v0__oai211_1
*CAP
1 *1382:A1 0.000280123
2 *1328:ZN 0.000280123
3 *1382:A1 *203:18 0.000642242
4 *1382:A1 *580:32 3.05326e-05
5 *157:8 *1382:A1 0.000138578
6 *193:22 *1382:A1 0.000127762
*RES
1 *1328:ZN *1382:A1 21.12 
*END

*D_NET *197 0.00182628
*CONN
*I *1332:A2 I *D gf180mcu_fd_sc_mcu7t5v0__oai211_1
*I *1329:ZN O *D gf180mcu_fd_sc_mcu7t5v0__nor2_1
*CAP
1 *1332:A2 0.000220743
2 *1329:ZN 0.000220743
3 *1317:A2 *1332:A2 2.50877e-05
4 *1317:B1 *1332:A2 0.000256285
5 *1322:A2 *1332:A2 3.30212e-05
6 *1340:A2 *1332:A2 0.000497053
7 *175:22 *1332:A2 0.000573343
*RES
1 *1329:ZN *1332:A2 12.016 
*END

*D_NET *198 0.00264977
*CONN
*I *1331:A2 I *D gf180mcu_fd_sc_mcu7t5v0__aoi21_1
*I *1330:ZN O *D gf180mcu_fd_sc_mcu7t5v0__nand2_1
*CAP
1 *1331:A2 0.000618517
2 *1330:ZN 0.000618517
3 *1331:A2 *1433:A1 0
4 *1331:A2 *1434:A3 6.59906e-06
5 *1331:A2 *1759:I 1.46587e-05
6 *1331:A2 *552:36 0
7 *1386:C *1331:A2 5.3714e-05
8 *1395:B2 *1331:A2 0.000580926
9 *1398:A1 *1331:A2 0.000571698
10 *1725:D *1331:A2 8.25894e-05
11 *143:57 *1331:A2 2.37133e-06
12 *153:12 *1331:A2 0.000100176
*RES
1 *1330:ZN *1331:A2 23.408 
*END

*D_NET *199 0.00785694
*CONN
*I *1338:A1 I *D gf180mcu_fd_sc_mcu7t5v0__oai21_1
*I *1432:A1 I *D gf180mcu_fd_sc_mcu7t5v0__nand2_1
*I *1331:ZN O *D gf180mcu_fd_sc_mcu7t5v0__aoi21_1
*CAP
1 *1338:A1 0.000710776
2 *1432:A1 0.000138853
3 *1331:ZN 0
4 *199:4 0.000849629
5 *1338:A1 *1333:A2 7.38092e-05
6 *1338:A1 *1338:A2 2.14739e-05
7 *1338:A1 *1434:B1 8.92034e-05
8 *1338:A1 *1436:A3 0.000266651
9 *1338:A1 *1759:I 6.52742e-05
10 *1338:A1 *206:14 0.000103788
11 *1432:A1 *1434:B1 0.000791588
12 *1432:A1 *1436:A3 0.000605396
13 *1317:A2 *1338:A1 1.06742e-05
14 *1328:A2 *1338:A1 0.000359903
15 *1331:A1 *1338:A1 1.23748e-05
16 *1332:A1 *1338:A1 0.00107325
17 *1386:C *1338:A1 0
18 *1433:A2 *1338:A1 0.00156422
19 *142:157 *1338:A1 0.000498612
20 *142:159 *1432:A1 4.11879e-05
21 *142:222 *1338:A1 0
22 *156:29 *1338:A1 0.000380579
23 *157:82 *1338:A1 1.25461e-05
24 *193:28 *1338:A1 6.57935e-06
25 *193:30 *1338:A1 7.59999e-06
26 *194:8 *1338:A1 0.00017298
*RES
1 *1331:ZN *199:4 4.5 
2 *199:4 *1432:A1 7.204 
3 *199:4 *1338:A1 32.276 
*END

*D_NET *200 0.00682168
*CONN
*I *1430:A1 I *D gf180mcu_fd_sc_mcu7t5v0__nand2_1
*I *1337:A1 I *D gf180mcu_fd_sc_mcu7t5v0__aoi211_1
*I *1336:A1 I *D gf180mcu_fd_sc_mcu7t5v0__nand2_1
*I *1332:ZN O *D gf180mcu_fd_sc_mcu7t5v0__oai211_1
*CAP
1 *1430:A1 0.000429239
2 *1337:A1 0
3 *1336:A1 0
4 *1332:ZN 8.58632e-05
5 *200:23 0.000621371
6 *200:12 0.000277995
7 *1430:A1 *1336:A2 0.000155298
8 *1430:A1 *1372:A4 3.48247e-05
9 *1430:A1 *1430:A2 3.60303e-05
10 *1430:A1 *1438:C 0.000180091
11 *1430:A1 *1440:A2 0.000536139
12 *1430:A1 *203:18 0.000135253
13 *200:12 *219:28 0.000387773
14 *200:23 *1336:A2 0.00127164
15 *200:23 *1429:A1 2.46717e-05
16 *200:23 *205:14 0.000949992
17 *200:23 *504:26 6.51414e-06
18 *1322:A2 *200:12 0.000263725
19 *1332:B *200:12 0.000168733
20 *1429:A3 *200:23 0.000398059
21 *140:72 *200:12 0.000261879
22 *156:16 *200:12 0.000254486
23 *157:8 *1430:A1 0.000102761
24 *192:41 *1430:A1 0.000205816
25 *192:41 *200:23 3.35294e-05
*RES
1 *1332:ZN *200:12 15.372 
2 *200:12 *1336:A1 4.5 
3 *200:12 *200:23 8.452 
4 *200:23 *1337:A1 9 
5 *200:23 *1430:A1 13.472 
*END

*D_NET *201 0.00501402
*CONN
*I *1335:A2 I *D gf180mcu_fd_sc_mcu7t5v0__nand2_1
*I *1333:ZN O *D gf180mcu_fd_sc_mcu7t5v0__nand2_1
*CAP
1 *1335:A2 0.000702997
2 *1333:ZN 0.000702997
3 *1335:A2 *1390:A3 0.000619746
4 *1335:A2 *1391:B 0.000104846
5 *1335:A2 *1392:A1 2.20569e-05
6 *1335:A2 *1402:A2 0.000244654
7 *1335:A2 *1406:A4 0.000841744
8 *1335:A2 *1415:A1 0.000113016
9 *1335:A2 *1425:A3 0.000134086
10 *1335:A2 *206:14 4.89736e-05
11 *1335:A2 *243:8 0.000199998
12 *1335:A2 *244:10 7.79362e-05
13 *1335:A2 *251:27 5.24641e-05
14 *1322:A2 *1335:A2 2.73715e-06
15 *1326:A2 *1335:A2 3.29304e-05
16 *1386:A2 *1335:A2 0.000646616
17 *1391:A1 *1335:A2 3.17817e-05
18 *10:18 *1335:A2 8.2087e-05
19 *157:16 *1335:A2 0.000352357
*RES
1 *1333:ZN *1335:A2 27.152 
*END

*D_NET *202 0.00102262
*CONN
*I *1338:A2 I *D gf180mcu_fd_sc_mcu7t5v0__oai21_1
*I *1334:ZN O *D gf180mcu_fd_sc_mcu7t5v0__aoi21_1
*CAP
1 *1338:A2 5.90138e-05
2 *1334:ZN 5.90138e-05
3 *1338:A2 *206:14 0.000406961
4 *1338:A2 *579:65 0.000476153
5 *1338:A1 *1338:A2 2.14739e-05
*RES
1 *1334:ZN *1338:A2 10.352 
*END

*D_NET *203 0.00840178
*CONN
*I *1337:A2 I *D gf180mcu_fd_sc_mcu7t5v0__aoi211_1
*I *1336:A2 I *D gf180mcu_fd_sc_mcu7t5v0__nand2_1
*I *1335:ZN O *D gf180mcu_fd_sc_mcu7t5v0__nand2_1
*CAP
1 *1337:A2 0
2 *1336:A2 0.000259289
3 *1335:ZN 0.00076099
4 *203:18 0.00102028
5 *1336:A2 *1429:A1 0.000316625
6 *1336:A2 *504:26 0.000262046
7 *1336:A2 *579:65 2.46831e-05
8 *203:18 *1347:B 1.12327e-05
9 *203:18 *1382:A3 0.00121405
10 *203:18 *1425:A2 0.000149712
11 *203:18 *1425:A3 0.000137277
12 *203:18 *1440:A2 1.26446e-05
13 *203:18 *241:29 0.000211324
14 *203:18 *250:18 1.95907e-05
15 *203:18 *504:26 0.000546405
16 *203:18 *579:18 0.000333415
17 *203:18 *579:20 0.000113016
18 *1338:B *1336:A2 0.000344585
19 *1380:A1 *203:18 3.4596e-05
20 *1382:A1 *203:18 0.000642242
21 *1429:A3 *1336:A2 2.14739e-05
22 *1430:A1 *1336:A2 0.000155298
23 *1430:A1 *203:18 0.000135253
24 *1437:A1 *203:18 0.000316553
25 *1785:I *203:18 3.10787e-05
26 *157:8 *203:18 4.9984e-05
27 *192:41 *203:18 6.49835e-06
28 *200:23 *1336:A2 0.00127164
*RES
1 *1335:ZN *203:18 18.36 
2 *203:18 *1336:A2 13.16 
3 *203:18 *1337:A2 9 
*END

*D_NET *204 0.0122182
*CONN
*I *1339:A2 I *D gf180mcu_fd_sc_mcu7t5v0__nand3_1
*I *1390:A1 I *D gf180mcu_fd_sc_mcu7t5v0__nand4_1
*I *1610:A1 I *D gf180mcu_fd_sc_mcu7t5v0__aoi21_1
*I *1336:ZN O *D gf180mcu_fd_sc_mcu7t5v0__nand2_1
*CAP
1 *1339:A2 0
2 *1390:A1 0
3 *1610:A1 0.00128723
4 *1336:ZN 0.000275142
5 *204:12 0.00144418
6 *204:10 0.000432091
7 *1610:A1 *1341:A4 0.000338273
8 *1610:A1 *1390:A2 6.64873e-05
9 *1610:A1 *1390:A3 1.89921e-06
10 *1610:A1 *1417:B1 3.26021e-05
11 *1610:A1 *1424:A3 0.000775879
12 *1610:A1 *1427:A2 0.000562481
13 *1610:A1 *1625:A2 0.000128374
14 *1610:A1 *1750:I 2.32859e-05
15 *1610:A1 *1800:I 0
16 *1610:A1 *241:31 2.66514e-05
17 *1610:A1 *250:18 0.00088465
18 *1610:A1 *279:12 0.000817103
19 *1610:A1 *279:101 0.000147623
20 *1610:A1 *425:53 0
21 *1610:A1 *492:228 4.11484e-05
22 *1610:A1 *560:58 0.000420054
23 *1610:A1 *580:21 0
24 *204:12 *1324:B 0.000950226
25 *204:12 *207:12 0.000113016
26 *204:12 *492:228 0.000334595
27 ADDR_O[6] *1610:A1 8.70669e-05
28 ADDR_O[7] *1610:A1 0.000740576
29 *1328:A2 *204:10 0.000528636
30 *1390:A4 *204:12 1.63622e-05
31 *1424:A2 *1610:A1 9.95131e-05
32 *140:72 *204:10 0.00125248
33 *156:29 *204:10 0.000258582
34 *157:36 *1610:A1 8.12752e-05
35 *193:22 *204:10 5.07131e-05
36 *193:26 *204:10 0
*RES
1 *1336:ZN *204:10 16.932 
2 *204:10 *204:12 3.016 
3 *204:12 *1610:A1 29.308 
4 *204:12 *1390:A1 4.5 
5 *204:10 *1339:A2 4.5 
*END

*D_NET *205 0.0183656
*CONN
*I *1340:B I *D gf180mcu_fd_sc_mcu7t5v0__oai211_1
*I *1404:A1 I *D gf180mcu_fd_sc_mcu7t5v0__aoi221_1
*I *1401:A2 I *D gf180mcu_fd_sc_mcu7t5v0__and4_1
*I *1393:A2 I *D gf180mcu_fd_sc_mcu7t5v0__nand2_1
*I *1389:A2 I *D gf180mcu_fd_sc_mcu7t5v0__nand3_1
*I *1337:ZN O *D gf180mcu_fd_sc_mcu7t5v0__aoi211_1
*CAP
1 *1340:B 0
2 *1404:A1 0.000356212
3 *1401:A2 2.84331e-05
4 *1393:A2 0.000130996
5 *1389:A2 0
6 *1337:ZN 0.000408746
7 *205:56 0.000421673
8 *205:42 0.000139094
9 *205:38 0.00175134
10 *205:14 0.00211496
11 *1393:A2 *1320:A1 0.000166817
12 *1393:A2 *1389:A1 3.6012e-05
13 *1393:A2 *1393:A1 3.4596e-05
14 *1401:A2 *1400:A1 0.000103788
15 *1401:A2 *1401:A1 3.22108e-05
16 *1404:A1 *1389:A3 0.000152359
17 *1404:A1 *1404:A2 0.000855274
18 *1404:A1 *1407:B 0.000103788
19 *1404:A1 *1410:A1 9.35542e-06
20 *1404:A1 *242:32 0.000179413
21 *1404:A1 *247:10 0.000761151
22 *1404:A1 *449:41 3.70435e-05
23 *1404:A1 *449:56 0.000569484
24 *1404:A1 *449:89 5.0164e-05
25 *205:14 *1324:B 8.4752e-05
26 *205:14 *207:12 8.4752e-05
27 *205:14 *208:14 1.78421e-06
28 *205:14 *504:26 0.000132753
29 *205:38 *1308:B2 0.000368388
30 *205:38 *1320:A1 0.000414693
31 *205:38 *208:14 6.40114e-06
32 *205:38 *219:28 3.10787e-05
33 *205:38 *248:10 9.37345e-05
34 *205:38 *504:26 0.000370404
35 *205:38 *577:26 0
36 *205:42 *1389:A1 0.000358225
37 *205:42 *1389:A3 0.000208806
38 *205:56 *1389:A1 0.000262946
39 *205:56 *1389:A3 0.00038529
40 *205:56 *449:41 6.11661e-05
41 *1278:A1 *205:38 0.000182208
42 *1308:A2 *205:38 0.000247057
43 *1308:B1 *205:38 7.18755e-06
44 *1320:A3 *205:38 0.00030898
45 *1323:A2 *205:38 0.000334711
46 *1385:A3 *205:38 0.000379422
47 *1403:A1 *205:38 0.000111075
48 *1429:A2 *205:14 0.000253847
49 *1719:D *205:38 4.89441e-05
50 *131:31 *1404:A1 0.000115856
51 *131:31 *205:42 7.29199e-05
52 *141:57 *205:14 1.74086e-05
53 *142:159 *205:38 7.95519e-06
54 *142:180 *205:38 0.000736224
55 *146:6 *1393:A2 4.82603e-06
56 *146:30 *1393:A2 3.57634e-06
57 *149:27 *205:38 6.96851e-05
58 *152:8 *205:38 0.000382831
59 *152:31 *205:38 0.000861958
60 *156:16 *205:14 9.88256e-05
61 *156:16 *205:38 1.823e-05
62 *157:82 *205:38 0.000976171
63 *179:24 *205:38 0.000155245
64 *192:10 *205:14 0.00024497
65 *192:32 *205:14 0.000392683
66 *192:41 *205:14 7.47044e-05
67 *200:23 *205:14 0.000949992
*RES
1 *1337:ZN *205:14 14.408 
2 *205:14 *205:38 28.968 
3 *205:38 *205:42 5.436 
4 *205:42 *1389:A2 4.5 
5 *205:42 *1393:A2 5.436 
6 *205:38 *205:56 1.144 
7 *205:56 *1401:A2 9.312 
8 *205:56 *1404:A1 14.824 
9 *205:14 *1340:B 9 
*END

*D_NET *206 0.01541
*CONN
*I *1419:B I *D gf180mcu_fd_sc_mcu7t5v0__aoi211_1
*I *1414:B I *D gf180mcu_fd_sc_mcu7t5v0__aoi211_1
*I *1425:A1 I *D gf180mcu_fd_sc_mcu7t5v0__oai32_1
*I *1406:A1 I *D gf180mcu_fd_sc_mcu7t5v0__nor4_1
*I *1412:A2 I *D gf180mcu_fd_sc_mcu7t5v0__oai32_1
*I *1402:A1 I *D gf180mcu_fd_sc_mcu7t5v0__nor4_1
*I *1338:ZN O *D gf180mcu_fd_sc_mcu7t5v0__oai21_1
*CAP
1 *1419:B 3.66389e-05
2 *1414:B 0.000234562
3 *1425:A1 0.000130802
4 *1406:A1 5.47385e-05
5 *1412:A2 0.000772557
6 *1402:A1 0.000193854
7 *1338:ZN 0.000693491
8 *206:66 0.000352285
9 *206:53 0.000317373
10 *206:42 0.00041261
11 *206:27 0.00109181
12 *206:14 0.000954211
13 *1402:A1 *1403:C 2.91591e-05
14 *1406:A1 *242:8 5.10265e-05
15 *1406:A1 *492:228 0.000169331
16 *1412:A2 *1309:A1 0.000476164
17 *1412:A2 *1403:C 9.35119e-07
18 *1412:A2 *1404:A2 0.000384586
19 *1412:A2 *1407:A2 4.09998e-05
20 *1412:A2 *1407:B 6.96882e-05
21 *1412:A2 *1412:A3 2.46831e-05
22 *1412:A2 *1412:B1 0.000227496
23 *1412:A2 *246:14 0.000487382
24 *1412:A2 *450:64 1.12327e-05
25 *1412:A2 *492:171 0.000173963
26 *1412:A2 *492:198 0.000148844
27 *1414:B *1414:C 0.00023869
28 *1414:B *1426:A2 0.000875918
29 *1414:B *273:10 1.87108e-05
30 *1419:B *1414:C 6.062e-05
31 *1419:B *1426:A2 0.000148035
32 *1425:A1 *1419:A1 0.000150699
33 *1425:A1 *1425:A2 0.000191739
34 *1425:A1 *1426:A2 4.82113e-05
35 *1425:A1 *240:26 0.000169331
36 *1425:A1 *250:18 0.000147623
37 *1425:A1 *250:32 0.000256274
38 *1425:A1 *272:6 0.00032003
39 *206:14 *1391:B 5.36098e-05
40 *206:14 *579:65 1.26446e-05
41 *206:42 *1402:A2 2.68588e-05
42 *206:42 *1406:A3 0.000194292
43 *206:42 *1420:A2 0.000355296
44 *206:42 *240:30 6.17392e-05
45 *206:42 *241:12 6.82665e-05
46 *206:42 *244:10 1.23478e-05
47 *206:53 *1420:A2 0.000871759
48 *206:53 *240:30 0.000330743
49 *206:66 *1406:A4 1.5123e-05
50 *206:66 *1420:A2 0.000207544
51 *206:66 *240:30 2.88467e-05
52 *1310:A1 *1412:A2 0.000146714
53 *1311:A1 *1412:A2 0.000122244
54 *1311:A2 *1412:A2 0.000488479
55 *1326:A2 *206:14 0.000238799
56 *1335:A2 *206:14 4.89736e-05
57 *1338:A1 *206:14 0.000103788
58 *1338:A2 *206:14 0.000406961
59 *1380:A2 *1412:A2 2.593e-05
60 *1381:A1 *1412:A2 0.000138807
61 *1381:A1 *206:14 0.000274374
62 *1391:A1 *206:14 0.000194511
63 *10:18 *206:14 0
64 *179:10 *1412:A2 0.000210903
65 *193:91 *206:14 7.2452e-05
66 *193:93 *206:14 2.44843e-05
67 *194:8 *206:14 0.00050716
*RES
1 *1338:ZN *206:14 11.884 
2 *206:14 *1402:A1 5.852 
3 *206:14 *206:27 0.312 
4 *206:27 *1412:A2 13.34 
5 *206:27 *206:42 6.892 
6 *206:42 *1406:A1 9.52 
7 *206:42 *206:53 2.392 
8 *206:53 *1425:A1 11.392 
9 *206:53 *206:66 5.228 
10 *206:66 *1414:B 7.1 
11 *206:66 *1419:B 5.02 
*END

*D_NET *207 0.00348316
*CONN
*I *1368:B I *D gf180mcu_fd_sc_mcu7t5v0__aoi211_1
*I *1342:B I *D gf180mcu_fd_sc_mcu7t5v0__aoi211_1
*I *1339:ZN O *D gf180mcu_fd_sc_mcu7t5v0__nand3_1
*CAP
1 *1368:B 8.69833e-05
2 *1342:B 0
3 *1339:ZN 0.000716399
4 *207:12 0.000803383
5 *1368:B *1264:I 0.000245715
6 *207:12 *1264:I 3.05186e-05
7 *207:12 *1324:B 9.6654e-05
8 *207:12 *1430:A2 3.79409e-05
9 *207:12 *1440:B 0.00016681
10 *207:12 *492:228 8.2643e-05
11 *207:12 *492:232 4.29477e-05
12 *140:66 *207:12 0.00033537
13 *140:72 *207:12 0.000103788
14 *141:37 *1368:B 1.21594e-05
15 *141:37 *207:12 0.000524078
16 *204:12 *207:12 0.000113016
17 *205:14 *207:12 8.4752e-05
*RES
1 *1339:ZN *207:12 10.948 
2 *207:12 *1342:B 4.5 
3 *207:12 *1368:B 5.228 
*END

*D_NET *208 0.0316541
*CONN
*I *1369:B1 I *D gf180mcu_fd_sc_mcu7t5v0__aoi22_1
*I *1353:S I *D gf180mcu_fd_sc_mcu7t5v0__mux2_2
*I *1379:S I *D gf180mcu_fd_sc_mcu7t5v0__mux2_2
*I *1374:S I *D gf180mcu_fd_sc_mcu7t5v0__mux2_2
*I *1358:S I *D gf180mcu_fd_sc_mcu7t5v0__mux2_2
*I *1348:S I *D gf180mcu_fd_sc_mcu7t5v0__mux2_2
*I *1363:S I *D gf180mcu_fd_sc_mcu7t5v0__mux2_2
*I *1343:B2 I *D gf180mcu_fd_sc_mcu7t5v0__aoi22_1
*I *1340:ZN O *D gf180mcu_fd_sc_mcu7t5v0__oai211_1
*CAP
1 *1369:B1 0
2 *1353:S 9.46757e-05
3 *1379:S 0
4 *1374:S 0.000314255
5 *1358:S 0.000839919
6 *1348:S 0.000193899
7 *1363:S 0.00122685
8 *1343:B2 0
9 *1340:ZN 0.000682597
10 *208:96 0.000763136
11 *208:77 0.00138928
12 *208:73 0.000560358
13 *208:54 0.000842684
14 *208:29 0.00151044
15 *208:27 0.00104506
16 *208:14 0.00172765
17 *1348:S *1347:A1 0.000294145
18 *1348:S *1478:S0 0.000122269
19 *1353:S *1353:I1 6.98089e-05
20 *1353:S *560:58 0
21 *1358:S *1353:I0 0.000357403
22 *1358:S *1477:I0 0.000454886
23 *1358:S *1772:I 8.6717e-06
24 *1358:S *1775:I 1.92416e-05
25 *1358:S *492:435 9.39621e-05
26 *1358:S *492:442 4.30827e-05
27 *1358:S *559:28 0.00165941
28 *1363:S *1270:I 0.000327138
29 *1363:S *1288:A2 0.000103788
30 *1363:S *1359:A2 0.000100457
31 *1363:S *1362:A1 7.80051e-05
32 *1363:S *1363:I0 0.000113016
33 *1363:S *1364:A2 6.47535e-05
34 *1363:S *1366:B2 0.000317308
35 *1363:S *1369:A2 0.000112056
36 *1363:S *491:30 0.000183157
37 *1363:S *554:19 4.54572e-05
38 *1374:S *1374:I1 0.000113027
39 *1374:S *1379:I1 0.00103659
40 *1374:S *558:48 0.000148093
41 *208:14 *1343:A1 7.87395e-06
42 *208:14 *1429:A1 5.63044e-06
43 *208:14 *577:26 0.000313691
44 *208:14 *577:37 0.000137132
45 *208:14 *578:8 6.84196e-06
46 *208:27 *1343:A1 5.13977e-05
47 *208:27 *1369:A1 0.00064991
48 *208:27 *1709:CLK 0.000202476
49 *208:27 *1710:CLK 0.000319289
50 *208:27 *491:30 0.000196087
51 *208:54 *1369:A2 0.000271774
52 *208:54 *554:19 5.015e-05
53 *208:73 *1353:I1 0.000409442
54 *208:73 *1634:B2 0.000737657
55 *208:77 *558:54 0.000730725
56 *208:96 *1379:I1 3.42651e-05
57 *208:96 *1632:A1 5.65501e-06
58 *208:96 *1635:A1 0.000141715
59 *208:96 *479:32 0.000104771
60 *208:96 *558:48 0.000952868
61 *208:96 *558:54 0.00042529
62 DAT_O[3] *208:54 0.000310749
63 DAT_O[3] *208:73 0.000930608
64 DAT_O[3] *208:77 0.000180928
65 DAT_O[3] *208:96 0.000170911
66 *1299:A1 *1363:S 0.000504075
67 *1312:A1 *1363:S 0.000772922
68 *1315:A2 *208:27 0.000113027
69 *1316:A1 *208:14 0
70 *1316:A1 *208:27 0
71 *1322:A2 *208:14 9.35542e-06
72 *1342:A2 *208:14 0
73 *1343:A2 *208:27 0.000515166
74 *1343:B1 *208:27 0.000675435
75 *1344:A1 *1363:S 0
76 *1365:A2 *1363:S 0
77 *1368:A2 *208:14 0
78 *1369:B2 *1363:S 2.64838e-05
79 *1369:B2 *208:27 6.0702e-05
80 *1376:A2 *1353:S 0.000116422
81 *1376:A2 *208:73 0.000259842
82 *1385:A3 *208:14 8.14679e-05
83 *1428:A1 *1358:S 7.10144e-05
84 *1429:A3 *208:14 0.000149121
85 *1709:D *208:14 3.57108e-05
86 *1790:I *1358:S 8.39135e-05
87 *141:37 *208:14 0
88 *141:57 *208:14 7.39835e-05
89 *141:120 *208:54 8.68138e-05
90 *141:140 *208:54 3.81056e-05
91 *141:151 *208:73 5.69537e-05
92 *142:99 *1363:S 0.000103788
93 *152:56 *1363:S 0.000663763
94 *156:16 *208:14 0.000371515
95 *159:8 *1363:S 0.00028463
96 *176:41 *1363:S 0.000490129
97 *176:45 *1363:S 7.05624e-05
98 *176:58 *1348:S 0.000103788
99 *176:66 *208:54 0.000107648
100 *176:66 *208:73 0.00131517
101 *179:64 *208:14 0
102 *179:75 *208:27 0
103 *205:14 *208:14 1.78421e-06
104 *205:38 *208:14 6.40114e-06
*RES
1 *1340:ZN *208:14 19.012 
2 *208:14 *1343:B2 4.5 
3 *208:14 *208:27 11.232 
4 *208:27 *208:29 4.5 
5 *208:29 *1363:S 31.936 
6 *208:29 *208:54 3.016 
7 *208:54 *1348:S 10.768 
8 *208:54 *208:73 11.988 
9 *208:73 *208:77 6.476 
10 *208:77 *1358:S 17.84 
11 *208:77 *208:96 10.116 
12 *208:96 *1374:S 7.828 
13 *208:96 *1379:S 4.5 
14 *208:73 *1353:S 5.436 
15 *208:27 *1369:B1 4.5 
*END

*D_NET *209 0.0074634
*CONN
*I *1342:C I *D gf180mcu_fd_sc_mcu7t5v0__aoi211_1
*I *1341:Z O *D gf180mcu_fd_sc_mcu7t5v0__and4_1
*CAP
1 *1342:C 0.00116829
2 *1341:Z 0.00116829
3 *1342:C *1361:A4 0.000513513
4 *1342:C *1727:CLK 0
5 *1342:C *222:28 0.000982529
6 *1342:C *225:10 0.000370141
7 *1342:C *492:251 4.04718e-05
8 *1342:C *492:412 9.95822e-05
9 *1342:C *577:59 0.00119175
10 *1342:C *577:94 3.89544e-05
11 *1342:C *580:10 0.000309863
12 *1728:D *1342:C 0.000100057
13 *1787:I *1342:C 0.00138632
14 *1790:I *1342:C 9.36355e-05
*RES
1 *1341:Z *1342:C 31.624 
*END

*D_NET *210 0.00179525
*CONN
*I *1343:A1 I *D gf180mcu_fd_sc_mcu7t5v0__aoi22_1
*I *1342:ZN O *D gf180mcu_fd_sc_mcu7t5v0__aoi211_1
*CAP
1 *1343:A1 0.000222268
2 *1342:ZN 0.000222268
3 *1343:A1 *491:34 8.35178e-06
4 *1343:A1 *492:251 0.000428914
5 *1342:A1 *1343:A1 0.000135902
6 *1342:A2 *1343:A1 3.4596e-05
7 *1343:A2 *1343:A1 0.000160467
8 *1368:A2 *1343:A1 0.000395355
9 *1709:D *1343:A1 0.000127862
10 *208:14 *1343:A1 7.87395e-06
11 *208:27 *1343:A1 5.13977e-05
*RES
1 *1342:ZN *1343:A1 21.12 
*END

*D_NET *211 0.00510616
*CONN
*I *1347:A2 I *D gf180mcu_fd_sc_mcu7t5v0__oai21_1
*I *1344:Z O *D gf180mcu_fd_sc_mcu7t5v0__and4_1
*CAP
1 *1347:A2 0.000756353
2 *1344:Z 0.000756353
3 *1347:A2 *1347:A1 5.98296e-05
4 *1347:A2 *1348:I0 0.00149831
5 *1347:A2 *1478:S0 0.000910177
6 *1347:A2 *1479:A2 0.000657226
7 *1347:A2 *478:117 2.46831e-05
8 *1347:A2 *487:175 0.000182219
9 *1347:A2 *554:19 0.000226194
10 *1347:A2 *554:34 3.48225e-05
*RES
1 *1344:Z *1347:A2 27.568 
*END

*D_NET *212 0.00443226
*CONN
*I *1347:A1 I *D gf180mcu_fd_sc_mcu7t5v0__oai21_1
*I *1345:ZN O *D gf180mcu_fd_sc_mcu7t5v0__oai22_1
*CAP
1 *1347:A1 0.00102216
2 *1345:ZN 0.00102216
3 *1347:A1 *1345:A1 0.000245653
4 *1347:A1 *1477:I2 0.000630434
5 *1347:A1 *1477:I3 6.87243e-05
6 *1347:A1 *1478:S0 0.000246849
7 *1347:A1 *1792:I 3.57634e-06
8 *1347:A1 *487:175 0.000182219
9 *1347:A1 *568:8 3.22108e-05
10 *1347:A2 *1347:A1 5.98296e-05
11 *1348:S *1347:A1 0.000294145
12 *141:8 *1347:A1 1.36398e-06
13 *141:25 *1347:A1 0.000397125
14 *141:112 *1347:A1 0.000185064
15 *176:58 *1347:A1 4.07478e-05
*RES
1 *1345:ZN *1347:A1 18.048 
*END

*D_NET *213 0.0164573
*CONN
*I *1347:B I *D gf180mcu_fd_sc_mcu7t5v0__oai21_1
*I *1346:ZN O *D gf180mcu_fd_sc_mcu7t5v0__nand4_1
*CAP
1 *1347:B 0.00139532
2 *1346:ZN 0.00139532
3 *1347:B *1271:I 0.000337769
4 *1347:B *1346:A3 0.000106908
5 *1347:B *1351:A4 0.00460134
6 *1347:B *1372:A2 0.000921967
7 *1347:B *1372:A3 0.000167974
8 *1347:B *1372:A4 7.03763e-05
9 *1347:B *1438:A1 0.000147612
10 *1347:B *1438:B 0.000453993
11 *1347:B *1438:C 2.50972e-05
12 *1347:B *1439:A2 0
13 *1347:B *1439:A3 0.000554454
14 *1347:B *1440:A2 1.37509e-05
15 *1347:B *1477:I3 0.00047924
16 *1347:B *567:6 0.000182208
17 *1347:B *577:61 7.22679e-05
18 *1347:B *577:63 0.000293957
19 *1347:B *580:21 0
20 *1347:B *580:32 0
21 *1437:A1 *1347:B 3.42651e-05
22 *1438:A2 *1347:B 0.000102417
23 *1783:I *1347:B 4.75672e-06
24 *1784:I *1347:B 0.00129422
25 *1785:I *1347:B 0.000317313
26 *140:16 *1347:B 0.000297733
27 *140:22 *1347:B 3.86178e-05
28 *140:41 *1347:B 0.000466947
29 *140:45 *1347:B 0.000617635
30 *141:27 *1347:B 0
31 *193:16 *1347:B 0.00169048
32 *193:22 *1347:B 0.000113773
33 *193:148 *1347:B 0.000248324
34 *203:18 *1347:B 1.12327e-05
*RES
1 *1346:ZN *1347:B 44.104 
*END

*D_NET *214 0.00343245
*CONN
*I *1348:I0 I *D gf180mcu_fd_sc_mcu7t5v0__mux2_2
*I *1347:ZN O *D gf180mcu_fd_sc_mcu7t5v0__oai21_1
*CAP
1 *1348:I0 0.000426152
2 *1347:ZN 0.000426152
3 *1348:I0 *1478:S0 9.00155e-05
4 *1348:I0 *1479:A2 5.65788e-06
5 *1348:I0 *478:106 8.1598e-06
6 *1348:I0 *478:117 0.000522156
7 *1348:I0 *554:34 0.000355286
8 *1347:A2 *1348:I0 0.00149831
9 *140:16 *1348:I0 0.000100568
*RES
1 *1347:ZN *1348:I0 24.032 
*END

*D_NET *215 0.0140269
*CONN
*I *1352:A2 I *D gf180mcu_fd_sc_mcu7t5v0__oai21_1
*I *1349:Z O *D gf180mcu_fd_sc_mcu7t5v0__and4_1
*CAP
1 *1352:A2 0.00192317
2 *1349:Z 0.00192317
3 *1352:A2 *1352:A1 3.42651e-05
4 *1352:A2 *1353:I0 0.00207381
5 *1352:A2 *1358:I1 0.000223587
6 *1352:A2 *1477:I1 0.000973528
7 *1352:A2 *1521:S 0.000126161
8 *1352:A2 *1627:A3 0.000194511
9 *1352:A2 *1712:CLK 0.000206678
10 *1352:A2 *1762:I 0
11 *1352:A2 *1772:I 0.000346468
12 *1352:A2 *1775:I 0.00108856
13 *1352:A2 *478:121 0.000292162
14 *1352:A2 *487:175 0.00039776
15 DAT_O[0] *1352:A2 5.31867e-05
16 *1315:A2 *1352:A2 0.000655629
17 *1315:C *1352:A2 1.48501e-05
18 *1712:D *1352:A2 0.000487889
19 *1790:I *1352:A2 8.22757e-05
20 *141:25 *1352:A2 0.000441747
21 *176:20 *1352:A2 4.7461e-05
22 *176:41 *1352:A2 0.00108902
23 *179:90 *1352:A2 0.000934804
24 *179:99 *1352:A2 0.0004162
*RES
1 *1349:Z *1352:A2 44.312 
*END

*D_NET *216 0.00805529
*CONN
*I *1352:A1 I *D gf180mcu_fd_sc_mcu7t5v0__oai21_1
*I *1350:ZN O *D gf180mcu_fd_sc_mcu7t5v0__oai22_1
*CAP
1 *1352:A1 0.00073639
2 *1350:ZN 0.00073639
3 *1352:A1 *1353:I0 0.000188403
4 *1352:A1 *1521:S 6.49835e-06
5 *1352:A1 *1627:A2 0.00094715
6 *1352:A1 *1627:A3 0.000225002
7 *1352:A1 *425:96 0.000141017
8 *1352:A1 *434:6 3.4596e-05
9 *1352:A1 *434:10 0.000284618
10 *1352:A1 *434:20 0.000741118
11 *1352:A1 *492:446 0.00219212
12 *1352:A1 *492:465 0.000251178
13 *1352:A1 *555:8 8.69612e-05
14 *1352:A1 *555:49 0.000288814
15 *1352:A1 *555:66 3.11112e-05
16 *1352:A1 *559:28 0.000454372
17 DAT_O[1] *1352:A1 0.000550006
18 *1352:A2 *1352:A1 3.42651e-05
19 *176:83 *1352:A1 0.000125283
*RES
1 *1350:ZN *1352:A1 31.728 
*END

*D_NET *217 0.00603773
*CONN
*I *1352:B I *D gf180mcu_fd_sc_mcu7t5v0__oai21_1
*I *1351:ZN O *D gf180mcu_fd_sc_mcu7t5v0__nand4_1
*CAP
1 *1352:B 0.000274496
2 *1351:ZN 0.000274496
3 *1352:B *1378:B 0.000376677
4 *1352:B *1627:A2 5.13977e-05
5 *1352:B *1630:A1 7.9669e-06
6 *1352:B *577:140 0.000966936
7 *1352:B *577:147 0.00103614
8 *1627:A1 *1352:B 0.00101502
9 *140:143 *1352:B 0.000966936
10 *140:150 *1352:B 0.00106766
*RES
1 *1351:ZN *1352:B 17.424 
*END

*D_NET *218 0.00964196
*CONN
*I *1353:I0 I *D gf180mcu_fd_sc_mcu7t5v0__mux2_2
*I *1352:ZN O *D gf180mcu_fd_sc_mcu7t5v0__oai21_1
*CAP
1 *1353:I0 0.00121767
2 *1352:ZN 0.00121767
3 *1353:I0 *1627:A3 1.56624e-05
4 *1353:I0 *1753:I 8.14182e-05
5 *1353:I0 *1775:I 0.000728662
6 *1353:I0 *479:32 0
7 *1353:I0 *559:28 5.47338e-06
8 DAT_O[0] *1353:I0 0.0020856
9 *1352:A1 *1353:I0 0.000188403
10 *1352:A2 *1353:I0 0.00207381
11 *1358:S *1353:I0 0.000357403
12 *1376:A2 *1353:I0 0.000225252
13 *1428:A1 *1353:I0 0.00144017
14 *1790:I *1353:I0 4.75672e-06
*RES
1 *1352:ZN *1353:I0 34.744 
*END

*D_NET *219 0.0243567
*CONN
*I *1357:A1 I *D gf180mcu_fd_sc_mcu7t5v0__oai21_1
*I *1354:ZN O *D gf180mcu_fd_sc_mcu7t5v0__nor2_1
*CAP
1 *1357:A1 1.57026e-05
2 *1354:ZN 0.00243823
3 *219:28 0.00245393
4 *1357:A1 *1357:B 0.000106908
5 *1357:A1 *222:28 0.000106908
6 *219:28 *1284:A4 4.90897e-05
7 *219:28 *1285:A4 0.000477837
8 *219:28 *1299:A2 7.23206e-05
9 *219:28 *1313:A2 0.000169099
10 *219:28 *1382:A3 1.67036e-05
11 *219:28 *1440:A2 2.82894e-06
12 *219:28 *455:12 0.000198112
13 *219:28 *504:26 0.00402237
14 *219:28 *504:46 2.81522e-06
15 *219:28 *557:6 0.000113016
16 *219:28 *557:42 0.000839788
17 *219:28 *579:48 0.00140305
18 *1284:A3 *219:28 0.000334265
19 *1298:B *219:28 0.000113016
20 *1299:A1 *219:28 0.00101304
21 *1323:A1 *219:28 0.00208334
22 *1332:B *219:28 6.46802e-05
23 *1340:A1 *219:28 0.0010847
24 *1707:D *219:28 0.000666461
25 *1785:I *219:28 0.000141118
26 *11:16 *219:28 3.45498e-05
27 *140:72 *219:28 7.03164e-05
28 *142:33 *219:28 0.000303184
29 *142:50 *219:28 3.07722e-06
30 *142:60 *219:28 0.000143815
31 *142:99 *219:28 2.45102e-05
32 *150:59 *219:28 0.00051108
33 *152:31 *219:28 0.000237838
34 *152:52 *219:28 0
35 *152:56 *219:28 8.21146e-06
36 *157:82 *219:28 0.0020443
37 *157:89 *219:28 0.000113016
38 *157:102 *219:28 0.000993345
39 *159:8 *219:28 0.00146126
40 *200:12 *219:28 0.000387773
41 *205:38 *219:28 3.10787e-05
*RES
1 *1354:ZN *219:28 48 
2 *219:28 *1357:A1 9.312 
*END

*D_NET *220 0.00440848
*CONN
*I *1357:A2 I *D gf180mcu_fd_sc_mcu7t5v0__oai21_1
*I *1355:ZN O *D gf180mcu_fd_sc_mcu7t5v0__oai22_1
*CAP
1 *1357:A2 0.000399719
2 *1355:ZN 0.000399719
3 *1357:A2 *1356:A4 0.000150973
4 *1357:A2 *1406:A4 0.000175915
5 *1357:A2 *1728:CLK 0.00140115
6 *1357:A2 *222:28 0.000465595
7 *1357:A2 *560:58 0.000249421
8 *1789:I *1357:A2 0.00116599
*RES
1 *1355:ZN *1357:A2 15.552 
*END

*D_NET *221 0.00323731
*CONN
*I *1357:B I *D gf180mcu_fd_sc_mcu7t5v0__oai21_1
*I *1356:ZN O *D gf180mcu_fd_sc_mcu7t5v0__nand4_1
*CAP
1 *1357:B 0.00045562
2 *1356:ZN 0.00045562
3 *1357:B *1356:A4 0.000771978
4 *1357:B *1439:A3 0.000589027
5 *1357:B *1728:CLK 2.39167e-05
6 *1357:B *222:28 0.000102997
7 *1357:B *491:49 0.000185295
8 *1357:B *491:55 0.000501487
9 *1357:A1 *1357:B 0.000106908
10 *1789:I *1357:B 4.44654e-05
*RES
1 *1356:ZN *1357:B 14.824 
*END

*D_NET *222 0.00885433
*CONN
*I *1358:I0 I *D gf180mcu_fd_sc_mcu7t5v0__mux2_2
*I *1357:ZN O *D gf180mcu_fd_sc_mcu7t5v0__oai21_1
*CAP
1 *1358:I0 0
2 *1357:ZN 0.00113028
3 *222:28 0.00113028
4 *222:28 *1356:A4 4.07478e-05
5 *222:28 *1361:A4 5.5142e-05
6 *222:28 *1628:B1 1.97258e-05
7 *222:28 *1769:I 0
8 *222:28 *280:18 0
9 *222:28 *491:55 0.000206534
10 *222:28 *492:412 0.000251886
11 *222:28 *492:435 0.00106225
12 *222:28 *579:12 0.00174329
13 *1342:C *222:28 0.000982529
14 *1357:A1 *222:28 0.000106908
15 *1357:A2 *222:28 0.000465595
16 *1357:B *222:28 0.000102997
17 *1428:A1 *222:28 0.00126807
18 *1790:I *222:28 0.00028809
*RES
1 *1357:ZN *222:28 45.644 
2 *222:28 *1358:I0 4.5 
*END

*D_NET *223 0.00946189
*CONN
*I *1362:A1 I *D gf180mcu_fd_sc_mcu7t5v0__oai21_1
*I *1359:ZN O *D gf180mcu_fd_sc_mcu7t5v0__nor2_1
*CAP
1 *1362:A1 0.00135532
2 *1359:ZN 0.00135532
3 *1362:A1 *1363:I0 0.000169331
4 *1362:A1 *1366:A1 0.000343518
5 *1362:A1 *1373:A2 8.69612e-05
6 *1362:A1 *1373:B 0
7 *1362:A1 *1378:A1 0.00026464
8 *1362:A1 *1478:I3 0.000964864
9 *1362:A1 *1478:S0 6.31135e-06
10 *1362:A1 *1526:S 0.00126086
11 *1362:A1 *1638:A1 0.000373379
12 *1362:A1 *1807:I 0.00234369
13 *1362:A1 *478:106 0.000326467
14 *1362:A1 *557:12 0
15 *1362:A1 *573:12 7.17424e-05
16 *1312:A2 *1362:A1 7.19016e-05
17 *1363:S *1362:A1 7.80051e-05
18 *1365:A2 *1362:A1 2.80885e-05
19 *1714:D *1362:A1 8.16769e-05
20 *176:45 *1362:A1 0.000279814
*RES
1 *1359:ZN *1362:A1 35.264 
*END

*D_NET *224 0.00602173
*CONN
*I *1362:A2 I *D gf180mcu_fd_sc_mcu7t5v0__oai21_1
*I *1360:ZN O *D gf180mcu_fd_sc_mcu7t5v0__oai22_1
*CAP
1 *1362:A2 0.00112312
2 *1360:ZN 0.00112312
3 *1362:A2 *1360:A1 0.000218453
4 *1362:A2 *1363:I0 0.000978005
5 *1362:A2 *1373:A1 0.000568827
6 *1362:A2 *1373:A2 7.14171e-05
7 *1362:A2 *1378:A1 9.76253e-05
8 *1362:A2 *1478:S0 0
9 *1362:A2 *1636:B2 0.000402538
10 *1362:A2 *519:29 0.000358544
11 *1362:A2 *572:6 3.48351e-05
12 *1362:A2 *578:87 0
13 DAT_O[7] *1362:A2 0.00047173
14 *1713:D *1362:A2 0.000410048
15 *180:44 *1362:A2 0.000163477
*RES
1 *1360:ZN *1362:A2 30.272 
*END

*D_NET *225 0.0175796
*CONN
*I *1362:B I *D gf180mcu_fd_sc_mcu7t5v0__oai21_1
*I *1361:ZN O *D gf180mcu_fd_sc_mcu7t5v0__nand4_1
*CAP
1 *1362:B 0.00439995
2 *1361:ZN 0.000606664
3 *225:10 0.00500661
4 *1362:B *1406:A4 0
5 *225:10 *1367:A4 2.64624e-05
6 *225:10 *1627:A3 0.00234934
7 *225:10 *1629:A2 3.44395e-05
8 *225:10 *492:412 0.000585091
9 *1342:C *225:10 0.000370141
10 *1787:I *225:10 0.00420091
11 *1788:I *225:10 0
*RES
1 *1361:ZN *225:10 27.332 
2 *225:10 *1362:B 36.484 
*END

*D_NET *226 0.00585706
*CONN
*I *1363:I0 I *D gf180mcu_fd_sc_mcu7t5v0__mux2_2
*I *1362:ZN O *D gf180mcu_fd_sc_mcu7t5v0__oai21_1
*CAP
1 *1363:I0 0.000803833
2 *1362:ZN 0.000803833
3 *1363:I0 *1364:A2 2.98915e-05
4 *1363:I0 *1373:A1 2.66445e-05
5 *1363:I0 *1378:A1 1.37509e-05
6 *1363:I0 *1641:A2 0.000332873
7 *1363:I0 *1647:A2 0.000102324
8 *1363:I0 *556:69 0.000419179
9 *1303:A1 *1363:I0 6.11661e-05
10 *1303:A2 *1363:I0 0.000510584
11 *1303:A3 *1363:I0 0.00010951
12 *1312:A3 *1363:I0 0.000149838
13 *1354:A1 *1363:I0 0.000139069
14 *1362:A1 *1363:I0 0.000169331
15 *1362:A2 *1363:I0 0.000978005
16 *1363:S *1363:I0 0.000113016
17 *1704:D *1363:I0 4.52895e-05
18 *142:99 *1363:I0 0.000515535
19 *180:44 *1363:I0 0.000533385
*RES
1 *1362:ZN *1363:I0 29.336 
*END

*D_NET *227 0.000557404
*CONN
*I *1365:A3 I *D gf180mcu_fd_sc_mcu7t5v0__nand3_1
*I *1364:ZN O *D gf180mcu_fd_sc_mcu7t5v0__nand2_1
*CAP
1 *1365:A3 8.44641e-05
2 *1364:ZN 8.44641e-05
3 *1365:A3 *1359:A2 0.000145381
4 *1365:A3 *1366:C 9.7618e-05
5 *1359:A1 *1365:A3 0.000145476
*RES
1 *1364:ZN *1365:A3 10.144 
*END

*D_NET *228 0.00264062
*CONN
*I *1366:C I *D gf180mcu_fd_sc_mcu7t5v0__oai221_1
*I *1365:ZN O *D gf180mcu_fd_sc_mcu7t5v0__nand3_1
*CAP
1 *1366:C 0.000334501
2 *1365:ZN 0.000334501
3 *1366:C *1270:I 0.000636062
4 *1366:C *1288:A2 0.000152123
5 *1366:C *1359:A2 0.000105623
6 *1366:C *491:30 0.000176038
7 *1366:C *557:12 0.000788826
8 DAT_O[3] *1366:C 0
9 *1365:A3 *1366:C 9.7618e-05
10 *1714:D *1366:C 1.53331e-05
*RES
1 *1365:ZN *1366:C 22.264 
*END

*D_NET *229 0.00142874
*CONN
*I *1369:A2 I *D gf180mcu_fd_sc_mcu7t5v0__aoi22_1
*I *1366:ZN O *D gf180mcu_fd_sc_mcu7t5v0__oai221_1
*CAP
1 *1369:A2 0.000174949
2 *1366:ZN 0.000174949
3 *1369:A2 *1270:I 4.34897e-05
4 *1369:A2 *1366:B2 9.86854e-07
5 *1369:A2 *558:54 2.25594e-05
6 DAT_O[3] *1369:A2 0.000208806
7 *1363:S *1369:A2 0.000112056
8 *1366:A2 *1369:A2 4.67771e-06
9 *1714:D *1369:A2 0.000408707
10 *141:120 *1369:A2 5.78216e-06
11 *208:54 *1369:A2 0.000271774
*RES
1 *1366:ZN *1369:A2 20.288 
*END

*D_NET *230 0.00949135
*CONN
*I *1368:C I *D gf180mcu_fd_sc_mcu7t5v0__aoi211_1
*I *1367:Z O *D gf180mcu_fd_sc_mcu7t5v0__and4_1
*CAP
1 *1368:C 0
2 *1367:Z 0.00178521
3 *230:26 0.00178521
4 *230:26 *1325:A2 2.99813e-07
5 *230:26 *1367:A4 0.000669939
6 *230:26 *1628:A1 0.000236183
7 *230:26 *1634:A1 0
8 *230:26 *1691:CLK 4.53894e-05
9 *230:26 *1763:I 0.00099896
10 *230:26 *1802:I 0.00201354
11 *230:26 *280:18 5.24796e-05
12 *230:26 *491:34 0.000260884
13 *230:26 *492:251 0.000143482
14 *230:26 *492:412 0.000742306
15 *1283:A1 *230:26 0.000514298
16 *140:22 *230:26 0.000243165
*RES
1 *1367:Z *230:26 46.2549 
2 *230:26 *1368:C 4.5 
*END

*D_NET *231 0.00497137
*CONN
*I *1369:A1 I *D gf180mcu_fd_sc_mcu7t5v0__aoi22_1
*I *1368:ZN O *D gf180mcu_fd_sc_mcu7t5v0__aoi211_1
*CAP
1 *1369:A1 0.000915241
2 *1368:ZN 0.000915241
3 *1369:A1 *1264:I 0.000216898
4 *1369:A1 *1315:A1 0.000812113
5 *1369:A1 *519:6 0.000112696
6 *1315:A2 *1369:A1 3.22108e-05
7 *1343:A2 *1369:A1 0.0001024
8 *1709:D *1369:A1 0.000287695
9 *1710:D *1369:A1 7.05505e-05
10 *141:120 *1369:A1 9.3396e-05
11 *186:12 *1369:A1 0.000763015
12 *208:27 *1369:A1 0.00064991
*RES
1 *1368:ZN *1369:A1 19.92 
*END

*D_NET *232 0.00469668
*CONN
*I *1373:A1 I *D gf180mcu_fd_sc_mcu7t5v0__oai21_1
*I *1370:ZN O *D gf180mcu_fd_sc_mcu7t5v0__nor2_1
*CAP
1 *1373:A1 0.000472623
2 *1370:ZN 0.000472623
3 *1373:A1 *1373:B 0.000404559
4 *1373:A1 *1641:A2 4.72158e-05
5 *1362:A2 *1373:A1 0.000568827
6 *1363:I0 *1373:A1 2.66445e-05
7 *1370:A1 *1373:A1 0.00235184
8 *180:44 *1373:A1 0.000352347
*RES
1 *1370:ZN *1373:A1 25.488 
*END

*D_NET *233 0.00861384
*CONN
*I *1373:A2 I *D gf180mcu_fd_sc_mcu7t5v0__oai21_1
*I *1371:ZN O *D gf180mcu_fd_sc_mcu7t5v0__oai22_1
*CAP
1 *1373:A2 0.00176438
2 *1371:ZN 0.00176438
3 *1373:A2 *1373:B 1.74703e-05
4 *1373:A2 *1374:I0 0.000602548
5 *1373:A2 *1378:A1 0.00069784
6 *1373:A2 *1478:S0 0.000745259
7 *1373:A2 *1479:A2 0.000626951
8 *1373:A2 *1526:S 3.57652e-06
9 *1373:A2 *1636:A1 0.000216695
10 *1373:A2 *1761:I 5.13977e-05
11 *1373:A2 *1807:I 0.000976696
12 *1373:A2 *478:106 0.000190771
13 *1373:A2 *478:117 8.40102e-05
14 *1373:A2 *572:6 0.000591484
15 DAT_O[7] *1373:A2 0.000122017
16 *1362:A1 *1373:A2 8.69612e-05
17 *1362:A2 *1373:A2 7.14171e-05
*RES
1 *1371:ZN *1373:A2 35.472 
*END

*D_NET *234 0.0137772
*CONN
*I *1373:B I *D gf180mcu_fd_sc_mcu7t5v0__oai21_1
*I *1372:ZN O *D gf180mcu_fd_sc_mcu7t5v0__nand4_1
*CAP
1 *1373:B 0.00206565
2 *1372:ZN 0.00206565
3 *1373:B *1371:A1 0.000106926
4 *1373:B *1478:I3 9.56992e-06
5 *1373:B *1478:S1 0.000894298
6 *1373:B *1479:A2 0.00251873
7 *1373:B *1647:A2 0.000192271
8 *1373:B *478:106 2.84355e-05
9 *1373:B *478:117 1.18448e-05
10 *1373:B *488:109 0.000519012
11 *1373:B *519:29 2.9476e-05
12 *1373:B *556:8 1.44438e-05
13 *1373:B *556:14 2.41846e-05
14 *1373:B *573:12 0.00019636
15 *1373:B *574:10 1.66724e-05
16 DAT_O[0] *1373:B 1.79557e-05
17 DAT_O[7] *1373:B 0.00011181
18 *1362:A1 *1373:B 0
19 *1370:A1 *1373:B 0.000410314
20 *1371:B1 *1373:B 0.00069295
21 *1373:A1 *1373:B 0.000404559
22 *1373:A2 *1373:B 1.74703e-05
23 *1700:D *1373:B 0.00156406
24 *140:16 *1373:B 0.00161168
25 *180:44 *1373:B 0.000252873
*RES
1 *1372:ZN *1373:B 43.064 
*END

*D_NET *235 0.00833215
*CONN
*I *1374:I0 I *D gf180mcu_fd_sc_mcu7t5v0__mux2_2
*I *1373:ZN O *D gf180mcu_fd_sc_mcu7t5v0__oai21_1
*CAP
1 *1374:I0 0.000692084
2 *1373:ZN 0.000692084
3 *1374:I0 *1641:A2 0.000667872
4 *1374:I0 *1715:CLK 7.86494e-06
5 *1374:I0 *556:69 0.00154096
6 DAT_O[7] *1374:I0 0.000121332
7 *1373:A2 *1374:I0 0.000602548
8 *1376:A2 *1374:I0 0
9 *1659:D *1374:I0 0.000750983
10 *1697:D *1374:I0 0.00325642
*RES
1 *1373:ZN *1374:I0 30.792 
*END

*D_NET *236 0.0124102
*CONN
*I *1378:A1 I *D gf180mcu_fd_sc_mcu7t5v0__oai21_1
*I *1375:ZN O *D gf180mcu_fd_sc_mcu7t5v0__nor2_1
*CAP
1 *1378:A1 0.00280207
2 *1375:ZN 0.00280207
3 *1378:A1 *1379:I0 0.00081366
4 *1378:A1 *1478:S0 0.000271894
5 *1378:A1 *1526:S 0.000231207
6 *1378:A1 *1635:A1 0.000363206
7 *1378:A1 *1636:A1 0.000108658
8 *1378:A1 *1766:I 0.000209505
9 *1378:A1 *1807:I 0.0020233
10 *1378:A1 *573:12 0
11 DAT_O[4] *1378:A1 0.000225159
12 DAT_O[5] *1378:A1 0.000452628
13 DAT_O[7] *1378:A1 0
14 *1362:A1 *1378:A1 0.00026464
15 *1362:A2 *1378:A1 9.76253e-05
16 *1363:I0 *1378:A1 1.37509e-05
17 *1373:A2 *1378:A1 0.00069784
18 *1375:A1 *1378:A1 0.000508061
19 *1658:D *1378:A1 0.000269562
20 *1694:D *1378:A1 0.000255354
21 *1695:D *1378:A1 0
*RES
1 *1375:ZN *1378:A1 46.6 
*END

*D_NET *237 0.00408955
*CONN
*I *1378:A2 I *D gf180mcu_fd_sc_mcu7t5v0__oai21_1
*I *1376:ZN O *D gf180mcu_fd_sc_mcu7t5v0__oai22_1
*CAP
1 *1378:A2 0.000734256
2 *1376:ZN 0.000734256
3 *1378:A2 *1636:B2 9.17624e-05
4 *1378:A2 *1638:B2 0.000125262
5 *1378:A2 *434:74 0.000332241
6 *1378:A2 *434:81 1.20415e-05
7 *1378:A2 *492:465 0.00164688
8 *1695:D *1378:A2 0.000113016
9 *1696:D *1378:A2 0.00029984
*RES
1 *1376:ZN *1378:A2 17.216 
*END

*D_NET *238 0.00459076
*CONN
*I *1378:B I *D gf180mcu_fd_sc_mcu7t5v0__oai21_1
*I *1377:ZN O *D gf180mcu_fd_sc_mcu7t5v0__nand4_1
*CAP
1 *1378:B 0.00148049
2 *1377:ZN 0.00148049
3 *1378:B *1630:A1 0.000571698
4 *1378:B *1692:CLK 8.08345e-05
5 *1378:B *425:96 0.000326839
6 *1378:B *425:103 0.000160439
7 *1352:B *1378:B 0.000376677
8 *1627:A1 *1378:B 0.0001133
*RES
1 *1377:ZN *1378:B 21.896 
*END

*D_NET *239 0.00333869
*CONN
*I *1379:I0 I *D gf180mcu_fd_sc_mcu7t5v0__mux2_2
*I *1378:ZN O *D gf180mcu_fd_sc_mcu7t5v0__oai21_1
*CAP
1 *1379:I0 0.000295043
2 *1378:ZN 0.000295043
3 *1379:I0 *1522:S 0.000559416
4 *1379:I0 *1632:A1 0.000568633
5 DAT_O[5] *1379:I0 0.000806893
6 *1378:A1 *1379:I0 0.00081366
*RES
1 *1378:ZN *1379:I0 24.864 
*END

*D_NET *240 0.00792194
*CONN
*I *1419:A1 I *D gf180mcu_fd_sc_mcu7t5v0__aoi211_1
*I *1402:A2 I *D gf180mcu_fd_sc_mcu7t5v0__nor4_1
*I *1406:A2 I *D gf180mcu_fd_sc_mcu7t5v0__nor4_1
*I *1414:A1 I *D gf180mcu_fd_sc_mcu7t5v0__aoi211_1
*I *1610:A2 I *D gf180mcu_fd_sc_mcu7t5v0__aoi21_1
*I *1380:Z O *D gf180mcu_fd_sc_mcu7t5v0__and2_1
*CAP
1 *1419:A1 1.46043e-05
2 *1402:A2 0.0001144
3 *1406:A2 0
4 *1414:A1 0
5 *1610:A2 0.000366498
6 *1380:Z 0
7 *240:30 0.000354498
8 *240:26 0.000381783
9 *240:8 0.000455702
10 *240:4 0.000216284
11 *1402:A2 *1406:A3 0.000591167
12 *1402:A2 *1406:A4 0.000292328
13 *1402:A2 *244:10 0.000197059
14 *1419:A1 *1426:A2 0.000185295
15 *240:8 *1426:A2 6.31055e-05
16 *240:8 *269:14 0.000113027
17 *240:8 *272:6 0.000337769
18 *240:26 *1426:A2 0.000513193
19 *240:26 *272:6 9.46825e-05
20 *240:30 *1406:A4 0.000411111
21 ADDR_O[4] *1610:A2 0.00085643
22 *1335:A2 *1402:A2 0.000244654
23 *1425:A1 *1419:A1 0.000150699
24 *1425:A1 *240:26 0.000169331
25 *1688:D *1610:A2 0.000222305
26 *1689:D *1610:A2 0.000363319
27 *149:10 *1610:A2 0.000764506
28 *206:42 *1402:A2 2.68588e-05
29 *206:42 *240:30 6.17392e-05
30 *206:53 *240:30 0.000330743
31 *206:66 *240:30 2.88467e-05
*RES
1 *1380:Z *240:4 4.5 
2 *240:4 *240:8 1.248 
3 *240:8 *1610:A2 19.22 
4 *240:8 *1414:A1 4.5 
5 *240:4 *240:26 1.56 
6 *240:26 *240:30 7.516 
7 *240:30 *1406:A2 9 
8 *240:30 *1402:A2 11.704 
9 *240:26 *1419:A1 5.02 
*END

*D_NET *241 0.0232339
*CONN
*I *1644:A1 I *D gf180mcu_fd_sc_mcu7t5v0__oai21_1
*I *1427:A1 I *D gf180mcu_fd_sc_mcu7t5v0__nor2_1
*I *1382:A2 I *D gf180mcu_fd_sc_mcu7t5v0__nor3_1
*I *1390:A2 I *D gf180mcu_fd_sc_mcu7t5v0__nand4_1
*I *1415:A1 I *D gf180mcu_fd_sc_mcu7t5v0__nand2_1
*I *1388:A4 I *D gf180mcu_fd_sc_mcu7t5v0__nand4_1
*I *1420:A1 I *D gf180mcu_fd_sc_mcu7t5v0__nand2_1
*I *1381:ZN O *D gf180mcu_fd_sc_mcu7t5v0__nand2_1
*CAP
1 *1644:A1 0.000516505
2 *1427:A1 0.000155315
3 *1382:A2 3.79718e-05
4 *1390:A2 4.28973e-05
5 *1415:A1 8.45808e-05
6 *1388:A4 0.000436471
7 *1420:A1 0
8 *1381:ZN 0.000146943
9 *241:79 0.000955722
10 *241:33 0.000761342
11 *241:31 0.000438856
12 *241:29 0.000621498
13 *241:23 0.000767942
14 *241:12 0.000203124
15 *1382:A2 *1417:B1 7.05729e-05
16 *1382:A2 *250:18 5.52377e-05
17 *1388:A4 *1329:A2 5.57504e-05
18 *1388:A4 *1415:A2 9.57756e-06
19 *1390:A2 *1390:A3 6.64873e-05
20 *1427:A1 *1341:A4 0.000456316
21 *1644:A1 *1422:A1 8.69612e-05
22 *1644:A1 *1422:A2 0.000623363
23 *1644:A1 *1625:A1 0.0024123
24 *1644:A1 *1644:B 0.000355286
25 *1644:A1 *279:67 0
26 *1644:A1 *280:18 0.000233528
27 *1644:A1 *425:204 2.82894e-06
28 *1644:A1 *500:12 2.64992e-05
29 *241:12 *1407:B 2.38773e-05
30 *241:12 *1420:A2 1.53192e-05
31 *241:12 *492:228 0.000113027
32 *241:23 *1407:B 1.12327e-05
33 *241:23 *1420:A2 0.000707532
34 *241:23 *1422:A2 0.000447626
35 *241:23 *492:228 0.000194511
36 *241:29 *1425:A3 0.000316954
37 *241:29 *242:8 0.000411
38 *241:31 *1417:B1 0.000269933
39 *241:31 *250:18 0.000435644
40 *241:33 *1415:A2 1.90528e-05
41 *241:33 *1417:B1 0.000347909
42 *241:79 *1420:A2 0.00133495
43 *241:79 *1422:A2 0.00274769
44 *241:79 *1625:A1 0.000247832
45 *241:79 *1799:I 1.99013e-05
46 *241:79 *454:14 0.00024406
47 ADDR_O[4] *1644:A1 0
48 ADDR_O[5] *1644:A1 0.00129438
49 ADDR_O[6] *1427:A1 0
50 ADDR_O[7] *1427:A1 7.52395e-06
51 *1322:A2 *1388:A4 0.000102068
52 *1335:A2 *1415:A1 0.000113016
53 *1380:A1 *241:29 0.000190723
54 *1380:A2 *241:12 0.000345373
55 *1380:A2 *241:23 1.39778e-05
56 *1386:A2 *1415:A1 5.13977e-05
57 *1386:B *1388:A4 2.22066e-05
58 *1386:C *1388:A4 0.000365181
59 *1424:A2 *241:31 7.38065e-05
60 *1424:A2 *241:33 0.000345387
61 *1610:A1 *1390:A2 6.64873e-05
62 *1610:A1 *241:31 2.66514e-05
63 *1690:D *1644:A1 0.00124671
64 *1783:I *1644:A1 1.26329e-05
65 *142:222 *1388:A4 7.63929e-06
66 *142:222 *241:33 6.50665e-06
67 *143:89 *1388:A4 0.000174815
68 *149:10 *241:12 3.62815e-05
69 *157:36 *241:31 2.82894e-06
70 *157:49 *241:33 6.51414e-06
71 *157:51 *241:33 5.03091e-05
72 *157:53 *1388:A4 0.00019118
73 *157:53 *241:33 8.51675e-05
74 *157:59 *1388:A4 0.000476827
75 *175:22 *1388:A4 3.85837e-05
76 *189:27 *1388:A4 4.18042e-05
77 *189:44 *1388:A4 2.63994e-05
78 *203:18 *241:29 0.000211324
79 *206:42 *241:12 6.82665e-05
*RES
1 *1381:ZN *241:12 15.372 
2 *241:12 *1420:A1 4.5 
3 *241:12 *241:23 6.58 
4 *241:23 *241:29 12.848 
5 *241:29 *241:31 1.976 
6 *241:31 *241:33 2.808 
7 *241:33 *1388:A4 13.264 
8 *241:33 *1415:A1 9.832 
9 *241:31 *1390:A2 9.52 
10 *241:29 *1382:A2 9.52 
11 *241:23 *241:79 7.696 
12 *241:79 *1427:A1 10.352 
13 *241:79 *1644:A1 29.128 
*END

*D_NET *242 0.0107035
*CONN
*I *1409:A3 I *D gf180mcu_fd_sc_mcu7t5v0__and4_1
*I *1404:B2 I *D gf180mcu_fd_sc_mcu7t5v0__aoi221_1
*I *1408:A1 I *D gf180mcu_fd_sc_mcu7t5v0__aoi21_1
*I *1410:A3 I *D gf180mcu_fd_sc_mcu7t5v0__nand4_1
*I *1407:A1 I *D gf180mcu_fd_sc_mcu7t5v0__aoi211_1
*I *1382:ZN O *D gf180mcu_fd_sc_mcu7t5v0__nor3_1
*CAP
1 *1409:A3 0.000133945
2 *1404:B2 0.000165863
3 *1408:A1 0
4 *1410:A3 2.97426e-05
5 *1407:A1 0.000183829
6 *1382:ZN 0.000994486
7 *242:55 0.00057953
8 *242:32 0.000723715
9 *242:12 0.000768815
10 *242:8 0.00153288
11 *1404:B2 *1409:A2 0.000111075
12 *1404:B2 *1410:A2 2.347e-06
13 *1404:B2 *1411:A2 0.000152328
14 *1404:B2 *450:49 0.000252492
15 *1404:B2 *450:64 0.000185295
16 *1404:B2 *451:10 5.53878e-05
17 *1404:B2 *451:21 7.08905e-06
18 *1407:A1 *1407:A2 3.511e-05
19 *1407:A1 *1407:B 0.000577934
20 *1407:A1 *1407:C 3.18325e-05
21 *1407:A1 *1412:B2 0.000107923
22 *1407:A1 *257:27 0.000244007
23 *1409:A3 *1409:A2 4.87458e-06
24 *1409:A3 *451:21 0.000334884
25 *1410:A3 *1407:B 0.000173105
26 *1410:A3 *257:27 0.000104581
27 *242:8 *1414:A2 0
28 *242:8 *1611:A2 3.58123e-05
29 *242:8 *1611:B1 2.96449e-05
30 *242:8 *1622:A2 2.6374e-05
31 *242:8 *1624:A2 0.000126289
32 *242:8 *272:6 0
33 *242:8 *451:49 3.98614e-06
34 *242:8 *492:198 3.57638e-05
35 *242:8 *492:205 3.57634e-06
36 *242:8 *492:228 8.05889e-05
37 *242:12 *1407:B 1.55348e-05
38 *242:12 *1410:A2 0
39 *242:12 *1411:A2 0
40 *242:12 *492:198 0.000107437
41 *242:32 *1404:A2 3.35294e-05
42 *242:32 *1407:B 0.000231567
43 *242:32 *1410:A2 0.000567375
44 *242:32 *1612:A2 0
45 *242:32 *1616:A2 0
46 *242:32 *449:89 0.000127812
47 *242:32 *450:64 3.06606e-05
48 *242:32 *492:198 3.03313e-06
49 *242:55 *1410:A2 2.74956e-05
50 *242:55 *1411:A2 1.56603e-05
51 *242:55 *1611:A2 0.000177248
52 *242:55 *451:21 1.14508e-05
53 *242:55 *451:36 8.88849e-06
54 *242:55 *451:49 1.78817e-06
55 *1404:A1 *242:32 0.000179413
56 *1406:A1 *242:8 5.10265e-05
57 *1413:A4 *242:8 0.000103788
58 *157:8 *242:8 0.000388831
59 *157:16 *242:8 0.000374809
60 *241:29 *242:8 0.000411
*RES
1 *1382:ZN *242:8 12.404 
2 *242:8 *242:12 1.872 
3 *242:12 *242:32 22.16 
4 *242:32 *1407:A1 6.684 
5 *242:32 *1410:A3 5.02 
6 *242:12 *1408:A1 4.5 
7 *242:8 *242:55 2.08 
8 *242:55 *1404:B2 6.684 
9 *242:55 *1409:A3 5.956 
*END

*D_NET *243 0.00589569
*CONN
*I *1390:A3 I *D gf180mcu_fd_sc_mcu7t5v0__nand4_1
*I *1391:B I *D gf180mcu_fd_sc_mcu7t5v0__aoi21_1
*I *1383:Z O *D gf180mcu_fd_sc_mcu7t5v0__and4_1
*CAP
1 *1390:A3 0.000393124
2 *1391:B 0.0001281
3 *1383:Z 0.000716897
4 *243:8 0.00123812
5 *1390:A3 *1392:A1 3.48225e-05
6 *1390:A3 *1407:B 3.4596e-05
7 *1390:A3 *1425:A3 2.41395e-05
8 *1390:A3 *251:27 5.79378e-05
9 *1390:A3 *492:228 9.35119e-07
10 *243:8 *1392:A1 2.12238e-05
11 *243:8 *1434:B1 7.70253e-05
12 *243:8 *244:10 0.000370113
13 *243:8 *552:47 0.000101719
14 *243:8 *552:65 1.90343e-05
15 *1335:A2 *1390:A3 0.000619746
16 *1335:A2 *1391:B 0.000104846
17 *1335:A2 *243:8 0.000199998
18 *1390:A2 *1390:A3 6.64873e-05
19 *1390:A4 *1390:A3 3.4596e-05
20 *1424:A1 *1390:A3 0.000122244
21 *1424:A2 *1390:A3 1.83273e-05
22 *1610:A1 *1390:A3 1.89921e-06
23 *10:18 *1390:A3 4.58772e-05
24 *10:18 *243:8 0.00013468
25 *143:46 *243:8 1.23748e-05
26 *143:89 *243:8 5.39728e-06
27 *157:49 *1390:A3 0.000153764
28 *157:59 *243:8 0
29 *179:24 *243:8 0.000122905
30 *189:44 *243:8 0.000403526
31 *193:91 *1390:A3 7.14197e-05
32 *193:93 *1390:A3 9.92195e-05
33 *193:106 *1390:A3 0.000406983
34 *206:14 *1391:B 5.36098e-05
*RES
1 *1383:Z *243:8 16.176 
2 *243:8 *1391:B 9.936 
3 *243:8 *1390:A3 13.368 
*END

*D_NET *244 0.00537196
*CONN
*I *1406:A3 I *D gf180mcu_fd_sc_mcu7t5v0__nor4_1
*I *1402:A3 I *D gf180mcu_fd_sc_mcu7t5v0__nor4_1
*I *1384:ZN O *D gf180mcu_fd_sc_mcu7t5v0__nand4_1
*CAP
1 *1406:A3 7.39876e-05
2 *1402:A3 0
3 *1384:ZN 0.00109137
4 *244:10 0.00116535
5 *244:10 *1383:A4 3.71022e-05
6 *244:10 *246:14 0.000123183
7 *244:10 *552:25 0.00035269
8 *1321:A3 *244:10 0
9 *1335:A2 *244:10 7.79362e-05
10 *1392:A4 *244:10 5.08075e-05
11 *1402:A2 *1406:A3 0.000591167
12 *1402:A2 *244:10 0.000197059
13 *128:40 *244:10 0.000346997
14 *143:46 *244:10 0
15 *149:31 *244:10 0
16 *150:8 *244:10 0.000189974
17 *176:20 *244:10 1.48584e-05
18 *179:10 *244:10 1.99013e-05
19 *179:24 *244:10 0.000131718
20 *189:27 *244:10 0.000331109
21 *206:42 *1406:A3 0.000194292
22 *206:42 *244:10 1.23478e-05
23 *243:8 *244:10 0.000370113
*RES
1 *1384:ZN *244:10 19.192 
2 *244:10 *1402:A3 9 
3 *244:10 *1406:A3 10.56 
*END

*D_NET *245 0.00723428
*CONN
*I *1436:A2 I *D gf180mcu_fd_sc_mcu7t5v0__oai33_1
*I *1434:B1 I *D gf180mcu_fd_sc_mcu7t5v0__oai32_1
*I *1385:ZN O *D gf180mcu_fd_sc_mcu7t5v0__nand3_1
*CAP
1 *1436:A2 0
2 *1434:B1 0.000590122
3 *1385:ZN 0.000426119
4 *245:10 0.00101624
5 *1434:B1 *1434:A3 3.35189e-05
6 *1434:B1 *1436:A3 0.00162744
7 *1434:B1 *447:131 0.000959454
8 *1434:B1 *552:36 0.000726327
9 *1434:B1 *552:47 7.14178e-05
10 *245:10 *282:12 0
11 *1280:A2 *1434:B1 4.10453e-05
12 *1323:A2 *245:10 7.94912e-05
13 *1338:A1 *1434:B1 8.92034e-05
14 *1385:A3 *245:10 2.82894e-06
15 *1432:A1 *1434:B1 0.000791588
16 *142:157 *1434:B1 8.93487e-05
17 *143:46 *1434:B1 0.000497402
18 *153:12 *1434:B1 9.09888e-05
19 *154:22 *1434:B1 2.47121e-05
20 *243:8 *1434:B1 7.70253e-05
*RES
1 *1385:ZN *245:10 15.892 
2 *245:10 *1434:B1 23.068 
3 *245:10 *1436:A2 4.5 
*END

*D_NET *246 0.00868798
*CONN
*I *1404:A2 I *D gf180mcu_fd_sc_mcu7t5v0__aoi221_1
*I *1387:I I *D gf180mcu_fd_sc_mcu7t5v0__clkinv_1
*I *1386:ZN O *D gf180mcu_fd_sc_mcu7t5v0__aoi211_1
*CAP
1 *1404:A2 0.000308879
2 *1387:I 7.99448e-05
3 *1386:ZN 0.000664741
4 *246:14 0.00105357
5 *1387:I *1412:A3 3.09205e-05
6 *1404:A2 *1404:C 2.14739e-05
7 *1404:A2 *1407:B 9.35542e-06
8 *1404:A2 *1410:A1 3.4596e-05
9 *1404:A2 *1412:A3 4.07478e-05
10 *1404:A2 *1618:A2 0.000114429
11 *1404:A2 *247:6 2.67991e-05
12 *1404:A2 *257:27 0.000418233
13 *1404:A2 *449:89 1.06742e-05
14 *246:14 *1310:A2 0.000103788
15 *246:14 *1392:A1 0.000782435
16 *246:14 *1393:A1 4.07478e-05
17 *246:14 *1403:C 0.00059393
18 *246:14 *448:82 0.000558426
19 *1310:A1 *246:14 0.000146714
20 *1311:A3 *246:14 0.000497696
21 *1322:A2 *246:14 0.000454752
22 *1404:A1 *1404:A2 0.000855274
23 *1412:A2 *1404:A2 0.000384586
24 *1412:A2 *246:14 0.000487382
25 *10:18 *1404:A2 1.98185e-06
26 *10:18 *246:14 5.39782e-06
27 *131:31 *1404:A2 0.000257493
28 *176:20 *246:14 0.000108433
29 *179:10 *246:14 0.000394401
30 *189:27 *246:14 4.34691e-05
31 *242:32 *1404:A2 3.35294e-05
32 *244:10 *246:14 0.000123183
*RES
1 *1386:ZN *246:14 23.796 
2 *246:14 *1387:I 5.228 
3 *246:14 *1404:A2 17.764 
*END

*D_NET *247 0.00383068
*CONN
*I *1412:A3 I *D gf180mcu_fd_sc_mcu7t5v0__oai32_1
*I *1401:A3 I *D gf180mcu_fd_sc_mcu7t5v0__and4_1
*I *1389:A3 I *D gf180mcu_fd_sc_mcu7t5v0__nand3_1
*I *1387:ZN O *D gf180mcu_fd_sc_mcu7t5v0__clkinv_1
*CAP
1 *1412:A3 0.000106511
2 *1401:A3 0
3 *1389:A3 3.34175e-05
4 *1387:ZN 0.000138942
5 *247:10 6.56698e-05
6 *247:6 0.000277704
7 *1387:I *1412:A3 3.09205e-05
8 *1404:A1 *1389:A3 0.000152359
9 *1404:A1 *247:10 0.000761151
10 *1404:A2 *1412:A3 4.07478e-05
11 *1404:A2 *247:6 2.67991e-05
12 *1412:A2 *1412:A3 2.46831e-05
13 *10:18 *1412:A3 3.57634e-06
14 *10:18 *247:6 9.944e-05
15 *131:31 *1389:A3 0.000758211
16 *131:31 *247:10 0.00071645
17 *205:42 *1389:A3 0.000208806
18 *205:56 *1389:A3 0.00038529
*RES
1 *1387:ZN *247:6 5.436 
2 *247:6 *247:10 6.476 
3 *247:10 *1389:A3 10.976 
4 *247:10 *1401:A3 9 
5 *247:6 *1412:A3 5.54 
*END

*D_NET *248 0.00635101
*CONN
*I *1389:A1 I *D gf180mcu_fd_sc_mcu7t5v0__nand3_1
*I *1401:A1 I *D gf180mcu_fd_sc_mcu7t5v0__and4_1
*I *1388:ZN O *D gf180mcu_fd_sc_mcu7t5v0__nand4_1
*CAP
1 *1389:A1 8.79009e-05
2 *1401:A1 8.59035e-05
3 *1388:ZN 0.000984078
4 *248:10 0.00115788
5 *1389:A1 *449:30 0.000265469
6 *1389:A1 *449:41 0.000457103
7 *1401:A1 *1400:A1 1.5006e-05
8 *248:10 *1307:A3 0.000182219
9 *248:10 *1393:A1 1.41468e-05
10 *248:10 *1400:A1 2.21341e-06
11 *248:10 *1403:B 0
12 *248:10 *1403:C 5.07693e-05
13 *248:10 *450:81 0.000466936
14 *1307:A4 *248:10 0.000557671
15 *1322:A2 *248:10 0.000313676
16 *1392:A4 *248:10 0.00017298
17 *1393:A2 *1389:A1 3.6012e-05
18 *1399:A2 *248:10 4.23984e-06
19 *1401:A2 *1401:A1 3.22108e-05
20 *1403:A1 *248:10 2.88703e-05
21 *1719:D *1401:A1 0.000236002
22 *1719:D *248:10 0.000128149
23 *10:18 *248:10 1.77307e-05
24 *131:31 *1389:A1 4.94991e-05
25 *146:6 *1389:A1 1.65142e-05
26 *149:27 *248:10 0
27 *175:22 *248:10 0.000175292
28 *189:27 *248:10 9.76253e-05
29 *205:38 *248:10 9.37345e-05
30 *205:42 *1389:A1 0.000358225
31 *205:56 *1389:A1 0.000262946
*RES
1 *1388:ZN *248:10 13.548 
2 *248:10 *1401:A1 5.228 
3 *248:10 *1389:A1 15.788 
*END

*D_NET *249 0.00329129
*CONN
*I *1398:B2 I *D gf180mcu_fd_sc_mcu7t5v0__oai221_1
*I *1395:A2 I *D gf180mcu_fd_sc_mcu7t5v0__oai221_1
*I *1389:ZN O *D gf180mcu_fd_sc_mcu7t5v0__nand3_1
*CAP
1 *1398:B2 0.000265084
2 *1395:A2 0.000181203
3 *1389:ZN 0.000366975
4 *249:10 0.000813262
5 *1395:A2 *1395:A1 4.63426e-05
6 *1395:A2 *1395:C 1.07369e-05
7 *1395:A2 *1398:A2 0.000184901
8 *1395:A2 *1398:C 9.18121e-05
9 *1398:B2 *1398:A2 9.4082e-05
10 *1398:B2 *1398:C 4.69556e-05
11 *249:10 *1321:A1 9.88256e-05
12 *249:10 *449:30 9.19695e-05
13 *249:10 *492:64 5.16082e-05
14 *249:10 *492:72 0.000112058
15 *1395:B2 *1398:B2 1.30206e-06
16 *1398:A1 *1398:B2 1.04907e-05
17 *1718:D *1395:A2 5.16537e-05
18 *128:29 *1398:B2 0.000451319
19 *131:31 *249:10 0.0001106
20 *142:180 *249:10 0.000210108
*RES
1 *1389:ZN *249:10 17.348 
2 *249:10 *1395:A2 6.476 
3 *249:10 *1398:B2 15.892 
*END

*D_NET *250 0.0209216
*CONN
*I *1425:B1 I *D gf180mcu_fd_sc_mcu7t5v0__oai32_1
*I *1417:A1 I *D gf180mcu_fd_sc_mcu7t5v0__aoi22_1
*I *1411:A1 I *D gf180mcu_fd_sc_mcu7t5v0__nand2_1
*I *1398:A2 I *D gf180mcu_fd_sc_mcu7t5v0__oai221_1
*I *1395:B1 I *D gf180mcu_fd_sc_mcu7t5v0__oai221_1
*I *1390:ZN O *D gf180mcu_fd_sc_mcu7t5v0__nand4_1
*CAP
1 *1425:B1 0
2 *1417:A1 0.000146355
3 *1411:A1 0.000101628
4 *1398:A2 0.000147921
5 *1395:B1 0.00012145
6 *1390:ZN 0.000410143
7 *250:40 0.000948825
8 *250:38 0.00126175
9 *250:32 0.0022973
10 *250:18 0.00208043
11 *1395:B1 *1395:C 6.35093e-06
12 *1395:B1 *492:72 9.423e-05
13 *1411:A1 *1411:A2 0.000125997
14 *1411:A1 *492:10 5.61634e-05
15 *1411:A1 *492:60 5.97123e-05
16 *1417:A1 *1416:A2 8.00934e-07
17 *1417:A1 *449:89 1.95308e-05
18 *250:18 *1417:B1 7.4725e-05
19 *250:18 *1426:A2 3.4596e-05
20 *250:18 *476:61 1.40249e-05
21 *250:18 *492:228 0.000176056
22 *250:32 *1405:A1 0.000308118
23 *250:32 *1406:A4 1.39285e-05
24 *250:32 *1417:B1 0
25 *250:32 *1426:A2 0.000256274
26 *250:32 *1611:B2 7.05624e-05
27 *250:32 *269:14 1.99851e-05
28 *250:32 *449:89 0.000102615
29 *250:38 *1613:A1 0.00030513
30 *250:38 *1615:A1 0.000297369
31 *250:38 *1618:A2 0.000102887
32 *250:38 *449:89 0.000238516
33 *250:38 *492:10 0
34 *250:38 *492:60 9.96348e-05
35 *250:40 *1305:A1 0.000991153
36 *250:40 *1395:A1 0.000573542
37 *250:40 *1395:C 9.33229e-05
38 *250:40 *1412:B2 0.000976478
39 *250:40 *1719:CLK 4.07904e-05
40 *250:40 *476:80 0.000105326
41 *250:40 *492:60 0.0013346
42 *250:40 *492:62 0.000231614
43 *250:40 *492:64 0.00279562
44 *250:40 *492:72 0.000353103
45 *1382:A2 *250:18 5.52377e-05
46 *1395:A2 *1398:A2 0.000184901
47 *1395:B2 *1395:B1 0.00011484
48 *1395:B2 *1398:A2 5.63044e-06
49 *1398:B2 *1398:A2 9.4082e-05
50 *1425:A1 *250:18 0.000147623
51 *1425:A1 *250:32 0.000256274
52 *1610:A1 *250:18 0.00088465
53 *1687:D *1417:A1 4.55798e-05
54 *1687:D *250:38 0.000144116
55 *1718:D *1395:B1 3.6012e-05
56 *1718:D *1398:A2 0.000706556
57 *1719:D *250:40 0.000302296
58 *203:18 *250:18 1.95907e-05
59 *241:31 *250:18 0.000435644
*RES
1 *1390:ZN *250:18 18.596 
2 *250:18 *250:32 27.672 
3 *250:32 *250:38 8.244 
4 *250:38 *250:40 14.04 
5 *250:40 *1395:B1 10.04 
6 *250:40 *1398:A2 11.184 
7 *250:38 *1411:A1 10.248 
8 *250:32 *1417:A1 5.644 
9 *250:18 *1425:B1 4.5 
*END

*D_NET *251 0.00791524
*CONN
*I *1419:C I *D gf180mcu_fd_sc_mcu7t5v0__aoi211_1
*I *1414:C I *D gf180mcu_fd_sc_mcu7t5v0__aoi211_1
*I *1392:A1 I *D gf180mcu_fd_sc_mcu7t5v0__nand4_1
*I *1391:ZN O *D gf180mcu_fd_sc_mcu7t5v0__aoi21_1
*CAP
1 *1419:C 0
2 *1414:C 0.000240527
3 *1392:A1 0.000475124
4 *1391:ZN 0
5 *251:27 0.000802911
6 *251:6 0.00103751
7 *1392:A1 *1393:A1 4.6157e-05
8 *1414:C *1426:A2 3.50983e-05
9 *1414:C *273:10 0.00104996
10 *251:27 *1406:A4 8.59959e-05
11 *251:27 *1424:A3 0.00141884
12 *251:27 *1425:A3 0.000233299
13 *251:27 *1426:A2 7.96024e-05
14 *251:27 *273:10 0.000194522
15 *251:27 *476:61 7.38424e-05
16 *1322:A2 *1392:A1 3.42651e-05
17 *1335:A2 *1392:A1 2.20569e-05
18 *1335:A2 *251:27 5.24641e-05
19 *1390:A3 *1392:A1 3.48225e-05
20 *1390:A3 *251:27 5.79378e-05
21 *1414:B *1414:C 0.00023869
22 *1419:B *1414:C 6.062e-05
23 *10:18 *1392:A1 0.000448339
24 *157:16 *251:27 1.57138e-05
25 *157:36 *251:27 0.000134086
26 *157:49 *251:27 3.92713e-05
27 *157:51 *1392:A1 3.74622e-05
28 *157:51 *251:27 5.89069e-06
29 *157:53 *1392:A1 0.000134677
30 *157:59 *1392:A1 2.19008e-05
31 *243:8 *1392:A1 2.12238e-05
32 *246:14 *1392:A1 0.000782435
*RES
1 *1391:ZN *251:6 9 
2 *251:6 *1392:A1 14.616 
3 *251:6 *251:27 11.364 
4 *251:27 *1414:C 7.516 
5 *251:27 *1419:C 4.5 
*END

*D_NET *252 0.00545068
*CONN
*I *1393:A1 I *D gf180mcu_fd_sc_mcu7t5v0__nand2_1
*I *1392:ZN O *D gf180mcu_fd_sc_mcu7t5v0__nand4_1
*CAP
1 *1393:A1 0.000664565
2 *1392:ZN 0.000664565
3 *1393:A1 *1320:A1 3.542e-05
4 *1393:A1 *447:68 0.000469321
5 *1393:A1 *448:68 0.00135376
6 *1307:A4 *1393:A1 9.35542e-06
7 *1322:A2 *1393:A1 0.000229202
8 *1392:A1 *1393:A1 4.6157e-05
9 *1393:A2 *1393:A1 3.4596e-05
10 *10:18 *1393:A1 0.000412724
11 *142:180 *1393:A1 0.00078772
12 *146:30 *1393:A1 9.61308e-05
13 *189:12 *1393:A1 0.000410048
14 *189:27 *1393:A1 0.000182219
15 *246:14 *1393:A1 4.07478e-05
16 *248:10 *1393:A1 1.41468e-05
*RES
1 *1392:ZN *1393:A1 28.296 
*END

*D_NET *253 0.00405028
*CONN
*I *1403:A2 I *D gf180mcu_fd_sc_mcu7t5v0__aoi211_1
*I *1397:A2 I *D gf180mcu_fd_sc_mcu7t5v0__nand2_1
*I *1394:A2 I *D gf180mcu_fd_sc_mcu7t5v0__nand2_1
*I *1393:ZN O *D gf180mcu_fd_sc_mcu7t5v0__nand2_1
*CAP
1 *1403:A2 8.5687e-05
2 *1397:A2 7.81069e-05
3 *1394:A2 2.56185e-05
4 *1393:ZN 0
5 *253:12 0.000445685
6 *253:6 0.000427647
7 *1394:A2 *1305:A1 0
8 *1394:A2 *447:19 0.000113016
9 *1394:A2 *449:8 1.07369e-05
10 *1397:A2 *1305:A1 0.000229992
11 *1397:A2 *1395:A1 0.000188241
12 *1397:A2 *1395:C 0.000188241
13 *1397:A2 *1777:I 0.000103788
14 *1397:A2 *448:14 0
15 *1397:A2 *448:27 0.000113027
16 *253:12 *1321:A1 0.000237889
17 *253:12 *447:19 6.91919e-05
18 *253:12 *447:47 0.000126247
19 *253:12 *449:8 0.000193574
20 *253:12 *449:17 6.49544e-05
21 *253:12 *449:30 1.5331e-05
22 *142:180 *1403:A2 0.000257927
23 *142:180 *253:12 0.000406919
24 *146:6 *253:12 1.53641e-05
25 *146:10 *1403:A2 0.000452121
26 *146:10 *253:12 0.000189208
27 *146:30 *253:12 1.17668e-05
*RES
1 *1393:ZN *253:6 9 
2 *253:6 *253:12 8.244 
3 *253:12 *1394:A2 4.812 
4 *253:12 *1397:A2 14.956 
5 *253:6 *1403:A2 10.352 
*END

*D_NET *254 0.00111932
*CONN
*I *1395:C I *D gf180mcu_fd_sc_mcu7t5v0__oai221_1
*I *1394:ZN O *D gf180mcu_fd_sc_mcu7t5v0__nand2_1
*CAP
1 *1395:C 0.000268021
2 *1394:ZN 0.000268021
3 *1395:C *1395:A1 0.000147028
4 *1395:C *1777:I 0
5 *1395:C *448:14 1.5359e-05
6 *1395:C *448:27 0
7 *1395:A2 *1395:C 1.07369e-05
8 *1395:B1 *1395:C 6.35093e-06
9 *1397:A2 *1395:C 0.000188241
10 *1718:D *1395:C 0.000122244
11 *250:40 *1395:C 9.33229e-05
*RES
1 *1394:ZN *1395:C 20.912 
*END

*D_NET *255 0.000368654
*CONN
*I *1398:B1 I *D gf180mcu_fd_sc_mcu7t5v0__oai221_1
*I *1396:Z O *D gf180mcu_fd_sc_mcu7t5v0__or2_1
*CAP
1 *1398:B1 0.000131546
2 *1396:Z 0.000131546
3 *1398:B1 *1398:C 2.84826e-05
4 *1398:A1 *1398:B1 2.18546e-05
5 *128:29 *1398:B1 5.52248e-05
*RES
1 *1396:Z *1398:B1 10.04 
*END

*D_NET *256 0.00141619
*CONN
*I *1398:C I *D gf180mcu_fd_sc_mcu7t5v0__oai221_1
*I *1397:ZN O *D gf180mcu_fd_sc_mcu7t5v0__nand2_1
*CAP
1 *1398:C 0.000506288
2 *1397:ZN 0.000506288
3 *1398:C *1395:A1 6.64873e-05
4 *1398:C *448:27 0.000159145
5 *1395:A2 *1398:C 9.18121e-05
6 *1398:B1 *1398:C 2.84826e-05
7 *1398:B2 *1398:C 4.69556e-05
8 *128:29 *1398:C 1.07369e-05
*RES
1 *1397:ZN *1398:C 12.952 
*END

*D_NET *257 0.00665974
*CONN
*I *1409:A4 I *D gf180mcu_fd_sc_mcu7t5v0__and4_1
*I *1404:B1 I *D gf180mcu_fd_sc_mcu7t5v0__aoi221_1
*I *1410:A4 I *D gf180mcu_fd_sc_mcu7t5v0__nand4_1
*I *1399:ZN O *D gf180mcu_fd_sc_mcu7t5v0__nor2_1
*CAP
1 *1409:A4 0.000120544
2 *1404:B1 0
3 *1410:A4 0
4 *1399:ZN 0.000394202
5 *257:27 0.000371314
6 *257:10 0.000644971
7 *1409:A4 *1611:B2 0.000403153
8 *1409:A4 *1613:A1 4.67771e-06
9 *1409:A4 *1618:A2 0.000464459
10 *1409:A4 *448:82 1.73223e-05
11 *1409:A4 *450:21 0.000380926
12 *1409:A4 *450:25 0.000116466
13 *1409:A4 *451:10 0.000396525
14 *1409:A4 *451:21 0.000182695
15 *257:10 *1403:C 0.000242822
16 *257:10 *448:82 5.55773e-06
17 *257:10 *449:56 0.000313627
18 *257:10 *449:89 0.000166085
19 *257:10 *492:198 0.000373503
20 *257:27 *1407:A2 0.000168004
21 *257:27 *1407:B 1.54892e-05
22 *257:27 *1412:B2 4.07478e-05
23 *257:27 *1618:A2 0.000746465
24 *257:27 *449:89 1.70724e-05
25 *257:27 *450:25 0.000188241
26 *1399:A1 *257:10 0.000118049
27 *1404:A2 *257:27 0.000418233
28 *1407:A1 *257:27 0.000244007
29 *1410:A3 *257:27 0.000104581
*RES
1 *1399:ZN *257:10 17.14 
2 *257:10 *1410:A4 4.5 
3 *257:10 *257:27 8.348 
4 *257:27 *1404:B1 9 
5 *257:27 *1409:A4 11.912 
*END

*D_NET *258 0.00116895
*CONN
*I *1401:A4 I *D gf180mcu_fd_sc_mcu7t5v0__and4_1
*I *1400:Z O *D gf180mcu_fd_sc_mcu7t5v0__xor2_1
*CAP
1 *1401:A4 0.000389352
2 *1400:Z 0.000389352
3 *1401:A4 *1400:A1 0.000133947
4 *1399:A2 *1401:A4 0.000103788
5 *10:18 *1401:A4 0.00015251
*RES
1 *1400:Z *1401:A4 12.328 
*END

*D_NET *259 0.00156767
*CONN
*I *1403:B I *D gf180mcu_fd_sc_mcu7t5v0__aoi211_1
*I *1401:Z O *D gf180mcu_fd_sc_mcu7t5v0__and4_1
*CAP
1 *1403:B 0.000345685
2 *1401:Z 0.000345685
3 *1403:B *1403:C 0.000608792
4 *1403:B *447:68 2.97312e-05
5 *1399:A1 *1403:B 1.22975e-05
6 *1399:A2 *1403:B 4.77162e-05
7 *10:18 *1403:B 0.000177764
8 *248:10 *1403:B 0
*RES
1 *1401:Z *1403:B 21.328 
*END

*D_NET *260 0.0045154
*CONN
*I *1403:C I *D gf180mcu_fd_sc_mcu7t5v0__aoi211_1
*I *1402:ZN O *D gf180mcu_fd_sc_mcu7t5v0__nor4_1
*CAP
1 *1403:C 0.000885777
2 *1402:ZN 0.000885777
3 *1403:C *1310:A2 6.91919e-05
4 *1403:C *447:68 0
5 *1403:C *448:82 0.000565691
6 *1399:A1 *1403:C 8.38973e-05
7 *1402:A1 *1403:C 2.91591e-05
8 *1403:B *1403:C 0.000608792
9 *1412:A2 *1403:C 9.35119e-07
10 *10:18 *1403:C 0.000498662
11 *246:14 *1403:C 0.00059393
12 *248:10 *1403:C 5.07693e-05
13 *257:10 *1403:C 0.000242822
*RES
1 *1402:ZN *1403:C 28.192 
*END

*D_NET *261 0.000573759
*CONN
*I *1407:C I *D gf180mcu_fd_sc_mcu7t5v0__aoi211_1
*I *1404:ZN O *D gf180mcu_fd_sc_mcu7t5v0__aoi221_1
*CAP
1 *1407:C 0.000199208
2 *1404:ZN 0.000199208
3 *1407:C *1407:B 9.39768e-05
4 *1407:C *1720:CLK 2.81522e-06
5 *1407:C *476:67 4.67199e-05
6 *1407:A1 *1407:C 3.18325e-05
*RES
1 *1404:ZN *1407:C 10.352 
*END

*D_NET *262 0.00796459
*CONN
*I *1418:A4 I *D gf180mcu_fd_sc_mcu7t5v0__nand4_1
*I *1408:A2 I *D gf180mcu_fd_sc_mcu7t5v0__aoi21_1
*I *1407:A2 I *D gf180mcu_fd_sc_mcu7t5v0__aoi211_1
*I *1405:Z O *D gf180mcu_fd_sc_mcu7t5v0__and4_1
*CAP
1 *1418:A4 0
2 *1408:A2 0
3 *1407:A2 0.00039687
4 *1405:Z 0.000595349
5 *262:22 0.000773126
6 *262:20 0.000971605
7 *1407:A2 *1407:B 2.61678e-05
8 *1407:A2 *1412:B1 0.00106166
9 *1407:A2 *1412:B2 0.000395056
10 *1407:A2 *447:79 9.52686e-05
11 *1407:A2 *450:64 0.000389359
12 *262:20 *1417:B1 0.000104393
13 *262:20 *1418:A3 8.80731e-06
14 *262:20 *1611:B2 2.55666e-05
15 *262:20 *1797:I 6.8763e-06
16 *262:20 *448:82 0
17 *262:20 *452:14 0.000250975
18 *262:20 *476:61 0.000391981
19 *262:22 *1405:A1 8.44504e-05
20 *262:22 *1408:B 0.000689375
21 *262:22 *1412:B1 7.8699e-05
22 *262:22 *1418:A2 0.00046052
23 *262:22 *1418:A3 7.93961e-05
24 *262:22 *1611:A2 4.23738e-05
25 *262:22 *447:79 0.000145134
26 *262:22 *448:82 0.000305631
27 *1407:A1 *1407:A2 3.511e-05
28 *1412:A2 *1407:A2 4.09998e-05
29 *1687:D *262:20 0.000156231
30 *1721:D *1407:A2 0.000162538
31 *1722:D *262:20 2.30716e-05
32 *257:27 *1407:A2 0.000168004
*RES
1 *1405:Z *262:20 13.888 
2 *262:20 *262:22 4.888 
3 *262:22 *1407:A2 14.2 
4 *262:22 *1408:A2 9 
5 *262:20 *1418:A4 9 
*END

*D_NET *263 0.00567954
*CONN
*I *1407:B I *D gf180mcu_fd_sc_mcu7t5v0__aoi211_1
*I *1406:ZN O *D gf180mcu_fd_sc_mcu7t5v0__nor4_1
*CAP
1 *1407:B 0.0011853
2 *1406:ZN 0.0011853
3 *1407:B *1309:A2 3.22108e-05
4 *1407:B *1410:A1 1.19521e-05
5 *1407:B *1410:A2 6.19054e-05
6 *1407:B *1420:A2 8.56628e-05
7 *1407:B *450:64 0.000637784
8 *1407:B *476:67 6.8199e-07
9 *1407:B *492:198 0.000322586
10 *1407:B *492:205 1.91996e-05
11 *1407:B *492:228 7.50338e-05
12 *1311:A1 *1407:B 1.60428e-05
13 *1380:A2 *1407:B 0.000257552
14 *1390:A3 *1407:B 3.4596e-05
15 *1404:A1 *1407:B 0.000103788
16 *1404:A2 *1407:B 9.35542e-06
17 *1407:A1 *1407:B 0.000577934
18 *1407:A2 *1407:B 2.61678e-05
19 *1407:C *1407:B 9.39768e-05
20 *1410:A3 *1407:B 0.000173105
21 *1412:A2 *1407:B 6.96882e-05
22 *193:106 *1407:B 0.000402011
23 *241:12 *1407:B 2.38773e-05
24 *241:23 *1407:B 1.12327e-05
25 *242:12 *1407:B 1.55348e-05
26 *242:32 *1407:B 0.000231567
27 *257:27 *1407:B 1.54892e-05
*RES
1 *1406:ZN *1407:B 20.648 
*END

*D_NET *264 0.00237389
*CONN
*I *1412:B1 I *D gf180mcu_fd_sc_mcu7t5v0__oai32_1
*I *1408:ZN O *D gf180mcu_fd_sc_mcu7t5v0__aoi21_1
*CAP
1 *1412:B1 0.000275984
2 *1408:ZN 0.000275984
3 *1412:B1 *447:79 5.61789e-06
4 *1412:B1 *448:82 0.000389658
5 *1412:B1 *492:171 2.81789e-05
6 *1412:B1 *492:198 3.06164e-05
7 *1407:A2 *1412:B1 0.00106166
8 *1412:A2 *1412:B1 0.000227496
9 *262:22 *1412:B1 7.8699e-05
*RES
1 *1408:ZN *1412:B1 21.536 
*END

*D_NET *265 0.0015751
*CONN
*I *1416:A2 I *D gf180mcu_fd_sc_mcu7t5v0__nor2_1
*I *1409:Z O *D gf180mcu_fd_sc_mcu7t5v0__and4_1
*CAP
1 *1416:A2 0.000334157
2 *1409:Z 0.000334157
3 *1416:A2 *1417:A2 0.000234564
4 *1416:A2 *1418:A2 0.000103788
5 *1416:A2 *269:14 0.000567636
6 *1417:A1 *1416:A2 8.00934e-07
*RES
1 *1409:Z *1416:A2 12.432 
*END

*D_NET *266 0.002355
*CONN
*I *1411:A2 I *D gf180mcu_fd_sc_mcu7t5v0__nand2_1
*I *1410:ZN O *D gf180mcu_fd_sc_mcu7t5v0__nand4_1
*CAP
1 *1411:A2 0.000455722
2 *1410:ZN 0.000455722
3 *1411:A2 *1410:A1 1.56603e-05
4 *1411:A2 *1410:A2 4.57982e-05
5 *1411:A2 *1720:CLK 4.18042e-05
6 *1411:A2 *450:49 0.000252492
7 *1411:A2 *450:64 0.000150699
8 *1411:A2 *451:10 2.8922e-05
9 *1411:A2 *476:67 0.000609774
10 *1411:A2 *492:60 4.42682e-06
11 *1404:B2 *1411:A2 0.000152328
12 *1411:A1 *1411:A2 0.000125997
13 *242:12 *1411:A2 0
14 *242:55 *1411:A2 1.56603e-05
*RES
1 *1410:ZN *1411:A2 14.2 
*END

*D_NET *267 0.00222149
*CONN
*I *1412:B2 I *D gf180mcu_fd_sc_mcu7t5v0__oai32_1
*I *1411:ZN O *D gf180mcu_fd_sc_mcu7t5v0__nand2_1
*CAP
1 *1412:B2 0.000193623
2 *1411:ZN 0.000193623
3 *1412:B2 *476:80 0.000314039
4 *1407:A1 *1412:B2 0.000107923
5 *1407:A2 *1412:B2 0.000395056
6 *1686:D *1412:B2 0
7 *250:40 *1412:B2 0.000976478
8 *257:27 *1412:B2 4.07478e-05
*RES
1 *1411:ZN *1412:B2 21.744 
*END

*D_NET *268 0.000724237
*CONN
*I *1414:A2 I *D gf180mcu_fd_sc_mcu7t5v0__aoi211_1
*I *1413:ZN O *D gf180mcu_fd_sc_mcu7t5v0__nand4_1
*CAP
1 *1414:A2 0.000147496
2 *1413:ZN 0.000147496
3 *1414:A2 *1611:B2 0
4 *1414:A2 *1622:A2 3.28419e-05
5 *1414:A2 *272:6 0.000396403
6 *242:8 *1414:A2 0
*RES
1 *1413:ZN *1414:A2 10.456 
*END

*D_NET *269 0.00856098
*CONN
*I *1421:A2 I *D gf180mcu_fd_sc_mcu7t5v0__nor2_1
*I *1417:B2 I *D gf180mcu_fd_sc_mcu7t5v0__aoi22_1
*I *1414:ZN O *D gf180mcu_fd_sc_mcu7t5v0__aoi211_1
*CAP
1 *1421:A2 0.000360496
2 *1417:B2 0
3 *1414:ZN 0.000599249
4 *269:14 0.000959745
5 *1421:A2 *1422:B 0.000101606
6 *1421:A2 *1620:A2 0.000387113
7 *1421:A2 *1722:CLK 0.000275447
8 *1421:A2 *452:14 0.000244512
9 *1421:A2 *477:43 0
10 *269:14 *1417:A2 3.6427e-05
11 *269:14 *1418:A1 0.000327138
12 *269:14 *1418:A2 0.000103788
13 *269:14 *1426:A2 0.00032983
14 *269:14 *1611:B2 7.58199e-05
15 *269:14 *1722:CLK 0.000217711
16 *269:14 *272:6 0.000241007
17 *269:14 *273:10 1.87533e-05
18 *269:14 *448:82 0.0004332
19 *269:14 *449:89 0.000180915
20 *269:14 *451:36 1.78817e-06
21 *269:14 *476:61 2.73715e-06
22 *269:14 *476:67 0.000574419
23 *1416:A2 *269:14 0.000567636
24 *1687:D *1421:A2 0.00192975
25 *1687:D *269:14 0.000240325
26 *1722:D *1421:A2 0.000218554
27 *240:8 *269:14 0.000113027
28 *250:32 *269:14 1.99851e-05
*RES
1 *1414:ZN *269:14 16.696 
2 *269:14 *1417:B2 9 
3 *269:14 *1421:A2 15.76 
*END

*D_NET *270 0.00861382
*CONN
*I *1417:B1 I *D gf180mcu_fd_sc_mcu7t5v0__aoi22_1
*I *1415:ZN O *D gf180mcu_fd_sc_mcu7t5v0__nand2_1
*CAP
1 *1417:B1 0.00250958
2 *1415:ZN 0.00250958
3 *1417:B1 *1328:A1 0.000107043
4 *1417:B1 *1406:A4 0.00115789
5 *1417:B1 *580:21 0.000670621
6 *1417:B1 *580:32 0.000458126
7 *1328:C *1417:B1 8.24826e-05
8 *1382:A2 *1417:B1 7.05729e-05
9 *1610:A1 *1417:B1 3.26021e-05
10 *1687:D *1417:B1 0.000104393
11 *142:222 *1417:B1 0.000113962
12 *241:31 *1417:B1 0.000269933
13 *241:33 *1417:B1 0.000347909
14 *250:18 *1417:B1 7.4725e-05
15 *250:32 *1417:B1 0
16 *262:20 *1417:B1 0.000104393
*RES
1 *1415:ZN *1417:B1 45.616 
*END

*D_NET *271 0.00134274
*CONN
*I *1417:A2 I *D gf180mcu_fd_sc_mcu7t5v0__aoi22_1
*I *1416:ZN O *D gf180mcu_fd_sc_mcu7t5v0__nor2_1
*CAP
1 *1417:A2 0.000337692
2 *1416:ZN 0.000337692
3 *1417:A2 *476:61 0.000396363
4 *1416:A2 *1417:A2 0.000234564
5 *269:14 *1417:A2 3.6427e-05
*RES
1 *1416:ZN *1417:A2 12.224 
*END

*D_NET *272 0.00395936
*CONN
*I *1419:A2 I *D gf180mcu_fd_sc_mcu7t5v0__aoi211_1
*I *1425:A2 I *D gf180mcu_fd_sc_mcu7t5v0__oai32_1
*I *1418:ZN O *D gf180mcu_fd_sc_mcu7t5v0__nand4_1
*CAP
1 *1419:A2 0
2 *1425:A2 0.000197471
3 *1418:ZN 0.000571484
4 *272:6 0.000768955
5 *272:6 *1413:A1 0.000103788
6 *272:6 *1418:A1 0.000236426
7 *272:6 *451:49 3.90996e-05
8 *1380:A1 *1425:A2 3.18325e-05
9 *1380:A1 *272:6 4.29536e-05
10 *1380:A2 *272:6 0.000236009
11 *1414:A2 *272:6 0.000396403
12 *1425:A1 *1425:A2 0.000191739
13 *1425:A1 *272:6 0.00032003
14 *203:18 *1425:A2 0.000149712
15 *240:8 *272:6 0.000337769
16 *240:26 *272:6 9.46825e-05
17 *242:8 *272:6 0
18 *269:14 *272:6 0.000241007
*RES
1 *1418:ZN *272:6 10.012 
2 *272:6 *1425:A2 6.684 
3 *272:6 *1419:A2 4.5 
*END

*D_NET *273 0.0129226
*CONN
*I *1422:A1 I *D gf180mcu_fd_sc_mcu7t5v0__aoi21_1
*I *1423:A2 I *D gf180mcu_fd_sc_mcu7t5v0__nor2_1
*I *1419:ZN O *D gf180mcu_fd_sc_mcu7t5v0__aoi211_1
*CAP
1 *1422:A1 0.000425889
2 *1423:A2 0.000237963
3 *1419:ZN 0.000366838
4 *273:10 0.00103069
5 *1422:A1 *1341:A4 4.17589e-06
6 *1422:A1 *1421:A1 0.000418244
7 *1422:A1 *1422:A2 0.000677628
8 *1422:A1 *1426:A1 5.34458e-06
9 *1422:A1 *1621:A2 1.23478e-05
10 *1422:A1 *1622:A2 0.00103941
11 *1422:A1 *425:172 0.000600896
12 *1422:A1 *453:30 0.000537648
13 *1422:A1 *477:35 3.01514e-05
14 *1423:A2 *1341:A4 3.10673e-05
15 *1423:A2 *1611:B1 0.000242172
16 *1423:A2 *1617:A2 0.000240234
17 *1423:A2 *279:16 3.28453e-06
18 *273:10 *1619:A1 9.46745e-05
19 *273:10 *1622:A2 0.00172041
20 *273:10 *451:53 0.000142571
21 *273:10 *453:10 0.000367043
22 *273:10 *453:30 0.000784644
23 *273:10 *476:61 0.0015501
24 ADDR_O[4] *1422:A1 1.51772e-05
25 *1414:B *273:10 1.87108e-05
26 *1414:C *273:10 0.00104996
27 *1644:A1 *1422:A1 8.69612e-05
28 *1689:D *1422:A1 0.000752333
29 *1723:D *1422:A1 3.11243e-05
30 *1724:D *1422:A1 0.000191664
31 *251:27 *273:10 0.000194522
32 *269:14 *273:10 1.87533e-05
*RES
1 *1419:ZN *273:10 17.944 
2 *273:10 *1423:A2 10.768 
3 *273:10 *1422:A1 25.8 
*END

*D_NET *274 0.00932402
*CONN
*I *1422:A2 I *D gf180mcu_fd_sc_mcu7t5v0__aoi21_1
*I *1420:ZN O *D gf180mcu_fd_sc_mcu7t5v0__nand2_1
*CAP
1 *1422:A2 0.000393939
2 *1420:ZN 0.000393939
3 *1422:A2 *1624:A2 0.00371678
4 *1422:A2 *280:18 0.000197201
5 *1422:A1 *1422:A2 0.000677628
6 *1644:A1 *1422:A2 0.000623363
7 *1689:D *1422:A2 0.000125846
8 *241:23 *1422:A2 0.000447626
9 *241:79 *1422:A2 0.00274769
*RES
1 *1420:ZN *1422:A2 30.584 
*END

*D_NET *275 0.00570967
*CONN
*I *1422:B I *D gf180mcu_fd_sc_mcu7t5v0__aoi21_1
*I *1421:ZN O *D gf180mcu_fd_sc_mcu7t5v0__nor2_1
*CAP
1 *1422:B 0.000811778
2 *1421:ZN 0.000811778
3 *1422:B *1421:A1 0.000618546
4 *1422:B *1620:A2 6.2763e-05
5 *1422:B *1621:A1 0.000295809
6 *1422:B *1798:I 0.000284044
7 *1422:B *452:14 0.000179237
8 *1422:B *500:12 0.00019377
9 ADDR_O[1] *1422:B 1.10856e-05
10 ADDR_O[2] *1422:B 0.000436963
11 *1421:A2 *1422:B 0.000101606
12 *1687:D *1422:B 4.66495e-06
13 *1689:D *1422:B 3.57634e-06
14 *1723:D *1422:B 6.95257e-05
15 *1783:I *1422:B 0.00182452
*RES
1 *1421:ZN *1422:B 28.504 
*END

*D_NET *276 0.00326123
*CONN
*I *1426:A1 I *D gf180mcu_fd_sc_mcu7t5v0__nor2_1
*I *1423:ZN O *D gf180mcu_fd_sc_mcu7t5v0__nor2_1
*CAP
1 *1426:A1 0.000385175
2 *1423:ZN 0.000385175
3 *1426:A1 *1421:A1 6.21662e-05
4 *1426:A1 *1423:A1 4.07478e-05
5 *1426:A1 *1617:A2 7.5334e-05
6 *1426:A1 *1617:B1 0.000667962
7 *1426:A1 *1619:A1 0.000376466
8 *1426:A1 *1619:B1 9.7618e-05
9 *1426:A1 *1623:A1 0.000237262
10 *1426:A1 *1795:I 0.00052233
11 *1426:A1 *279:16 2.81522e-06
12 *1426:A1 *279:18 2.46957e-05
13 *1422:A1 *1426:A1 5.34458e-06
14 *1723:D *1426:A1 0.000314845
15 *1724:D *1426:A1 6.32895e-05
*RES
1 *1423:ZN *1426:A1 23.2 
*END

*D_NET *277 0.00210997
*CONN
*I *1425:A3 I *D gf180mcu_fd_sc_mcu7t5v0__oai32_1
*I *1424:ZN O *D gf180mcu_fd_sc_mcu7t5v0__nand3_1
*CAP
1 *1425:A3 0.000325304
2 *1424:ZN 0.000325304
3 *1425:A3 *492:228 0.000137856
4 *1335:A2 *1425:A3 0.000134086
5 *1390:A3 *1425:A3 2.41395e-05
6 *1424:A1 *1425:A3 1.91879e-05
7 *1424:A2 *1425:A3 0.000113027
8 *157:16 *1425:A3 0.000343539
9 *203:18 *1425:A3 0.000137277
10 *241:29 *1425:A3 0.000316954
11 *251:27 *1425:A3 0.000233299
*RES
1 *1424:ZN *1425:A3 22.16 
*END

*D_NET *278 0.00731581
*CONN
*I *1426:A2 I *D gf180mcu_fd_sc_mcu7t5v0__nor2_1
*I *1425:ZN O *D gf180mcu_fd_sc_mcu7t5v0__oai32_1
*CAP
1 *1426:A2 0.000539279
2 *1425:ZN 0.000539279
3 *1426:A2 *1622:A2 0.0010071
4 *1414:B *1426:A2 0.000875918
5 *1414:C *1426:A2 3.50983e-05
6 *1419:A1 *1426:A2 0.000185295
7 *1419:B *1426:A2 0.000148035
8 *1425:A1 *1426:A2 4.82113e-05
9 *1688:D *1426:A2 0.00266099
10 *240:8 *1426:A2 6.31055e-05
11 *240:26 *1426:A2 0.000513193
12 *250:18 *1426:A2 3.4596e-05
13 *250:32 *1426:A2 0.000256274
14 *251:27 *1426:A2 7.96024e-05
15 *269:14 *1426:A2 0.00032983
*RES
1 *1425:ZN *1426:A2 29.44 
*END

*D_NET *279 0.0235408
*CONN
*I *1625:A2 I *D gf180mcu_fd_sc_mcu7t5v0__aoi22_1
*I *1623:A2 I *D gf180mcu_fd_sc_mcu7t5v0__aoi22_1
*I *1610:B I *D gf180mcu_fd_sc_mcu7t5v0__aoi21_1
*I *1621:A2 I *D gf180mcu_fd_sc_mcu7t5v0__aoi22_1
*I *1613:A2 I *D gf180mcu_fd_sc_mcu7t5v0__aoi22_1
*I *1615:A2 I *D gf180mcu_fd_sc_mcu7t5v0__aoi22_1
*I *1619:A2 I *D gf180mcu_fd_sc_mcu7t5v0__aoi22_1
*I *1617:A2 I *D gf180mcu_fd_sc_mcu7t5v0__aoi22_1
*I *1611:A2 I *D gf180mcu_fd_sc_mcu7t5v0__aoi22_1
*I *1427:ZN O *D gf180mcu_fd_sc_mcu7t5v0__nor2_1
*CAP
1 *1625:A2 0.000473836
2 *1623:A2 0
3 *1610:B 0
4 *1621:A2 0.00016279
5 *1613:A2 0
6 *1615:A2 0.000235371
7 *1619:A2 6.84749e-05
8 *1617:A2 0.000502007
9 *1611:A2 0.000480622
10 *1427:ZN 6.795e-05
11 *279:101 0.00054988
12 *279:67 0.00107174
13 *279:53 0.0010467
14 *279:40 0.000126734
15 *279:18 0.00102243
16 *279:16 0.000378178
17 *279:12 0.000585951
18 *279:10 0.000402292
19 *1611:A2 *1405:A1 0.000196441
20 *1611:A2 *1413:A1 0.00018553
21 *1611:A2 *1418:A3 0.000270191
22 *1611:A2 *1423:A1 0.0012102
23 *1611:A2 *1611:B1 0.000692791
24 *1611:A2 *447:79 4.58772e-05
25 *1611:A2 *452:18 0.000358353
26 *1611:A2 *452:20 0.000290658
27 *1615:A2 *1612:A1 7.28333e-07
28 *1615:A2 *1613:A1 1.71326e-05
29 *1615:A2 *1615:A1 0.000125055
30 *1615:A2 *1617:B2 0
31 *1615:A2 *1795:I 1.36398e-06
32 *1615:A2 *492:32 1.92369e-05
33 *1617:A2 *1423:A1 0.000106908
34 *1617:A2 *1617:B1 0.000140065
35 *1619:A2 *1617:B1 1.03283e-05
36 *1619:A2 *1619:A1 0.000158666
37 *1621:A2 *1341:A4 0.000122905
38 *1621:A2 *1421:A1 0.000227028
39 *1621:A2 *1622:A2 0.000134113
40 *1621:A2 *425:172 0.000248324
41 *1621:A2 *425:196 4.09812e-05
42 *1625:A2 *1623:A1 1.71326e-05
43 *1625:A2 *1625:B1 0.0019748
44 *1625:A2 *425:29 2.13874e-05
45 *1625:A2 *425:38 8.06101e-06
46 *1625:A2 *425:53 4.09834e-06
47 *279:10 *1625:A1 0.000149461
48 *279:10 *1799:I 0.000415294
49 *279:12 *1341:A4 7.9669e-06
50 *279:12 *1623:A1 0.000157761
51 *279:16 *1341:A4 0.000100378
52 *279:16 *1619:A1 3.99518e-05
53 *279:16 *1623:A1 0.000134972
54 *279:18 *1341:A4 0.0002736
55 *279:18 *1423:A1 7.17651e-05
56 *279:18 *1611:B1 1.23478e-05
57 *279:18 *1617:B1 0.000113773
58 *279:18 *1619:A1 7.92185e-06
59 *279:18 *1795:I 9.36285e-06
60 *279:40 *1341:A4 0.000187579
61 *279:40 *1617:B1 0.000153724
62 *279:53 *1341:A4 0.000482792
63 *279:53 *1617:B1 0.000215295
64 *279:53 *425:174 0.000259344
65 *279:67 *1421:A1 0.000318654
66 *279:67 *1613:A1 7.60693e-05
67 *279:67 *1615:A1 0.00011875
68 *279:67 *1626:A1 0.000118494
69 *279:67 *1626:A2 0.000128369
70 *279:67 *1644:B 1.53518e-05
71 *279:67 *1645:B 2.30577e-05
72 *279:67 *1795:I 0.00128999
73 *279:67 *425:172 9.15718e-05
74 *279:67 *425:204 0.000167497
75 *279:67 *477:41 6.45566e-05
76 *279:67 *477:43 1.07369e-05
77 *279:67 *492:32 6.89962e-05
78 *279:67 *499:10 0.00173154
79 *279:101 *1623:A1 2.2e-05
80 ADDR_O[1] *1617:A2 6.47033e-06
81 ADDR_O[2] *1617:A2 3.89885e-06
82 ADDR_O[3] *1615:A2 0
83 ADDR_O[6] *1625:A2 0.000154617
84 ADDR_O[7] *1625:A2 0.000388596
85 *1413:A3 *1611:A2 4.26865e-05
86 *1422:A1 *1621:A2 1.23478e-05
87 *1423:A2 *1617:A2 0.000240234
88 *1423:A2 *279:16 3.28453e-06
89 *1426:A1 *1617:A2 7.5334e-05
90 *1426:A1 *279:16 2.81522e-06
91 *1426:A1 *279:18 2.46957e-05
92 *1610:A1 *1625:A2 0.000128374
93 *1610:A1 *279:12 0.000817103
94 *1610:A1 *279:101 0.000147623
95 *1644:A1 *279:67 0
96 *1683:D *1615:A2 5.6979e-06
97 *1688:D *1611:A2 0
98 *1690:D *279:67 0.000389359
99 *1722:D *1617:A2 0
100 *242:8 *1611:A2 3.58123e-05
101 *242:55 *1611:A2 0.000177248
102 *262:22 *1611:A2 4.23738e-05
*RES
1 *1427:ZN *279:10 14.644 
2 *279:10 *279:12 2.6 
3 *279:12 *279:16 6.684 
4 *279:16 *279:18 0.936 
5 *279:18 *1611:A2 17.112 
6 *279:18 *1617:A2 12.432 
7 *279:16 *279:40 0.52 
8 *279:40 *1619:A2 9.52 
9 *279:40 *279:53 5.852 
10 *279:53 *279:67 19.712 
11 *279:67 *1615:A2 6.06 
12 *279:67 *1613:A2 4.5 
13 *279:53 *1621:A2 15.788 
14 *279:12 *1610:B 4.5 
15 *279:10 *279:101 0.832 
16 *279:101 *1623:A2 4.5 
17 *279:101 *1625:A2 20.988 
*END

*D_NET *280 0.0115888
*CONN
*I *1645:A1 I *D gf180mcu_fd_sc_mcu7t5v0__aoi21_1
*I *1428:ZN O *D gf180mcu_fd_sc_mcu7t5v0__nand2_1
*CAP
1 *1645:A1 0
2 *1428:ZN 0.00533794
3 *280:18 0.00533794
4 *280:18 *1624:A2 0.000126809
5 *280:18 *1625:A1 0.000184247
6 *280:18 *492:435 0
7 *1422:A2 *280:18 0.000197201
8 *1644:A1 *280:18 0.000233528
9 *1689:D *280:18 0.000118633
10 *222:28 *280:18 0
11 *230:26 *280:18 5.24796e-05
*RES
1 *1428:ZN *280:18 48.33 
2 *280:18 *1645:A1 13.5 
*END

*D_NET *281 0.00444109
*CONN
*I *1440:A1 I *D gf180mcu_fd_sc_mcu7t5v0__aoi21_1
*I *1430:A2 I *D gf180mcu_fd_sc_mcu7t5v0__nand2_1
*I *1429:ZN O *D gf180mcu_fd_sc_mcu7t5v0__nand3_1
*CAP
1 *1440:A1 1.31076e-05
2 *1430:A2 0.000311501
3 *1429:ZN 0.000146265
4 *281:10 0.000470874
5 *1430:A2 *1324:B 1.07369e-05
6 *1430:A2 *1372:A4 0.000179194
7 *1430:A2 *1440:B 0.000425993
8 *1430:A2 *282:12 0.000560696
9 *1430:A2 *577:59 8.3831e-05
10 *1430:A2 *578:18 9.37361e-06
11 *1440:A1 *578:18 0.000271774
12 *281:10 *1429:A1 0.000120235
13 *281:10 *578:18 0.000707634
14 *1324:A1 *1440:A1 0.00023882
15 *1324:A1 *281:10 0.000355296
16 *1430:A1 *1430:A2 3.60303e-05
17 *1728:D *1430:A2 0.000177022
18 *141:37 *1430:A2 2.46957e-05
19 *141:57 *281:10 0.000215368
20 *157:8 *1430:A2 5.63044e-06
21 *192:8 *281:10 1.91879e-05
22 *192:10 *281:10 7.80235e-06
23 *192:32 *281:10 1.20838e-05
24 *207:12 *1430:A2 3.79409e-05
*RES
1 *1429:ZN *281:10 11.496 
2 *281:10 *1430:A2 21.64 
3 *281:10 *1440:A1 9.728 
*END

*D_NET *282 0.010287
*CONN
*I *1436:B1 I *D gf180mcu_fd_sc_mcu7t5v0__oai33_1
*I *1434:A2 I *D gf180mcu_fd_sc_mcu7t5v0__oai32_1
*I *1430:ZN O *D gf180mcu_fd_sc_mcu7t5v0__nand2_1
*CAP
1 *1436:B1 0
2 *1434:A2 0.00136753
3 *1430:ZN 0.00104288
4 *282:12 0.00241041
5 *282:12 *1436:B2 0.000206375
6 *282:12 *492:251 0
7 *282:12 *504:26 0.000384037
8 *282:12 *577:37 0.000342115
9 *282:12 *577:46 0.000795678
10 *282:12 *577:59 0.000788215
11 *282:12 *578:18 0.000138694
12 *1279:A1 *1434:A2 0.000175906
13 *1322:A1 *282:12 0.000174071
14 *1430:A2 *282:12 0.000560696
15 *1434:A1 *1434:A2 5.79038e-05
16 *1726:D *1434:A2 0.000894798
17 *1729:D *1434:A2 5.30661e-05
18 *141:37 *282:12 0.000146714
19 *141:57 *282:12 9.19654e-05
20 *142:147 *282:12 2.22205e-05
21 *154:22 *1434:A2 7.3514e-05
22 *154:22 *282:12 1.07369e-05
23 *154:31 *282:12 5.17348e-05
24 *179:49 *282:12 0.000345402
25 *179:64 *282:12 0.000152359
26 *245:10 *282:12 0
*RES
1 *1430:ZN *282:12 25.148 
2 *282:12 *1434:A2 31.964 
3 *282:12 *1436:B1 4.5 
*END

*D_NET *283 0.0044854
*CONN
*I *1436:A3 I *D gf180mcu_fd_sc_mcu7t5v0__oai33_1
*I *1432:ZN O *D gf180mcu_fd_sc_mcu7t5v0__nand2_1
*CAP
1 *1436:A3 0.000518801
2 *1432:ZN 0.000518801
3 *1436:A3 *447:131 0
4 *1323:A2 *1436:A3 0.000417934
5 *1338:A1 *1436:A3 0.000266651
6 *1386:C *1436:A3 8.48683e-06
7 *1432:A1 *1436:A3 0.000605396
8 *1434:B1 *1436:A3 0.00162744
9 *131:31 *1436:A3 0.000127788
10 *142:159 *1436:A3 0.000217224
11 *157:82 *1436:A3 0.000176877
*RES
1 *1432:ZN *1436:A3 34.696 
*END

*D_NET *284 0.00273095
*CONN
*I *1434:B2 I *D gf180mcu_fd_sc_mcu7t5v0__oai32_1
*I *1433:ZN O *D gf180mcu_fd_sc_mcu7t5v0__nand4_1
*CAP
1 *1434:B2 0.000218521
2 *1433:ZN 0.000218521
3 *1434:B2 *1267:I 0.00153191
4 *1434:B2 *1433:A1 0.000249469
5 *1434:B2 *447:131 0.000477935
6 *1434:B2 *552:32 3.4596e-05
*RES
1 *1433:ZN *1434:B2 13.264 
*END

*D_NET *285 0.00114278
*CONN
*I *1438:B I *D gf180mcu_fd_sc_mcu7t5v0__aoi211_1
*I *1437:ZN O *D gf180mcu_fd_sc_mcu7t5v0__aoi21_1
*CAP
1 *1438:B 6.99831e-05
2 *1437:ZN 6.99831e-05
3 *1347:B *1438:B 0.000453993
4 *1437:A1 *1438:B 0.00054882
*RES
1 *1437:ZN *1438:B 10.56 
*END

*D_NET *286 0.00441478
*CONN
*I *1440:A2 I *D gf180mcu_fd_sc_mcu7t5v0__aoi21_1
*I *1439:ZN O *D gf180mcu_fd_sc_mcu7t5v0__nand3_1
*CAP
1 *1440:A2 0.000558175
2 *1439:ZN 0.000558175
3 *1440:A2 *1382:A3 0.000314453
4 *1440:A2 *1439:A3 0.000139563
5 *1440:A2 *579:18 8.00229e-05
6 *1440:A2 *579:20 2.46717e-05
7 *1440:A2 *579:48 2.83242e-05
8 *1347:B *1440:A2 1.37509e-05
9 *1430:A1 *1440:A2 0.000536139
10 *1437:A1 *1440:A2 5.34458e-06
11 *1785:I *1440:A2 0.000173842
12 *157:8 *1440:A2 0.00120092
13 *193:16 *1440:A2 0.000107648
14 *193:22 *1440:A2 0.000560661
15 *193:148 *1440:A2 9.76253e-05
16 *203:18 *1440:A2 1.26446e-05
17 *219:28 *1440:A2 2.82894e-06
*RES
1 *1439:ZN *1440:A2 25.384 
*END

*D_NET *287 0.00250171
*CONN
*I *1442:A1 I *D gf180mcu_fd_sc_mcu7t5v0__nor2_1
*I *1445:A2 I *D gf180mcu_fd_sc_mcu7t5v0__oai22_1
*I *1441:ZN O *D gf180mcu_fd_sc_mcu7t5v0__nand2_1
*CAP
1 *1442:A1 0.000233431
2 *1445:A2 0
3 *1441:ZN 0.000272948
4 *287:8 0.000506379
5 *1442:A1 *1444:A1 6.11661e-05
6 *1442:A1 *1445:A1 2.64466e-05
7 *1442:A1 *1445:B1 6.64873e-05
8 *1442:A1 *1547:A2 3.59979e-05
9 *1442:A1 *289:19 0.000118787
10 *1442:A1 *565:10 3.4596e-05
11 *1442:A1 *565:17 7.84307e-05
12 *1442:A1 *565:36 0.000143295
13 *287:8 *1441:A2 2.64624e-05
14 *287:8 *1443:A1 9.76261e-05
15 *287:8 *289:8 0.000261696
16 *287:8 *289:19 6.11661e-05
17 *1666:D *287:8 0.00037585
18 *142:199 *287:8 0.000100945
*RES
1 *1441:ZN *287:8 12.848 
2 *287:8 *1445:A2 9 
3 *287:8 *1442:A1 11.288 
*END

*D_NET *288 0.00898203
*CONN
*I *1545:A2 I *D gf180mcu_fd_sc_mcu7t5v0__nor4_1
*I *1514:A2 I *D gf180mcu_fd_sc_mcu7t5v0__nor3_1
*I *1516:A4 I *D gf180mcu_fd_sc_mcu7t5v0__nor4_1
*I *1569:B I *D gf180mcu_fd_sc_mcu7t5v0__aoi21_1
*I *1442:ZN O *D gf180mcu_fd_sc_mcu7t5v0__nor2_1
*CAP
1 *1545:A2 0.000249719
2 *1514:A2 0
3 *1516:A4 0.000206304
4 *1569:B 0.000557479
5 *1442:ZN 0
6 *288:34 0.000373299
7 *288:10 0.0011366
8 *288:4 0.000496401
9 *1516:A4 *1516:A2 0
10 *1516:A4 *1516:A3 3.44165e-05
11 *1516:A4 *1570:A1 5.25526e-05
12 *1516:A4 *1570:B 0.000318385
13 *1516:A4 *1595:A4 0.000226145
14 *1516:A4 *485:20 0.000921609
15 *1545:A2 *1446:I 1.25888e-05
16 *1545:A2 *1547:A2 0.000645952
17 *1545:A2 *359:8 0.000203364
18 *1545:A2 *361:20 0.000487059
19 *1569:B *1441:A2 3.64674e-05
20 *1569:B *1569:A1 0.000230514
21 *1569:B *1570:A2 0.000788625
22 *1569:B *1607:A2 4.66799e-05
23 *1569:B *472:26 0.000553768
24 *1569:B *472:35 0.000110023
25 *1569:B *472:41 4.67771e-06
26 *1569:B *484:33 0.000191953
27 *288:10 *1441:A2 9.26206e-05
28 *288:10 *1445:A1 3.22108e-05
29 *288:10 *1547:A2 3.22108e-05
30 *288:10 *1547:B 0.000319116
31 *288:10 *484:33 4.99626e-05
32 *288:10 *484:52 0.000113605
33 *288:10 *484:65 0.000134835
34 *288:10 *565:36 4.36439e-05
35 *288:34 *1445:A1 2.14739e-05
36 *288:34 *1446:I 8.17807e-06
37 *288:34 *1514:A1 3.38219e-05
38 *288:34 *1547:A2 9.77823e-05
39 *142:180 *288:10 0.000117979
*RES
1 *1442:ZN *288:4 4.5 
2 *288:4 *288:10 8.036 
3 *288:10 *1569:B 15.032 
4 *288:10 *1516:A4 12.328 
5 *288:4 *288:34 0.936 
6 *288:34 *1514:A2 4.5 
7 *288:34 *1545:A2 16.828 
*END

*D_NET *289 0.0025382
*CONN
*I *1444:A1 I *D gf180mcu_fd_sc_mcu7t5v0__nor2_1
*I *1445:B1 I *D gf180mcu_fd_sc_mcu7t5v0__oai22_1
*I *1513:A1 I *D gf180mcu_fd_sc_mcu7t5v0__oai21_1
*I *1443:ZN O *D gf180mcu_fd_sc_mcu7t5v0__nand2_1
*CAP
1 *1444:A1 0.000136779
2 *1445:B1 4.92776e-05
3 *1513:A1 7.55978e-05
4 *1443:ZN 3.7381e-05
5 *289:19 0.000260728
6 *289:8 0.00018765
7 *1444:A1 *1444:A2 0.000271764
8 *1444:A1 *565:36 9.82096e-05
9 *1445:B1 *1445:A1 3.4596e-05
10 *1513:A1 *1513:A2 3.38219e-05
11 *1513:A1 *1609:A2 2.07916e-05
12 *289:8 *1441:A2 0.000188776
13 *289:8 *565:36 6.40967e-05
14 *289:19 *565:36 0.000147601
15 *1442:A1 *1444:A1 6.11661e-05
16 *1442:A1 *1445:B1 6.64873e-05
17 *1442:A1 *289:19 0.000118787
18 *1547:A1 *1444:A1 0
19 *142:180 *1444:A1 9.66619e-05
20 *142:184 *1445:B1 2.13874e-05
21 *142:184 *1513:A1 0.000243774
22 *287:8 *289:8 0.000261696
23 *287:8 *289:19 6.11661e-05
*RES
1 *1443:ZN *289:8 10.56 
2 *289:8 *1513:A1 9.728 
3 *289:8 *289:19 1.144 
4 *289:19 *1445:B1 9.52 
5 *289:19 *1444:A1 10.768 
*END

*D_NET *290 0.00372717
*CONN
*I *1545:A3 I *D gf180mcu_fd_sc_mcu7t5v0__nor4_1
*I *1514:A3 I *D gf180mcu_fd_sc_mcu7t5v0__nor3_1
*I *1444:ZN O *D gf180mcu_fd_sc_mcu7t5v0__nor2_1
*CAP
1 *1545:A3 9.59378e-05
2 *1514:A3 0.000103226
3 *1444:ZN 0.000303819
4 *290:10 0.000502983
5 *1514:A3 *492:87 0.000251289
6 *1545:A3 *473:20 0.000127799
7 *1545:A3 *473:24 7.34544e-05
8 *1545:A3 *484:91 0.00073371
9 *290:10 *1545:A1 9.76253e-05
10 *290:10 *1547:B 0.000727928
11 *290:10 *473:24 0.000355122
12 *290:10 *492:83 6.32525e-05
13 *290:10 *492:87 0.00029102
*RES
1 *1444:ZN *290:10 12.744 
2 *290:10 *1514:A3 9.728 
3 *290:10 *1545:A3 10.976 
*END

*D_NET *291 0.00511581
*CONN
*I *1446:I I *D gf180mcu_fd_sc_mcu7t5v0__clkinv_1
*I *1547:B I *D gf180mcu_fd_sc_mcu7t5v0__aoi211_1
*I *1445:ZN O *D gf180mcu_fd_sc_mcu7t5v0__oai22_1
*CAP
1 *1446:I 0.000232648
2 *1547:B 0.000357049
3 *1445:ZN 0.000166246
4 *291:10 0.000755943
5 *1446:I *1445:A1 3.22108e-05
6 *1446:I *1514:A1 3.38219e-05
7 *1446:I *1516:A3 0
8 *1446:I *292:16 9.49418e-06
9 *1446:I *358:10 1.73246e-05
10 *1547:B *1547:C 0.000265501
11 *1547:B *473:24 7.02352e-05
12 *1547:B *484:65 0.00019118
13 *1547:B *484:78 0.000391189
14 *1547:B *492:83 0.000768675
15 *1547:B *492:87 0.000115377
16 *291:10 *1445:A1 0.000405998
17 *291:10 *1609:A2 1.09116e-05
18 *291:10 *358:10 7.87395e-06
19 *1545:A2 *1446:I 1.25888e-05
20 *142:180 *1547:B 0.000122694
21 *142:184 *291:10 9.36264e-05
22 *288:10 *1547:B 0.000319116
23 *288:34 *1446:I 8.17807e-06
24 *290:10 *1547:B 0.000727928
*RES
1 *1445:ZN *291:10 6.268 
2 *291:10 *1547:B 19.428 
3 *291:10 *1446:I 6.164 
*END

*D_NET *292 0.016556
*CONN
*I *1507:A2 I *D gf180mcu_fd_sc_mcu7t5v0__nand3_1
*I *1476:A2 I *D gf180mcu_fd_sc_mcu7t5v0__aoi21_1
*I *1515:A1 I *D gf180mcu_fd_sc_mcu7t5v0__nand2_1
*I *1446:ZN O *D gf180mcu_fd_sc_mcu7t5v0__clkinv_1
*CAP
1 *1507:A2 5.67749e-05
2 *1476:A2 0
3 *1515:A1 0
4 *1446:ZN 0.00112462
5 *292:33 0.00432436
6 *292:16 0.00539221
7 *1507:A2 *1585:A1 0.000394668
8 *1507:A2 *563:34 0.000381978
9 *292:16 *1516:A3 1.46474e-05
10 *292:16 *1561:A3 9.80196e-06
11 *292:16 *1563:A1 3.98026e-05
12 *292:16 *1564:C 0.000174156
13 *292:16 *1568:A2 4.22226e-05
14 *292:16 *1570:A1 6.28659e-05
15 *292:16 *1595:A2 0.001622
16 *292:16 *1595:A3 9.80196e-06
17 *292:16 *297:22 0
18 *292:16 *317:6 9.48668e-05
19 *292:16 *317:12 0.00013294
20 *292:16 *356:14 0.00065703
21 *292:16 *358:10 0
22 *292:16 *359:8 0.000106889
23 *292:16 *361:20 2.80885e-05
24 *292:33 *1507:A3 0.000267989
25 *292:33 *1584:A2 0.000687162
26 *292:33 *352:8 0.00069009
27 *292:33 *356:82 3.75999e-05
28 *292:33 *490:129 5.17988e-05
29 *1446:I *292:16 9.49418e-06
30 *1528:A1 *292:16 3.85374e-05
31 *138:25 *292:16 1.71581e-05
32 *138:40 *292:16 6.79959e-05
33 *139:51 *292:16 6.54234e-06
34 *139:68 *292:16 1.18918e-05
*RES
1 *1446:ZN *292:16 24.524 
2 *292:16 *1515:A1 13.5 
3 *292:16 *292:33 33.96 
4 *292:33 *1476:A2 4.5 
5 *292:33 *1507:A2 5.644 
*END

*D_NET *293 0.0138681
*CONN
*I *1575:A2 I *D gf180mcu_fd_sc_mcu7t5v0__nand4_1
*I *1556:A2 I *D gf180mcu_fd_sc_mcu7t5v0__nand4_1
*I *1447:ZN O *D gf180mcu_fd_sc_mcu7t5v0__nor2_1
*CAP
1 *1575:A2 0.000149778
2 *1556:A2 0.000987248
3 *1447:ZN 0
4 *293:4 0.00113703
5 *1556:A2 *1449:A3 0.000185295
6 *1556:A2 *1458:A2 0
7 *1556:A2 *1468:A1 1.43541e-05
8 *1556:A2 *1468:A2 3.3221e-05
9 *1556:A2 *1468:A3 0.000113027
10 *1556:A2 *1469:B2 0.000485392
11 *1556:A2 *1530:A1 6.09406e-06
12 *1556:A2 *1537:A1 0.00149971
13 *1556:A2 *1539:A2 4.04633e-05
14 *1556:A2 *1539:A4 0.00058237
15 *1556:A2 *1540:A3 0.00183227
16 *1556:A2 *1549:B 0.00017298
17 *1556:A2 *1556:A1 1.71326e-05
18 *1556:A2 *1590:A2 8.27261e-05
19 *1556:A2 *299:16 0.00129928
20 *1556:A2 *299:95 0.000393338
21 *1556:A2 *375:18 0.00139196
22 *1556:A2 *403:26 1.19103e-05
23 *1556:A2 *487:62 0.000198313
24 *1556:A2 *487:103 0.000864346
25 *1575:A2 *1468:A1 0.000274125
26 *1575:A2 *299:95 6.18411e-06
27 *1575:A2 *316:71 0.000341698
28 *1549:A1 *1556:A2 0.000726087
29 *123:12 *1556:A2 0.000469796
30 *123:45 *1575:A2 5.4278e-05
31 *139:80 *1575:A2 0.000497696
*RES
1 *1447:ZN *293:4 4.5 
2 *293:4 *1556:A2 30.66 
3 *293:4 *1575:A2 15.996 
*END

*D_NET *294 0.00656184
*CONN
*I *1451:A4 I *D gf180mcu_fd_sc_mcu7t5v0__nand4_1
*I *1532:A4 I *D gf180mcu_fd_sc_mcu7t5v0__nand4_1
*I *1531:A4 I *D gf180mcu_fd_sc_mcu7t5v0__and4_1
*I *1448:ZN O *D gf180mcu_fd_sc_mcu7t5v0__nor2_1
*CAP
1 *1451:A4 0
2 *1532:A4 6.34029e-05
3 *1531:A4 0.000415939
4 *1448:ZN 5.7592e-05
5 *294:21 0.000118017
6 *294:8 0.000528145
7 *1531:A4 *1531:A1 0.00016068
8 *1531:A4 *1531:A3 0.000258929
9 *1531:A4 *1552:A1 0.000568792
10 *1531:A4 *1553:C 0.00163517
11 *1531:A4 *487:52 0.000322943
12 *1531:A4 *563:86 3.65817e-05
13 *1532:A4 *422:45 0.000626863
14 *1532:A4 *563:90 0.000626863
15 *294:8 *1552:A1 8.29207e-05
16 *294:8 *356:113 7.69238e-05
17 *294:8 *487:52 3.58826e-05
18 *294:21 *422:45 0.000476175
19 *294:21 *563:86 3.4596e-05
20 *294:21 *563:90 0.000435427
*RES
1 *1448:ZN *294:8 9.728 
2 *294:8 *1531:A4 14.928 
3 *294:8 *294:21 5.852 
4 *294:21 *1532:A4 6.268 
5 *294:21 *1451:A4 4.5 
*END

*D_NET *295 0.00572576
*CONN
*I *1539:A2 I *D gf180mcu_fd_sc_mcu7t5v0__nand4_1
*I *1534:A3 I *D gf180mcu_fd_sc_mcu7t5v0__nand4_1
*I *1554:A3 I *D gf180mcu_fd_sc_mcu7t5v0__nand4_1
*I *1449:ZN O *D gf180mcu_fd_sc_mcu7t5v0__nor3_1
*CAP
1 *1539:A2 8.14982e-05
2 *1534:A3 2.4064e-05
3 *1554:A3 0.000628919
4 *1449:ZN 0.000160411
5 *295:12 0.000928542
6 *295:6 0.000517468
7 *1534:A3 *309:35 0.000113027
8 *1534:A3 *370:23 3.22108e-05
9 *1539:A2 *1471:A2 0.000185538
10 *1539:A2 *1539:A4 0.000107043
11 *1539:A2 *1540:A3 2.36792e-05
12 *1539:A2 *563:107 0.000419193
13 *1554:A3 *1555:A2 0.00040541
14 *1554:A3 *1556:A4 0.000386097
15 *1554:A3 *1560:A1 0
16 *1554:A3 *1571:C 3.47865e-05
17 *1554:A3 *1572:A2 3.60627e-05
18 *1554:A3 *300:21 0.000137147
19 *1554:A3 *317:51 5.47228e-05
20 *1554:A3 *403:26 0.000122244
21 *295:6 *1590:A2 0.000178873
22 *295:6 *483:63 0.000172541
23 *295:12 *1537:A2 0.000271764
24 *295:12 *1537:A3 0.000103788
25 *295:12 *1537:A4 0.000103788
26 *295:12 *1590:A2 0.000102761
27 *295:12 *300:21 0.000149969
28 *295:12 *317:51 8.81754e-05
29 *295:12 *483:63 0.000115572
30 *1556:A2 *1539:A2 4.04633e-05
*RES
1 *1449:ZN *295:6 6.06 
2 *295:6 *295:12 7.62 
3 *295:12 *1554:A3 14.2 
4 *295:12 *1534:A3 9.312 
5 *295:6 *1539:A2 15.06 
*END

*D_NET *296 0.000840915
*CONN
*I *1529:A2 I *D gf180mcu_fd_sc_mcu7t5v0__oai21_1
*I *1450:ZN O *D gf180mcu_fd_sc_mcu7t5v0__nand4_1
*CAP
1 *1529:A2 0.000217822
2 *1450:ZN 0.000217822
3 *1529:A2 *1590:A2 0.000218218
4 *1529:A2 *1597:A1 0.000159682
5 *1529:A2 *483:57 2.73715e-05
*RES
1 *1450:ZN *1529:A2 10.768 
*END

*D_NET *297 0.00868638
*CONN
*I *1462:A1 I *D gf180mcu_fd_sc_mcu7t5v0__nand3_1
*I *1548:A4 I *D gf180mcu_fd_sc_mcu7t5v0__nand4_1
*I *1542:A3 I *D gf180mcu_fd_sc_mcu7t5v0__nand4_1
*I *1528:A2 I *D gf180mcu_fd_sc_mcu7t5v0__nand2_1
*I *1451:ZN O *D gf180mcu_fd_sc_mcu7t5v0__nand4_1
*CAP
1 *1462:A1 4.44295e-05
2 *1548:A4 0
3 *1542:A3 0
4 *1528:A2 0.000120713
5 *1451:ZN 3.76354e-05
6 *297:22 0.000878637
7 *297:14 0.00127531
8 *297:10 0.000599447
9 *1462:A1 *480:24 0.000366224
10 *1462:A1 *480:32 0.000113027
11 *1528:A2 *1544:A2 0.00012524
12 *1528:A2 *317:6 0.00011246
13 *297:10 *1451:A3 0.000188241
14 *297:10 *1469:A3 1.27019e-05
15 *297:10 *299:22 0.000260006
16 *297:14 *1548:A3 1.99386e-05
17 *297:14 *1560:A1 0.00059438
18 *297:14 *1564:A1 1.63544e-05
19 *297:14 *1572:A2 0.000113027
20 *297:14 *300:42 0.00012079
21 *297:14 *375:8 4.41442e-05
22 *297:14 *388:12 0.000256887
23 *297:14 *480:32 0.000166817
24 *297:22 *1560:A1 7.48703e-05
25 *297:22 *1564:A1 0.000170876
26 *297:22 *1567:A2 0.000130671
27 *297:22 *304:25 0.000497772
28 *297:22 *356:29 8.45035e-05
29 *297:22 *486:35 0.00020333
30 *297:22 *486:46 0.000102675
31 *1528:A1 *297:22 7.13101e-05
32 *123:12 *1462:A1 0.00044772
33 *123:12 *297:14 0.00045324
34 *139:40 *297:22 0.000194511
35 *139:51 *297:22 0.000315167
36 *139:68 *297:22 0.000473327
37 *292:16 *297:22 0
*RES
1 *1451:ZN *297:10 14.228 
2 *297:10 *297:14 6.24 
3 *297:14 *297:22 17.944 
4 *297:22 *1528:A2 5.748 
5 *297:22 *1542:A3 4.5 
6 *297:14 *1548:A4 4.5 
7 *297:10 *1462:A1 5.852 
*END

*D_NET *298 0.00275128
*CONN
*I *1474:A1 I *D gf180mcu_fd_sc_mcu7t5v0__aoi21_1
*I *1556:A3 I *D gf180mcu_fd_sc_mcu7t5v0__nand4_1
*I *1452:ZN O *D gf180mcu_fd_sc_mcu7t5v0__nor2_1
*CAP
1 *1474:A1 0
2 *1556:A3 0.000138089
3 *1452:ZN 0.000349933
4 *298:18 0.000488023
5 *1556:A3 *1556:A4 0.000208806
6 *1556:A3 *311:12 0.000355286
7 *1556:A3 *375:18 0
8 *298:18 *1550:A1 1.51054e-05
9 *298:18 *1550:A2 0.000237629
10 *298:18 *1559:A1 0.000103143
11 *298:18 *1559:A2 0.000129218
12 *298:18 *311:12 0.000717889
13 *298:18 *386:20 8.1598e-06
14 *298:18 *486:79 0
15 *1549:A1 *1556:A3 0
*RES
1 *1452:ZN *298:18 10.012 
2 *298:18 *1556:A3 15.06 
3 *298:18 *1474:A1 4.5 
*END

*D_NET *299 0.0225112
*CONN
*I *1481:B I *D gf180mcu_fd_sc_mcu7t5v0__aoi21_1
*I *1460:A1 I *D gf180mcu_fd_sc_mcu7t5v0__nand2_1
*I *1575:A3 I *D gf180mcu_fd_sc_mcu7t5v0__nand4_1
*I *1540:A2 I *D gf180mcu_fd_sc_mcu7t5v0__oai31_1
*I *1539:A1 I *D gf180mcu_fd_sc_mcu7t5v0__nand4_1
*I *1462:A2 I *D gf180mcu_fd_sc_mcu7t5v0__nand3_1
*I *1467:B I *D gf180mcu_fd_sc_mcu7t5v0__aoi21_1
*I *1549:B I *D gf180mcu_fd_sc_mcu7t5v0__aoi21_1
*I *1453:ZN O *D gf180mcu_fd_sc_mcu7t5v0__nand2_1
*CAP
1 *1481:B 0.000149134
2 *1460:A1 0.000642458
3 *1575:A3 0
4 *1540:A2 0
5 *1539:A1 0.000112274
6 *1462:A2 0.000259411
7 *1467:B 0
8 *1549:B 0.000653389
9 *1453:ZN 0
10 *299:104 0.00117809
11 *299:95 0.000661417
12 *299:67 0.000316199
13 *299:43 0.000298402
14 *299:22 0.00132607
15 *299:16 0.00122986
16 *299:4 0.000667163
17 *1460:A1 *1480:A2 0.000260006
18 *1460:A1 *1507:A3 3.51644e-05
19 *1460:A1 *1587:A1 0
20 *1460:A1 *1587:A3 5.6515e-05
21 *1460:A1 *1588:A3 0
22 *1460:A1 *359:72 0.00083088
23 *1460:A1 *359:74 0.000253847
24 *1460:A1 *422:45 0.000427061
25 *1460:A1 *487:26 0.000232863
26 *1460:A1 *492:282 0.000265804
27 *1462:A2 *1560:A1 0.000113016
28 *1462:A2 *403:26 0
29 *1539:A1 *1471:A2 0.000113765
30 *1539:A1 *1535:B 4.18157e-05
31 *1539:A1 *1540:A3 1.06825e-05
32 *1539:A1 *1540:B 0.000427061
33 *1539:A1 *1541:S 0.000144901
34 *1539:A1 *302:8 0.000182219
35 *1539:A1 *304:12 0.000122244
36 *1549:B *1469:B1 0.000179043
37 *1549:B *1469:B2 3.80299e-05
38 *1549:B *1556:A4 6.97265e-05
39 *1549:B *1560:A1 2.67548e-05
40 *1549:B *375:18 5.36894e-05
41 *1549:B *403:26 1.58141e-05
42 *1549:B *480:32 0.000302775
43 *1549:B *487:83 4.84704e-05
44 *299:16 *1449:A2 2.50554e-05
45 *299:16 *1449:A3 1.23478e-05
46 *299:16 *1529:B 0.000103788
47 *299:16 *1537:A1 0.000546043
48 *299:16 *1590:A2 7.92296e-05
49 *299:16 *304:12 7.14197e-05
50 *299:16 *309:48 0.000476175
51 *299:16 *489:37 0.000149818
52 *299:16 *489:50 2.92312e-05
53 *299:16 *489:56 0.000332316
54 *299:22 *1449:A3 0.000124397
55 *299:22 *1451:A3 0.000113418
56 *299:22 *1469:A3 5.36524e-05
57 *299:22 *1540:A3 0.000526869
58 *299:22 *1560:A1 6.23568e-05
59 *299:22 *300:42 0.000179413
60 *299:22 *375:18 1.57138e-05
61 *299:22 *480:32 0.000438247
62 *299:43 *1560:A1 3.511e-05
63 *299:67 *1540:A3 0.000181604
64 *299:67 *1540:B 1.99013e-05
65 *299:67 *302:8 0.000277832
66 *299:95 *309:48 0.000630282
67 *299:104 *309:48 0.000135534
68 *299:104 *489:8 5.75753e-05
69 *1449:A1 *299:22 0.00048891
70 *1449:A1 *299:67 0.000559042
71 *1467:A1 *299:43 6.57403e-05
72 *1471:A1 *1539:A1 8.69048e-05
73 *1471:A1 *299:67 0.000237084
74 *1506:B *1481:B 0.00012632
75 *1506:B *299:104 0.000221911
76 *1549:A1 *1549:B 0.00042704
77 *1556:A2 *1549:B 0.00017298
78 *1556:A2 *299:16 0.00129928
79 *1556:A2 *299:95 0.000393338
80 *1575:A2 *299:95 6.18411e-06
81 *123:12 *1462:A2 9.21299e-05
82 *124:10 *1481:B 8.32398e-05
83 *124:10 *299:104 0.000488457
84 *124:14 *1460:A1 0.000133448
85 *139:80 *299:95 0.000223464
86 *139:80 *299:104 0.000722386
87 *297:10 *299:22 0.000260006
*RES
1 *1453:ZN *299:4 4.5 
2 *299:4 *299:16 19.428 
3 *299:16 *299:22 7.384 
4 *299:22 *1549:B 22.888 
5 *299:22 *299:43 5.02 
6 *299:43 *1467:B 4.5 
7 *299:43 *1462:A2 6.476 
8 *299:16 *299:67 7.308 
9 *299:67 *1539:A1 15.684 
10 *299:67 *1540:A2 4.5 
11 *299:4 *299:95 3.952 
12 *299:95 *1575:A3 4.5 
13 *299:95 *299:104 4.992 
14 *299:104 *1460:A1 20.676 
15 *299:104 *1481:B 5.644 
*END

*D_NET *300 0.0229724
*CONN
*I *1535:A1 I *D gf180mcu_fd_sc_mcu7t5v0__aoi21_1
*I *1575:A4 I *D gf180mcu_fd_sc_mcu7t5v0__nand4_1
*I *1459:A2 I *D gf180mcu_fd_sc_mcu7t5v0__nand4_1
*I *1582:A4 I *D gf180mcu_fd_sc_mcu7t5v0__nor4_1
*I *1538:A2 I *D gf180mcu_fd_sc_mcu7t5v0__nand4_1
*I *1556:A4 I *D gf180mcu_fd_sc_mcu7t5v0__nand4_1
*I *1546:A2 I *D gf180mcu_fd_sc_mcu7t5v0__nand4_1
*I *1454:ZN O *D gf180mcu_fd_sc_mcu7t5v0__nor2_1
*CAP
1 *1535:A1 0
2 *1575:A4 0.000389439
3 *1459:A2 0
4 *1582:A4 0.000461248
5 *1538:A2 0
6 *1556:A4 0.000521539
7 *1546:A2 0.00023429
8 *1454:ZN 0.000798145
9 *300:70 0.000479442
10 *300:59 0.00113924
11 *300:42 0.000920452
12 *300:21 0.00131691
13 *300:19 0.000715669
14 *300:6 0.00128519
15 *1546:A2 *1547:A2 2.36218e-05
16 *1546:A2 *1567:A1 0.000414267
17 *1546:A2 *484:91 0.000167428
18 *1546:A2 *561:29 1.12327e-05
19 *1556:A4 *1554:A4 0.000170146
20 *1556:A4 *1556:A1 0.000381257
21 *1556:A4 *1572:A2 0
22 *1556:A4 *311:12 2.76367e-05
23 *1556:A4 *487:62 8.60793e-05
24 *1575:A4 *1590:A1 0.000425763
25 *1575:A4 *488:94 0.000121411
26 *1575:A4 *490:25 0.000155298
27 *1582:A4 *1460:A2 7.20938e-05
28 *1582:A4 *1586:A2 0.000107272
29 *1582:A4 *1594:A1 1.21147e-05
30 *1582:A4 *305:8 0.000133369
31 *1582:A4 *490:14 0.000688959
32 *1582:A4 *490:25 0.000250112
33 *1582:A4 *563:34 4.46963e-06
34 *300:6 *1454:A2 1.71326e-05
35 *300:6 *1517:A1 0.000829711
36 *300:6 *1518:B 0
37 *300:6 *1567:A1 0.00036342
38 *300:6 *356:113 0.000176981
39 *300:6 *359:40 0
40 *300:6 *484:91 5.3062e-05
41 *300:19 *1537:A4 0.000271764
42 *300:19 *359:33 0.000454126
43 *300:19 *372:12 1.26243e-05
44 *300:21 *1537:A2 0.000495887
45 *300:21 *1537:A4 0.00102578
46 *300:21 *1555:A1 0.000258582
47 *300:21 *1555:A2 0.00040541
48 *300:21 *372:12 8.25729e-05
49 *300:21 *487:62 7.81001e-06
50 *300:21 *487:103 2.19671e-06
51 *300:21 *563:96 0.000161548
52 *300:21 *563:107 7.22287e-05
53 *300:42 *1532:A1 0.00064369
54 *300:42 *1540:A3 6.17392e-05
55 *300:42 *1548:A3 0.000163869
56 *300:42 *375:8 0.000177248
57 *300:42 *487:52 0.000212461
58 *300:42 *487:54 0.000399022
59 *300:42 *490:133 9.53277e-05
60 *300:59 *1459:A4 3.4596e-05
61 *300:59 *480:16 0.000756821
62 *300:59 *480:18 0.000180091
63 *300:59 *480:24 0.000378611
64 *300:59 *487:52 0.000263725
65 *300:59 *490:133 3.10787e-05
66 *300:70 *1590:A1 8.29207e-05
67 *300:70 *305:8 6.17392e-05
68 *300:70 *490:25 0.000391189
69 *1455:A1 *1582:A4 4.19992e-06
70 *1538:A3 *300:59 0.000274511
71 *1549:A1 *1556:A4 6.64018e-06
72 *1549:B *1556:A4 6.97265e-05
73 *1554:A3 *1556:A4 0.000386097
74 *1554:A3 *300:21 0.000137147
75 *1556:A3 *1556:A4 0.000208806
76 *123:12 *1556:A4 2.69701e-06
77 *123:34 *1575:A4 0.00016483
78 *123:45 *1575:A4 2.13536e-05
79 *124:37 *300:59 0.000719033
80 *124:41 *300:59 0.000388107
81 *295:12 *300:21 0.000149969
82 *297:14 *300:42 0.00012079
83 *299:22 *300:42 0.000179413
*RES
1 *1454:ZN *300:6 12.924 
2 *300:6 *1546:A2 7.62 
3 *300:6 *300:19 6.476 
4 *300:19 *300:21 6.344 
5 *300:21 *1556:A4 14.096 
6 *300:21 *300:42 17.972 
7 *300:42 *1538:A2 4.5 
8 *300:42 *300:59 12.092 
9 *300:59 *1582:A4 12.64 
10 *300:59 *300:70 1.144 
11 *300:70 *1459:A2 9 
12 *300:70 *1575:A4 13.264 
13 *300:19 *1535:A1 9 
*END

*D_NET *301 0.0119547
*CONN
*I *1574:B I *D gf180mcu_fd_sc_mcu7t5v0__aoi211_1
*I *1458:A2 I *D gf180mcu_fd_sc_mcu7t5v0__nor4_1
*I *1553:A1 I *D gf180mcu_fd_sc_mcu7t5v0__oai221_1
*I *1536:A1 I *D gf180mcu_fd_sc_mcu7t5v0__oai22_1
*I *1455:ZN O *D gf180mcu_fd_sc_mcu7t5v0__nand2_1
*CAP
1 *1574:B 0
2 *1458:A2 0.00150621
3 *1553:A1 0
4 *1536:A1 6.04907e-05
5 *1455:ZN 0.000324983
6 *301:18 9.29948e-05
7 *301:16 0.00158279
8 *301:10 0.000369058
9 *1458:A2 *1461:A3 0.000654124
10 *1458:A2 *1468:A3 5.9854e-05
11 *1458:A2 *1475:A1 0.000604122
12 *1458:A2 *1475:A3 1.39778e-05
13 *1458:A2 *1476:A1 2.12382e-05
14 *1458:A2 *1530:A1 1.07369e-05
15 *1458:A2 *1530:A2 0.000180589
16 *1458:A2 *1535:B 5.10196e-05
17 *1458:A2 *303:39 2.73939e-05
18 *1458:A2 *309:35 0.000740565
19 *1458:A2 *316:98 2.73523e-05
20 *1458:A2 *480:104 1.65067e-05
21 *1458:A2 *483:57 0.00017609
22 *1458:A2 *485:73 0.000515827
23 *1458:A2 *488:43 0.000240402
24 *1458:A2 *490:50 2.13255e-05
25 *1458:A2 *563:86 1.67997e-06
26 *1536:A1 *1536:A2 0.000674689
27 *1536:A1 *1552:A3 2.45971e-05
28 *301:10 *1469:A1 2.42026e-05
29 *301:10 *1577:A1 0.000125105
30 *301:10 *303:31 0.000151158
31 *301:10 *490:77 0.000190103
32 *301:10 *490:79 0.000394645
33 *301:16 *1474:A2 0.000486125
34 *301:16 *563:44 0.000489273
35 *301:18 *1536:A2 0.000161428
36 *301:18 *1553:A2 3.05273e-05
37 *301:18 *303:39 2.05257e-05
38 *1470:A1 *301:10 5.34984e-06
39 *1529:A1 *1458:A2 0.000166888
40 *1536:B2 *1458:A2 0.000135779
41 *1536:B2 *1536:A1 0.000352347
42 *1536:B2 *301:18 0.000225638
43 *1553:B2 *1458:A2 0.000271774
44 *1556:A2 *1458:A2 0
45 *1582:A3 *301:10 3.4596e-05
46 *123:47 *1458:A2 0.000560747
47 *135:8 *1458:A2 0.000129834
*RES
1 *1455:ZN *301:10 11.704 
2 *301:10 *301:16 10.352 
3 *301:16 *301:18 0.728 
4 *301:18 *1536:A1 10.768 
5 *301:18 *1553:A1 9 
6 *301:16 *1458:A2 23.248 
7 *301:10 *1574:B 9 
*END

*D_NET *302 0.00375169
*CONN
*I *1546:A3 I *D gf180mcu_fd_sc_mcu7t5v0__nand4_1
*I *1535:A2 I *D gf180mcu_fd_sc_mcu7t5v0__aoi21_1
*I *1456:ZN O *D gf180mcu_fd_sc_mcu7t5v0__nor3_1
*CAP
1 *1546:A3 0.0001496
2 *1535:A2 0
3 *1456:ZN 0.0002006
4 *302:8 0.000350201
5 *1546:A3 *1567:A1 0.00110147
6 *1546:A3 *359:16 0.000377814
7 *302:8 *1567:A1 0.000861244
8 *302:8 *359:16 0.000182208
9 *1471:A1 *302:8 5.77668e-05
10 *1539:A1 *302:8 0.000182219
11 *123:49 *302:8 1.07369e-05
12 *299:67 *302:8 0.000277832
*RES
1 *1456:ZN *302:8 7.412 
2 *302:8 *1535:A2 4.5 
3 *302:8 *1546:A3 7.62 
*END

*D_NET *303 0.00651476
*CONN
*I *1574:C I *D gf180mcu_fd_sc_mcu7t5v0__aoi211_1
*I *1553:A2 I *D gf180mcu_fd_sc_mcu7t5v0__oai221_1
*I *1536:A2 I *D gf180mcu_fd_sc_mcu7t5v0__oai22_1
*I *1469:A1 I *D gf180mcu_fd_sc_mcu7t5v0__oai32_1
*I *1457:ZN O *D gf180mcu_fd_sc_mcu7t5v0__nand3_1
*CAP
1 *1574:C 0
2 *1553:A2 6.24228e-05
3 *1536:A2 0.000115887
4 *1469:A1 0.000805708
5 *1457:ZN 0
6 *303:39 0.000419951
7 *303:31 0.000603131
8 *303:4 0.0011672
9 *1469:A1 *1457:A2 0.000114669
10 *1469:A1 *1462:A3 0
11 *1469:A1 *1469:A3 2.16732e-05
12 *1469:A1 *1469:B2 7.87395e-06
13 *1469:A1 *1475:A2 0.000551703
14 *1469:A1 *1475:A3 3.22033e-05
15 *1469:A1 *1531:A1 3.27312e-05
16 *1469:A1 *1531:A2 3.26939e-05
17 *1469:A1 *1553:B1 6.52292e-06
18 *1469:A1 *386:20 9.7683e-06
19 *1469:A1 *403:26 0.00017137
20 *1469:A1 *490:75 0.000215853
21 *1536:A2 *1552:A3 0
22 *1536:A2 *485:62 0.000248498
23 *1553:A2 *1553:C 1.07369e-05
24 *1553:A2 *486:94 8.44565e-06
25 *303:31 *486:109 3.38269e-05
26 *303:31 *490:75 1.09921e-05
27 *303:31 *490:77 3.07228e-05
28 *303:31 *563:44 0
29 *303:39 *1574:A1 1.40331e-05
30 *303:39 *485:73 5.64378e-05
31 *303:39 *486:94 1.76702e-05
32 *303:39 *486:109 6.18411e-06
33 *1458:A2 *303:39 2.73939e-05
34 *1470:A1 *303:31 1.90528e-05
35 *1536:A1 *1536:A2 0.000674689
36 *1582:A3 *303:31 7.7502e-05
37 *134:12 *1553:A2 9.35542e-06
38 *134:12 *303:31 0.000202306
39 *134:12 *303:39 0.000307715
40 *301:10 *1469:A1 2.42026e-05
41 *301:10 *303:31 0.000151158
42 *301:18 *1536:A2 0.000161428
43 *301:18 *1553:A2 3.05273e-05
44 *301:18 *303:39 2.05257e-05
*RES
1 *1457:ZN *303:4 4.5 
2 *303:4 *1469:A1 11.052 
3 *303:4 *303:31 11.912 
4 *303:31 *303:39 6.372 
5 *303:39 *1536:A2 11.496 
6 *303:39 *1553:A2 9.52 
7 *303:31 *1574:C 4.5 
*END

*D_NET *304 0.00827106
*CONN
*I *1543:I0 I *D gf180mcu_fd_sc_mcu7t5v0__mux2_2
*I *1544:A1 I *D gf180mcu_fd_sc_mcu7t5v0__aoi21_1
*I *1567:A2 I *D gf180mcu_fd_sc_mcu7t5v0__aoi21_1
*I *1458:ZN O *D gf180mcu_fd_sc_mcu7t5v0__nor4_1
*CAP
1 *1543:I0 0.000143296
2 *1544:A1 7.39226e-05
3 *1567:A2 3.02666e-05
4 *1458:ZN 0.000738597
5 *304:25 0.000473497
6 *304:12 0.00102514
7 *1543:I0 *1543:S 0.000582349
8 *1544:A1 *1544:B 0.000159505
9 *1544:A1 *1545:A4 0.000122244
10 *1544:A1 *1547:A2 0.000108108
11 *1567:A2 *356:29 0.000300191
12 *304:12 *1471:A2 0.000247792
13 *304:12 *1535:B 0.00079576
14 *304:12 *1537:A1 0.000164354
15 *304:12 *1541:S 0.000326725
16 *304:12 *1567:A1 0.00017298
17 *304:12 *1590:A2 6.96463e-05
18 *304:12 *317:6 5.666e-05
19 *304:12 *317:51 0.000826743
20 *304:12 *489:56 0.000419276
21 *304:25 *1543:S 0.000271764
22 *304:25 *1544:A2 4.9065e-05
23 *304:25 *1567:A1 7.15853e-05
24 *304:25 *356:29 0.000118929
25 *304:25 *356:42 0.000100557
26 *1539:A1 *304:12 0.000122244
27 *297:22 *1567:A2 0.000130671
28 *297:22 *304:25 0.000497772
29 *299:16 *304:12 7.14197e-05
*RES
1 *1458:ZN *304:12 17.84 
2 *304:12 *1567:A2 9.936 
3 *304:12 *304:25 3.328 
4 *304:25 *1544:A1 10.144 
5 *304:25 *1543:I0 10.56 
*END

*D_NET *305 0.00856172
*CONN
*I *1590:A1 I *D gf180mcu_fd_sc_mcu7t5v0__oai221_1
*I *1462:A3 I *D gf180mcu_fd_sc_mcu7t5v0__nand3_1
*I *1460:A2 I *D gf180mcu_fd_sc_mcu7t5v0__nand2_1
*I *1459:ZN O *D gf180mcu_fd_sc_mcu7t5v0__nand4_1
*CAP
1 *1590:A1 0.000320734
2 *1462:A3 0.000938973
3 *1460:A2 0.000573699
4 *1459:ZN 0
5 *305:8 0.00170678
6 *305:6 0.000514846
7 *1460:A2 *1583:A3 3.98599e-05
8 *1460:A2 *1586:A2 0.000118399
9 *1460:A2 *1589:A2 0.00109245
10 *1460:A2 *1594:A1 3.76146e-05
11 *1460:A2 *480:14 1.01129e-06
12 *1460:A2 *563:34 0
13 *1462:A3 *1457:A2 0
14 *1462:A3 *1475:A1 0.000479251
15 *1462:A3 *1531:A1 1.84386e-05
16 *1462:A3 *490:8 0
17 *1462:A3 *490:75 2.17229e-05
18 *1590:A1 *1591:B 0.000185295
19 *1590:A1 *1594:A1 3.44395e-05
20 *1590:A1 *488:83 0.000809422
21 *1590:A1 *488:94 0.000373533
22 *1590:A1 *489:25 3.65102e-05
23 *305:8 *1594:A1 0.000125979
24 *1457:A1 *1462:A3 7.65111e-06
25 *1469:A1 *1462:A3 0
26 *1575:A4 *1590:A1 0.000425763
27 *1582:A4 *1460:A2 7.20938e-05
28 *1582:A4 *305:8 0.000133369
29 *1592:B *1460:A2 1.3074e-05
30 *123:6 *1462:A3 0.000101591
31 *123:12 *1462:A3 0.00023456
32 *300:70 *1590:A1 8.29207e-05
33 *300:70 *305:8 6.17392e-05
*RES
1 *1459:ZN *305:6 9 
2 *305:6 *305:8 1.56 
3 *305:8 *1460:A2 14.408 
4 *305:8 *1462:A3 15.344 
5 *305:6 *1590:A1 13.16 
*END

*D_NET *306 0.00276855
*CONN
*I *1507:A3 I *D gf180mcu_fd_sc_mcu7t5v0__nand3_1
*I *1460:ZN O *D gf180mcu_fd_sc_mcu7t5v0__nand2_1
*CAP
1 *1507:A3 0.00113067
2 *1460:ZN 0.00113067
3 *1507:A3 *1510:A2 1.13999e-05
4 *1507:A3 *1585:A1 7.97992e-05
5 *1507:A3 *359:74 4.55996e-05
6 *1507:A3 *487:26 6.72568e-05
7 *1460:A1 *1507:A3 3.51644e-05
8 *292:33 *1507:A3 0.000267989
*RES
1 *1460:ZN *1507:A3 32.72 
*END

*D_NET *307 0.00504494
*CONN
*I *1555:A1 I *D gf180mcu_fd_sc_mcu7t5v0__nand3_1
*I *1571:B I *D gf180mcu_fd_sc_mcu7t5v0__oai211_1
*I *1461:ZN O *D gf180mcu_fd_sc_mcu7t5v0__nand4_1
*CAP
1 *1555:A1 6.7862e-05
2 *1571:B 0.000210884
3 *1461:ZN 0.000492442
4 *307:12 0.000771188
5 *1555:A1 *487:62 2.64279e-05
6 *1555:A1 *487:103 5.31855e-06
7 *1571:B *1548:A3 0.000569419
8 *1571:B *1555:A3 0.000337417
9 *1571:B *1564:A1 5.47431e-06
10 *1571:B *356:72 4.22457e-05
11 *1571:B *422:45 6.40402e-05
12 *307:12 *1548:A3 0.000118867
13 *307:12 *422:45 4.89977e-05
14 *307:12 *487:52 0.000150265
15 *307:12 *487:54 0.000685026
16 *307:12 *490:38 1.71326e-05
17 *307:12 *563:86 0.000138384
18 *307:12 *563:90 0.00067106
19 *307:12 *563:96 0.000114849
20 *1538:A3 *307:12 0.000249055
21 *300:21 *1555:A1 0.000258582
*RES
1 *1461:ZN *307:12 10.324 
2 *307:12 *1571:B 7.516 
3 *307:12 *1555:A1 14.228 
*END

*D_NET *308 0.00192788
*CONN
*I *1475:A1 I *D gf180mcu_fd_sc_mcu7t5v0__nand3_1
*I *1462:ZN O *D gf180mcu_fd_sc_mcu7t5v0__nand3_1
*CAP
1 *1475:A1 0.000294553
2 *1462:ZN 0.000294553
3 *1475:A1 *403:26 2.96056e-06
4 *1475:A1 *490:50 8.10302e-05
5 *1458:A2 *1475:A1 0.000604122
6 *1462:A3 *1475:A1 0.000479251
7 *123:12 *1475:A1 0.000171408
*RES
1 *1462:ZN *1475:A1 21.12 
*END

*D_NET *309 0.0159012
*CONN
*I *1599:A2 I *D gf180mcu_fd_sc_mcu7t5v0__nand4_1
*I *1597:A2 I *D gf180mcu_fd_sc_mcu7t5v0__nand4_1
*I *1529:B I *D gf180mcu_fd_sc_mcu7t5v0__oai21_1
*I *1548:A1 I *D gf180mcu_fd_sc_mcu7t5v0__nand4_1
*I *1463:ZN O *D gf180mcu_fd_sc_mcu7t5v0__nor2_1
*CAP
1 *1599:A2 0
2 *1597:A2 4.68381e-05
3 *1529:B 1.75012e-05
4 *1548:A1 6.40979e-05
5 *1463:ZN 8.45636e-05
6 *309:48 0.000813595
7 *309:35 0.00170763
8 *309:8 0.00107203
9 *1529:B *489:37 0.000103788
10 *1548:A1 *1571:A2 6.17392e-05
11 *1548:A1 *356:72 0.000184043
12 *1548:A1 *372:20 0.000179413
13 *1548:A1 *422:45 0.000176038
14 *1597:A2 *1508:A2 0.00073657
15 *309:8 *1747:I 4.07489e-05
16 *309:8 *422:45 0.000636062
17 *309:8 *472:26 0.000419276
18 *309:35 *1448:A1 0.000122244
19 *309:35 *1534:A2 0.000178541
20 *309:35 *1571:A2 4.28898e-05
21 *309:35 *1597:A1 0.00114333
22 *309:35 *1747:I 0.000247762
23 *309:35 *356:113 1.73703e-05
24 *309:35 *370:10 8.38169e-05
25 *309:35 *370:23 0.000110023
26 *309:35 *372:20 0.000319414
27 *309:35 *422:45 0.000218934
28 *309:35 *483:57 0.000179413
29 *309:35 *488:43 0.000238002
30 *309:35 *488:47 0.000112472
31 *309:48 *1453:A2 6.32781e-05
32 *309:48 *1480:A2 3.42651e-05
33 *309:48 *1508:A2 0.000273627
34 *309:48 *1591:A1 0.000111407
35 *309:48 *489:8 0.000582267
36 *309:48 *489:25 0.00170548
37 *309:48 *489:37 0.000311562
38 *1458:A2 *309:35 0.000740565
39 *1529:A1 *309:35 0.000259996
40 *1534:A3 *309:35 0.000113027
41 *124:10 *309:48 5.33151e-05
42 *124:14 *1597:A2 0.000717769
43 *124:14 *309:48 0.000230694
44 *299:16 *1529:B 0.000103788
45 *299:16 *309:48 0.000476175
46 *299:95 *309:48 0.000630282
47 *299:104 *309:48 0.000135534
*RES
1 *1463:ZN *309:8 10.768 
2 *309:8 *1548:A1 10.04 
3 *309:8 *309:35 25.252 
4 *309:35 *1529:B 4.812 
5 *309:35 *309:48 14.9 
6 *309:48 *1597:A2 10.976 
7 *309:48 *1599:A2 9 
*END

*D_NET *310 0.00102947
*CONN
*I *1465:A1 I *D gf180mcu_fd_sc_mcu7t5v0__nor2_1
*I *1464:ZN O *D gf180mcu_fd_sc_mcu7t5v0__nand2_1
*CAP
1 *1465:A1 3.06244e-05
2 *1464:ZN 3.06244e-05
3 *1465:A1 *486:25 0.000507644
4 *138:71 *1465:A1 3.35294e-05
5 *139:19 *1465:A1 0.000427051
*RES
1 *1464:ZN *1465:A1 19.352 
*END

*D_NET *311 0.00627266
*CONN
*I *1554:A4 I *D gf180mcu_fd_sc_mcu7t5v0__nand4_1
*I *1469:B2 I *D gf180mcu_fd_sc_mcu7t5v0__oai32_1
*I *1465:ZN O *D gf180mcu_fd_sc_mcu7t5v0__nor2_1
*CAP
1 *1554:A4 0.000203055
2 *1469:B2 0.000331577
3 *1465:ZN 0.000508104
4 *311:12 0.00104274
5 *1469:B2 *1475:A2 0
6 *1469:B2 *1531:A2 0
7 *1469:B2 *1556:A1 1.26446e-05
8 *1469:B2 *386:20 0.000596769
9 *1469:B2 *403:26 0
10 *1554:A4 *403:26 0.00010924
11 *311:12 *1558:A1 0.000227525
12 *311:12 *1559:A1 3.98614e-06
13 *311:12 *1561:A1 1.70427e-05
14 *311:12 *386:20 0.00100768
15 *1469:A1 *1469:B2 7.87395e-06
16 *1549:B *1469:B2 3.80299e-05
17 *1556:A2 *1469:B2 0.000485392
18 *1556:A3 *311:12 0.000355286
19 *1556:A4 *1554:A4 0.000170146
20 *1556:A4 *311:12 2.76367e-05
21 *139:30 *311:12 0.000410048
22 *298:18 *311:12 0.000717889
*RES
1 *1465:ZN *311:12 15.968 
2 *311:12 *1469:B2 12.848 
3 *311:12 *1554:A4 10.664 
*END

*D_NET *312 0.00357066
*CONN
*I *1480:B I *D gf180mcu_fd_sc_mcu7t5v0__aoi21_1
*I *1468:A1 I *D gf180mcu_fd_sc_mcu7t5v0__nand3_1
*I *1466:ZN O *D gf180mcu_fd_sc_mcu7t5v0__nand2_1
*CAP
1 *1480:B 0.000486379
2 *1468:A1 0.000424562
3 *1466:ZN 0
4 *312:4 0.000910941
5 *1468:A1 *1468:A2 6.32781e-05
6 *1468:A1 *1468:A3 7.87395e-06
7 *1468:A1 *1567:A1 3.99399e-06
8 *1468:A1 *480:113 8.1598e-06
9 *1480:B *1480:A1 4.07478e-05
10 *1480:B *1481:A2 2.73715e-06
11 *1480:B *1567:A1 0.000129426
12 *1480:B *1576:B 5.75541e-05
13 *1480:B *351:10 0.000674568
14 *1466:A1 *1468:A1 8.02494e-05
15 *1466:A1 *1480:B 1.71326e-05
16 *1506:B *1480:B 0.000110947
17 *1556:A2 *1468:A1 1.43541e-05
18 *1575:A2 *1468:A1 0.000274125
19 *1576:A1 *1468:A1 0
20 *1576:A1 *1480:B 6.32781e-05
21 *123:47 *1468:A1 0.000160641
22 *139:80 *1468:A1 3.14958e-05
23 *139:80 *1480:B 8.21146e-06
*RES
1 *1466:ZN *312:4 4.5 
2 *312:4 *1468:A1 8.66 
3 *312:4 *1480:B 10.012 
*END

*D_NET *313 0.00133403
*CONN
*I *1469:B1 I *D gf180mcu_fd_sc_mcu7t5v0__oai32_1
*I *1467:ZN O *D gf180mcu_fd_sc_mcu7t5v0__aoi21_1
*CAP
1 *1469:B1 0.000196073
2 *1467:ZN 0.000196073
3 *1469:B1 *1560:A1 0.000736514
4 *1469:B1 *375:18 2.63271e-05
5 *1549:B *1469:B1 0.000179043
*RES
1 *1467:ZN *1469:B1 20.184 
*END

*D_NET *314 0.000304231
*CONN
*I *1530:A1 I *D gf180mcu_fd_sc_mcu7t5v0__nand2_1
*I *1468:ZN O *D gf180mcu_fd_sc_mcu7t5v0__nand3_1
*CAP
1 *1530:A1 0.000120554
2 *1468:ZN 0.000120554
3 *1530:A1 *1468:A3 1.78817e-06
4 *1458:A2 *1530:A1 1.07369e-05
5 *1556:A2 *1530:A1 6.09406e-06
6 *123:47 *1530:A1 4.45041e-05
*RES
1 *1468:ZN *1530:A1 9.728 
*END

*D_NET *315 0.00212405
*CONN
*I *1475:A2 I *D gf180mcu_fd_sc_mcu7t5v0__nand3_1
*I *1469:ZN O *D gf180mcu_fd_sc_mcu7t5v0__oai32_1
*CAP
1 *1475:A2 0.000522294
2 *1469:ZN 0.000522294
3 *1475:A2 *1475:A3 0.000269917
4 *1475:A2 *1553:B1 6.32895e-05
5 *1475:A2 *1553:C 3.98614e-06
6 *1475:A2 *386:20 6.83186e-05
7 *1469:A1 *1475:A2 0.000551703
8 *1469:B2 *1475:A2 0
9 *1553:B2 *1475:A2 0.000122244
*RES
1 *1469:ZN *1475:A2 13.472 
*END

*D_NET *316 0.0355174
*CONN
*I *1599:A3 I *D gf180mcu_fd_sc_mcu7t5v0__nand4_1
*I *1591:A1 I *D gf180mcu_fd_sc_mcu7t5v0__oai21_1
*I *1590:B1 I *D gf180mcu_fd_sc_mcu7t5v0__oai221_1
*I *1523:A2 I *D gf180mcu_fd_sc_mcu7t5v0__nand4_1
*I *1519:A2 I *D gf180mcu_fd_sc_mcu7t5v0__nand4_1
*I *1517:A2 I *D gf180mcu_fd_sc_mcu7t5v0__nand4_1
*I *1535:B I *D gf180mcu_fd_sc_mcu7t5v0__aoi21_1
*I *1597:A3 I *D gf180mcu_fd_sc_mcu7t5v0__nand4_1
*I *1577:B1 I *D gf180mcu_fd_sc_mcu7t5v0__aoi22_1
*I *1474:A2 I *D gf180mcu_fd_sc_mcu7t5v0__aoi21_1
*I *1470:ZN O *D gf180mcu_fd_sc_mcu7t5v0__nor2_1
*CAP
1 *1599:A3 0
2 *1591:A1 0.000563254
3 *1590:B1 0
4 *1523:A2 0.00016573
5 *1519:A2 0
6 *1517:A2 0
7 *1535:B 0.000847862
8 *1597:A3 2.30434e-05
9 *1577:B1 9.87056e-05
10 *1474:A2 0.00130415
11 *1470:ZN 2.69793e-05
12 *316:142 0.000744421
13 *316:115 0.000955484
14 *316:98 0.0011058
15 *316:71 0.00170876
16 *316:61 0.000982057
17 *316:46 0.000460249
18 *316:44 0.00090118
19 *316:31 0.00152626
20 *316:10 0.00203867
21 *1474:A2 *563:44 0.000284978
22 *1474:A2 *563:48 0.000108635
23 *1523:A2 *1519:A1 3.4596e-05
24 *1523:A2 *1523:A3 0.000131361
25 *1535:B *1471:A2 0.000306278
26 *1535:B *1530:A2 0.000127454
27 *1535:B *356:113 2.76367e-05
28 *1535:B *489:56 3.3698e-05
29 *1577:B1 *1577:A1 0.000128449
30 *1577:B1 *1580:A2 0.000103788
31 *1591:A1 *1590:C 0.000126399
32 *1591:A1 *1591:B 0
33 *1591:A1 *1594:A1 7.87395e-06
34 *1591:A1 *1597:A1 6.61319e-05
35 *1591:A1 *422:45 4.98352e-05
36 *1591:A1 *489:25 4.84242e-05
37 *1597:A3 *359:72 3.4596e-05
38 *1597:A3 *483:57 2.46717e-05
39 *316:10 *1470:A2 1.8056e-05
40 *316:10 *563:44 2.70107e-05
41 *316:31 *1476:A1 0
42 *316:31 *1577:A1 0.00057933
43 *316:31 *1578:A1 0.000171124
44 *316:31 *1593:A1 0.000366126
45 *316:31 *1593:A2 0.00130846
46 *316:31 *1594:A1 1.23682e-05
47 *316:31 *385:12 2.11493e-05
48 *316:31 *486:109 1.72201e-05
49 *316:31 *563:34 1.07369e-05
50 *316:44 *1508:A2 0.000620979
51 *316:44 *1579:A2 3.55699e-06
52 *316:44 *1580:A2 4.17589e-06
53 *316:44 *1584:A2 9.13171e-05
54 *316:44 *1585:A2 0.00017728
55 *316:44 *359:66 0.000107648
56 *316:44 *359:74 2.02438e-05
57 *316:61 *1587:A3 0.000406972
58 *316:61 *1597:A1 0.00188572
59 *316:61 *1598:B 7.5013e-05
60 *316:61 *359:72 3.45129e-05
61 *316:61 *422:45 0.000442217
62 *316:71 *1468:A2 0.000199976
63 *316:71 *1590:B2 0.000642242
64 *316:71 *1597:A1 0.000949832
65 *316:71 *422:45 5.57504e-05
66 *316:71 *480:104 2.91951e-05
67 *316:71 *486:117 0.000921918
68 *316:98 *356:113 0.000241129
69 *316:98 *480:104 0.0005055
70 *316:115 *1519:A1 0.000106112
71 *316:115 *1523:A3 3.4596e-05
72 *316:115 *1742:I 1.01702e-05
73 *316:115 *356:113 7.29199e-05
74 *316:115 *356:130 0.00118784
75 *316:115 *361:20 0.00111322
76 *316:115 *361:28 0.0002941
77 *316:115 *471:19 0.000121043
78 *316:115 *553:12 6.18411e-06
79 *316:142 *352:8 0
80 *316:142 *359:62 0.000199988
81 *316:142 *359:66 0.000546477
82 *316:142 *422:45 9.35542e-06
83 *1456:A2 *1535:B 0.00039058
84 *1458:A2 *1535:B 5.10196e-05
85 *1458:A2 *316:98 2.73523e-05
86 *1470:A1 *316:10 4.07478e-05
87 *1471:A1 *1535:B 0.00023086
88 *1539:A1 *1535:B 4.18157e-05
89 *1575:A2 *316:71 0.000341698
90 *1577:B2 *1577:B1 0.000523615
91 *1577:B2 *316:31 0.000802642
92 *1578:B *316:31 3.42651e-05
93 *1653:D *316:115 0.000110336
94 *1654:D *1523:A2 0.000142309
95 *1654:D *316:115 4.24763e-05
96 *1668:D *316:44 0.00149703
97 *1668:D *316:142 0.000438819
98 *123:34 *316:71 0.000102089
99 *123:45 *316:71 6.09829e-06
100 *123:47 *1535:B 2.71548e-05
101 *123:49 *1535:B 1.85722e-05
102 *135:8 *1535:B 1.28651e-05
103 *135:8 *316:98 0
104 *135:23 *1535:B 1.95239e-05
105 *139:80 *1535:B 0.000363011
106 *139:80 *316:71 0.000113001
107 *301:16 *1474:A2 0.000486125
108 *304:12 *1535:B 0.00079576
109 *309:48 *1591:A1 0.000111407
*RES
1 *1470:ZN *316:10 13.812 
2 *316:10 *1474:A2 21.508 
3 *316:10 *316:31 17.632 
4 *316:31 *1577:B1 6.164 
5 *316:31 *316:44 11.468 
6 *316:44 *316:46 4.5 
7 *316:46 *1597:A3 4.812 
8 *316:46 *316:61 6.656 
9 *316:61 *316:71 16.384 
10 *316:71 *1535:B 22.132 
11 *316:71 *316:98 7.724 
12 *316:98 *1517:A2 9 
13 *316:98 *316:115 14.692 
14 *316:115 *1519:A2 4.5 
15 *316:115 *1523:A2 6.268 
16 *316:61 *1590:B1 4.5 
17 *316:44 *316:142 6.788 
18 *316:142 *1591:A1 8.868 
19 *316:142 *1599:A3 4.5 
*END

*D_NET *317 0.0116106
*CONN
*I *1542:A2 I *D gf180mcu_fd_sc_mcu7t5v0__nand4_1
*I *1555:A3 I *D gf180mcu_fd_sc_mcu7t5v0__nand3_1
*I *1571:C I *D gf180mcu_fd_sc_mcu7t5v0__oai211_1
*I *1516:A1 I *D gf180mcu_fd_sc_mcu7t5v0__nor4_1
*I *1595:A4 I *D gf180mcu_fd_sc_mcu7t5v0__nor4_1
*I *1563:A1 I *D gf180mcu_fd_sc_mcu7t5v0__aoi211_1
*I *1471:ZN O *D gf180mcu_fd_sc_mcu7t5v0__nand2_1
*CAP
1 *1542:A2 0.000210687
2 *1555:A3 6.46327e-05
3 *1571:C 0.000246671
4 *1516:A1 0
5 *1595:A4 0.000223604
6 *1563:A1 0.000193543
7 *1471:ZN 0
8 *317:51 0.000914538
9 *317:12 0.000629289
10 *317:6 0.00064738
11 *317:4 0.00124916
12 *1542:A2 *1544:A2 0.000113016
13 *1542:A2 *1546:A4 0.000316249
14 *1542:A2 *1567:A1 0.000106014
15 *1542:A2 *359:8 4.07478e-05
16 *1542:A2 *359:16 0.000366224
17 *1555:A3 *422:45 0.00047924
18 *1563:A1 *1570:A1 0.000187586
19 *1563:A1 *463:34 4.17612e-05
20 *1563:A1 *485:20 0.000630589
21 *1571:C *1548:A3 0.000194511
22 *1571:C *1571:A2 1.23748e-05
23 *1571:C *372:20 7.76501e-06
24 *1571:C *388:12 0.000203739
25 *1595:A4 *1516:A3 0.000580586
26 *1595:A4 *1607:A2 0.000388746
27 *317:6 *1516:A2 0.000158287
28 *317:6 *1542:A4 0.000113016
29 *317:6 *1544:A2 1.09841e-05
30 *317:6 *1546:A4 2.79125e-05
31 *317:6 *1567:B 0.000102867
32 *317:6 *1590:A2 0
33 *317:6 *1595:A3 0
34 *317:6 *359:8 1.77964e-05
35 *317:12 *1516:A3 1.60428e-05
36 *317:12 *1570:A1 0
37 *317:51 *1471:A2 0.000582256
38 *317:51 *1537:A2 2.19312e-06
39 *317:51 *1546:A4 1.09486e-05
40 *317:51 *1567:B 0
41 *317:51 *1571:A2 5.31759e-05
42 *317:51 *359:16 0
43 *317:51 *370:10 0.000193651
44 *317:51 *372:12 0.000257822
45 *317:51 *372:20 2.37133e-06
46 *1471:A1 *317:51 7.87395e-06
47 *1516:A4 *1595:A4 0.000226145
48 *1528:A2 *317:6 0.00011246
49 *1554:A3 *1571:C 3.47865e-05
50 *1554:A3 *317:51 5.47228e-05
51 *1571:B *1555:A3 0.000337417
52 *292:16 *1563:A1 3.98026e-05
53 *292:16 *317:6 9.48668e-05
54 *292:16 *317:12 0.00013294
55 *295:12 *317:51 8.81754e-05
56 *304:12 *317:6 5.666e-05
57 *304:12 *317:51 0.000826743
*RES
1 *1471:ZN *317:4 4.5 
2 *317:4 *317:6 3.848 
3 *317:6 *317:12 6.164 
4 *317:12 *1563:A1 11.392 
5 *317:12 *1595:A4 21.016 
6 *317:6 *1516:A1 4.5 
7 *317:4 *317:51 11.884 
8 *317:51 *1571:C 10.664 
9 *317:51 *1555:A3 10.352 
10 *317:4 *1542:A2 15.788 
*END

*D_NET *318 0.00122904
*CONN
*I *1474:B I *D gf180mcu_fd_sc_mcu7t5v0__aoi21_1
*I *1551:B I *D gf180mcu_fd_sc_mcu7t5v0__aoi21_1
*I *1472:ZN O *D gf180mcu_fd_sc_mcu7t5v0__nor2_1
*CAP
1 *1474:B 0.000195668
2 *1551:B 0.000103955
3 *1472:ZN 0
4 *318:4 0.000299623
5 *1474:B *1550:A1 4.18042e-05
6 *1474:B *1550:A2 0.000113016
7 *1474:B *375:18 9.96173e-06
8 *1551:B *485:62 0.000234299
9 *1551:B *486:79 4.07478e-05
10 *1551:B *486:94 0.000189969
*RES
1 *1472:ZN *318:4 4.5 
2 *318:4 *1551:B 6.268 
3 *318:4 *1474:B 14.748 
*END

*D_NET *319 0.000584227
*CONN
*I *1559:A1 I *D gf180mcu_fd_sc_mcu7t5v0__and3_1
*I *1473:ZN O *D gf180mcu_fd_sc_mcu7t5v0__nand2_1
*CAP
1 *1559:A1 0.000188463
2 *1473:ZN 0.000188463
3 *1559:A1 *486:31 1.23682e-05
4 *1559:A1 *486:79 7.9929e-05
5 *139:30 *1559:A1 7.87395e-06
6 *298:18 *1559:A1 0.000103143
7 *311:12 *1559:A1 3.98614e-06
*RES
1 *1473:ZN *1559:A1 10.872 
*END

*D_NET *320 0.00381502
*CONN
*I *1475:A3 I *D gf180mcu_fd_sc_mcu7t5v0__nand3_1
*I *1474:ZN O *D gf180mcu_fd_sc_mcu7t5v0__aoi21_1
*CAP
1 *1475:A3 0.000686183
2 *1474:ZN 0.000686183
3 *1475:A3 *1476:A1 3.58826e-05
4 *1475:A3 *1549:A2 0.000139572
5 *1475:A3 *1550:A2 3.04939e-05
6 *1475:A3 *1551:A2 2.36218e-05
7 *1475:A3 *1552:A1 0.000103788
8 *1475:A3 *1552:A2 7.88434e-06
9 *1475:A3 *1552:B 0.000582343
10 *1475:A3 *1553:C 0.000260037
11 *1475:A3 *1560:A1 7.38538e-05
12 *1475:A3 *382:8 0.000150661
13 *1475:A3 *386:20 0.000425439
14 *1475:A3 *486:94 5.00672e-05
15 *1475:A3 *563:86 0.000187638
16 *1458:A2 *1475:A3 1.39778e-05
17 *1469:A1 *1475:A3 3.22033e-05
18 *1475:A2 *1475:A3 0.000269917
19 *1553:B2 *1475:A3 5.52781e-05
*RES
1 *1474:ZN *1475:A3 26.008 
*END

*D_NET *321 0.00578935
*CONN
*I *1476:A1 I *D gf180mcu_fd_sc_mcu7t5v0__aoi21_1
*I *1475:ZN O *D gf180mcu_fd_sc_mcu7t5v0__nand3_1
*CAP
1 *1476:A1 0.00259246
2 *1475:ZN 0.00259246
3 *1476:A1 *1508:A1 1.91879e-05
4 *1476:A1 *1508:B 1.57479e-05
5 *1476:A1 *1510:A1 0.000171397
6 *1476:A1 *1577:A1 1.79405e-05
7 *1476:A1 *1585:A3 0.000177804
8 *1476:A1 *1670:CLK 0
9 *1476:A1 *487:20 1.23278e-05
10 *1476:A1 *487:26 4.67771e-06
11 *1476:A1 *563:34 5.50873e-05
12 *1476:A1 *563:44 5.20345e-05
13 *1476:A1 *563:86 2.11079e-05
14 *1458:A2 *1476:A1 2.12382e-05
15 *1475:A3 *1476:A1 3.58826e-05
16 *316:31 *1476:A1 0
*RES
1 *1475:ZN *1476:A1 40.104 
*END

*D_NET *322 0.002503
*CONN
*I *1508:B I *D gf180mcu_fd_sc_mcu7t5v0__oai21_1
*I *1509:A1 I *D gf180mcu_fd_sc_mcu7t5v0__or2_1
*I *1476:ZN O *D gf180mcu_fd_sc_mcu7t5v0__aoi21_1
*CAP
1 *1508:B 0.000146093
2 *1509:A1 0.000150967
3 *1476:ZN 0.000157799
4 *322:10 0.000454859
5 *1508:B *1508:A1 0.000708358
6 *1508:B *1577:A1 0.000267016
7 *1509:A1 *1508:A1 4.77699e-05
8 *1509:A1 *1510:A1 1.57479e-05
9 *1509:A1 *1670:CLK 0.000102989
10 *322:10 *1476:B 0.000260432
11 *322:10 *1508:A1 1.71581e-05
12 *322:10 *1577:A2 0.000158067
13 *1476:A1 *1508:B 1.57479e-05
14 *1667:D *1509:A1 0
*RES
1 *1476:ZN *322:10 14.852 
2 *322:10 *1509:A1 6.268 
3 *322:10 *1508:B 6.996 
*END

*D_NET *323 0.0118135
*CONN
*I *1480:A1 I *D gf180mcu_fd_sc_mcu7t5v0__aoi21_1
*I *1477:Z O *D gf180mcu_fd_sc_mcu7t5v0__mux4_1
*CAP
1 *1480:A1 3.84578e-05
2 *1477:Z 0.00230081
3 *323:30 0.00233926
4 *1480:A1 *351:10 0
5 *323:30 *1286:A4 2.6972e-05
6 *323:30 *1315:A1 5.4134e-06
7 *323:30 *1477:I3 0.000197059
8 *323:30 *1479:A2 0
9 *323:30 *1521:S 0.000296392
10 *323:30 *1710:CLK 0.000123477
11 *323:30 *1742:I 9.35066e-06
12 *323:30 *361:42 0.00345052
13 *323:30 *475:39 0.000757023
14 *323:30 *487:175 0.000183573
15 *323:30 *492:282 0.000784291
16 *323:30 *578:68 3.20057e-06
17 *323:30 *578:70 5.78706e-05
18 *1286:A1 *323:30 4.6145e-05
19 *1480:B *1480:A1 4.07478e-05
20 *1506:B *1480:A1 1.60428e-05
21 *1710:D *323:30 0
22 *122:28 *323:30 0.000865163
23 *140:16 *323:30 0.000197059
24 *150:63 *323:30 7.46648e-05
*RES
1 *1477:Z *323:30 48.6941 
2 *323:30 *1480:A1 9.312 
*END

*D_NET *324 0.0141279
*CONN
*I *1479:A2 I *D gf180mcu_fd_sc_mcu7t5v0__nand2_1
*I *1478:Z O *D gf180mcu_fd_sc_mcu7t5v0__mux4_1
*CAP
1 *1479:A2 0.00299715
2 *1478:Z 0.00299715
3 *1479:A2 *1285:A4 2.37269e-05
4 *1479:A2 *1286:A4 2.47495e-05
5 *1479:A2 *1315:A1 1.69949e-05
6 *1479:A2 *1477:I2 0.000262946
7 *1479:A2 *1523:A1 0.000202
8 *1479:A2 *1668:CLK 9.16022e-05
9 *1479:A2 *1710:CLK 6.18331e-05
10 *1479:A2 *1770:I 0.000965766
11 *1479:A2 *351:10 5.52791e-05
12 *1479:A2 *359:62 0.000291984
13 *1479:A2 *478:106 0.000129988
14 *1479:A2 *492:282 0
15 *1479:A2 *554:19 0.000100846
16 *1479:A2 *554:34 2.31961e-05
17 *1479:A2 *555:12 0.000150584
18 *1286:A2 *1479:A2 0.000702007
19 *1286:A3 *1479:A2 6.11661e-05
20 *1287:A2 *1479:A2 0.000331771
21 *1344:A1 *1479:A2 0
22 *1347:A2 *1479:A2 0.000657226
23 *1348:I0 *1479:A2 5.65788e-06
24 *1373:A2 *1479:A2 0.000626951
25 *1373:B *1479:A2 0.00251873
26 *1506:B *1479:A2 0
27 *1710:D *1479:A2 0.000727415
28 *1711:D *1479:A2 1.24065e-05
29 *120:27 *1479:A2 0
30 *150:63 *1479:A2 3.52832e-05
31 *152:52 *1479:A2 5.35037e-05
32 *323:30 *1479:A2 0
*RES
1 *1478:Z *1479:A2 48.16 
*END

*D_NET *325 0.000132025
*CONN
*I *1481:A2 I *D gf180mcu_fd_sc_mcu7t5v0__aoi21_1
*I *1479:ZN O *D gf180mcu_fd_sc_mcu7t5v0__nand2_1
*CAP
1 *1481:A2 6.14818e-05
2 *1479:ZN 6.14818e-05
3 *1481:A2 *1481:A1 6.32394e-06
4 *1480:B *1481:A2 2.73715e-06
*RES
1 *1479:ZN *1481:A2 9.52 
*END

*D_NET *326 0.000889103
*CONN
*I *1481:A1 I *D gf180mcu_fd_sc_mcu7t5v0__aoi21_1
*I *1480:ZN O *D gf180mcu_fd_sc_mcu7t5v0__aoi21_1
*CAP
1 *1481:A1 0.000278554
2 *1480:ZN 0.000278554
3 *1481:A1 *351:10 0
4 *1481:A2 *1481:A1 6.32394e-06
5 *1506:B *1481:A1 0.000325671
*RES
1 *1480:ZN *1481:A1 10.768 
*END

*D_NET *327 0.00652488
*CONN
*I *1508:A2 I *D gf180mcu_fd_sc_mcu7t5v0__oai21_1
*I *1481:ZN O *D gf180mcu_fd_sc_mcu7t5v0__aoi21_1
*CAP
1 *1508:A2 0.000716569
2 *1481:ZN 0.000716569
3 *1508:A2 *1585:A2 0.00017728
4 *1508:A2 *359:62 0.00127618
5 *1508:A2 *359:66 0.000665882
6 *1508:A2 *359:72 3.19064e-05
7 *1508:A2 *359:74 0.000117459
8 *1479:A1 *1508:A2 0.000498837
9 *1597:A2 *1508:A2 0.00073657
10 *1669:D *1508:A2 0.000487059
11 *124:14 *1508:A2 0.000205964
12 *309:48 *1508:A2 0.000273627
13 *316:44 *1508:A2 0.000620979
*RES
1 *1481:ZN *1508:A2 28.504 
*END

*D_NET *328 0.00378648
*CONN
*I *1488:A1 I *D gf180mcu_fd_sc_mcu7t5v0__aoi222_1
*I *1502:A1 I *D gf180mcu_fd_sc_mcu7t5v0__aoi22_1
*I *1482:ZN O *D gf180mcu_fd_sc_mcu7t5v0__nand2_1
*CAP
1 *1488:A1 2.27273e-08
2 *1502:A1 0.000311313
3 *1482:ZN 0.000401418
4 *328:14 0.000712754
5 *1502:A1 *1295:A2 9.75661e-05
6 *1502:A1 *1488:A2 0.000112366
7 *1502:A1 *1502:A2 4.18042e-05
8 *1502:A1 *1502:B1 5.33351e-05
9 *328:14 *1295:A2 0.000164976
10 *328:14 *1482:A1 0.000826484
11 *328:14 *1484:A1 4.78801e-05
12 *328:14 *1488:C2 0.000256274
13 *1295:A1 *328:14 3.8585e-05
14 *1297:A2 *1488:A1 0.000122244
15 *1297:A2 *1502:A1 6.18411e-06
16 *1297:A2 *328:14 0.000593269
*RES
1 *1482:ZN *328:14 18.388 
2 *328:14 *1502:A1 7.204 
3 *328:14 *1488:A1 4.812 
*END

*D_NET *329 0.00151029
*CONN
*I *1488:A2 I *D gf180mcu_fd_sc_mcu7t5v0__aoi222_1
*I *1502:A2 I *D gf180mcu_fd_sc_mcu7t5v0__aoi22_1
*I *1483:Z O *D gf180mcu_fd_sc_mcu7t5v0__or2_1
*CAP
1 *1488:A2 9.536e-05
2 *1502:A2 1.55601e-05
3 *1483:Z 0.000105076
4 *329:10 0.000215996
5 *1488:A2 *1505:A1 0.000384048
6 *1502:A2 *1505:A1 0.000113016
7 *329:10 *492:339 0.000427061
8 *1502:A1 *1488:A2 0.000112366
9 *1502:A1 *1502:A2 4.18042e-05
*RES
1 *1483:Z *329:10 14.644 
2 *329:10 *1502:A2 4.812 
3 *329:10 *1488:A2 5.644 
*END

*D_NET *330 0.00180364
*CONN
*I *1488:B1 I *D gf180mcu_fd_sc_mcu7t5v0__aoi222_1
*I *1502:B1 I *D gf180mcu_fd_sc_mcu7t5v0__aoi22_1
*I *1484:Z O *D gf180mcu_fd_sc_mcu7t5v0__or2_1
*CAP
1 *1488:B1 0
2 *1502:B1 0.000165366
3 *1484:Z 0.000136351
4 *330:6 0.000301717
5 *1502:B1 *1295:A2 0.000194511
6 *1502:B1 *1502:B2 0.000539592
7 *330:6 *1295:A2 0.000376466
8 *330:6 *1486:A2 3.57634e-06
9 *330:6 *1488:C2 3.2727e-05
10 *1502:A1 *1502:B1 5.33351e-05
*RES
1 *1484:Z *330:6 5.644 
2 *330:6 *1502:B1 6.372 
3 *330:6 *1488:B1 4.5 
*END

*D_NET *331 0.00204263
*CONN
*I *1488:B2 I *D gf180mcu_fd_sc_mcu7t5v0__aoi222_1
*I *1502:B2 I *D gf180mcu_fd_sc_mcu7t5v0__aoi22_1
*I *1485:ZN O *D gf180mcu_fd_sc_mcu7t5v0__nand2_1
*CAP
1 *1488:B2 6.34019e-05
2 *1502:B2 7.10436e-05
3 *1485:ZN 0.000112479
4 *331:8 0.000246924
5 *1488:B2 *460:10 4.58772e-05
6 *1488:B2 *460:14 2.06237e-05
7 *1488:B2 *462:18 9.52686e-05
8 *1502:B2 *1488:C1 0.000539592
9 *331:8 *1486:A2 0.000116466
10 *331:8 *460:14 8.08025e-05
11 *331:8 *462:18 0.000110557
12 *1502:B1 *1502:B2 0.000539592
*RES
1 *1485:ZN *331:8 10.144 
2 *331:8 *1502:B2 10.56 
3 *331:8 *1488:B2 9.728 
*END

*D_NET *332 0.00187862
*CONN
*I *1488:C1 I *D gf180mcu_fd_sc_mcu7t5v0__aoi222_1
*I *1503:A1 I *D gf180mcu_fd_sc_mcu7t5v0__aoi22_1
*I *1486:Z O *D gf180mcu_fd_sc_mcu7t5v0__or2_1
*CAP
1 *1488:C1 0.000147709
2 *1503:A1 7.87891e-05
3 *1486:Z 0.000135209
4 *332:6 0.000361707
5 *1488:C1 *1486:A2 4.67771e-06
6 *1488:C1 *1503:A2 0.000184011
7 *1503:A1 *1504:A1 0.000355286
8 *332:6 *1486:A2 7.16355e-05
9 *332:6 *1505:A1 0
10 *1502:B2 *1488:C1 0.000539592
*RES
1 *1486:Z *332:6 5.436 
2 *332:6 *1503:A1 14.436 
3 *332:6 *1488:C1 6.268 
*END

*D_NET *333 0.00272753
*CONN
*I *1503:A2 I *D gf180mcu_fd_sc_mcu7t5v0__aoi22_1
*I *1488:C2 I *D gf180mcu_fd_sc_mcu7t5v0__aoi222_1
*I *1487:ZN O *D gf180mcu_fd_sc_mcu7t5v0__nand2_1
*CAP
1 *1503:A2 0.000116402
2 *1488:C2 0.00059161
3 *1487:ZN 0.000475208
4 *1488:C2 *1295:A2 2.92501e-05
5 *1488:C2 *1482:A1 0.00034108
6 *1488:C2 *1482:A2 2.05998e-05
7 *1488:C2 *1484:A2 4.7605e-05
8 *1488:C2 *1486:A1 2.81522e-06
9 *1488:C2 *1487:A1 6.31135e-06
10 *1503:A2 *1486:A2 0.000539592
11 *1296:A2 *1488:C2 8.40463e-05
12 *1488:C1 *1503:A2 0.000184011
13 *328:14 *1488:C2 0.000256274
14 *330:6 *1488:C2 3.2727e-05
*RES
1 *1487:ZN *1488:C2 21.536 
2 *1488:C2 *1503:A2 10.56 
*END

*D_NET *334 0.0050237
*CONN
*I *1505:A1 I *D gf180mcu_fd_sc_mcu7t5v0__nand3_1
*I *1488:ZN O *D gf180mcu_fd_sc_mcu7t5v0__aoi222_1
*CAP
1 *1505:A1 0.00101488
2 *1488:ZN 0.00101488
3 *1505:A1 *1493:A2 5.39728e-06
4 *1505:A1 *1497:A2 0.000471019
5 *1505:A1 *1504:A1 0
6 *1505:A1 *1506:A2 0.000127714
7 *1505:A1 *459:33 0.000228173
8 *1505:A1 *461:12 2.17484e-05
9 *1297:A2 *1505:A1 7.12358e-05
10 *1488:A2 *1505:A1 0.000384048
11 *1498:A1 *1505:A1 0.000498806
12 *1502:A2 *1505:A1 0.000113016
13 *142:14 *1505:A1 0.00107278
14 *332:6 *1505:A1 0
*RES
1 *1488:ZN *1505:A1 36.984 
*END

*D_NET *335 0.00223459
*CONN
*I *1503:B1 I *D gf180mcu_fd_sc_mcu7t5v0__aoi22_1
*I *1494:A1 I *D gf180mcu_fd_sc_mcu7t5v0__aoi22_1
*I *1489:Z O *D gf180mcu_fd_sc_mcu7t5v0__or2_1
*CAP
1 *1503:B1 0.000154382
2 *1494:A1 0.000299231
3 *1489:Z 0
4 *335:4 0.000453614
5 *1494:A1 *1492:A1 3.63429e-05
6 *1494:A1 *1494:A2 0.00102903
7 *1494:A1 *1505:A2 3.4596e-05
8 *1494:A1 *338:8 8.59076e-05
9 *1494:A1 *469:6 0
10 *1503:B1 *1504:A1 0.000107043
11 *1503:B1 *492:339 3.44395e-05
12 *142:14 *1503:B1 0
*RES
1 *1489:Z *335:4 4.5 
2 *335:4 *1494:A1 8.036 
3 *335:4 *1503:B1 14.644 
*END

*D_NET *336 0.00521841
*CONN
*I *1503:B2 I *D gf180mcu_fd_sc_mcu7t5v0__aoi22_1
*I *1494:A2 I *D gf180mcu_fd_sc_mcu7t5v0__aoi22_1
*I *1490:ZN O *D gf180mcu_fd_sc_mcu7t5v0__nand2_1
*CAP
1 *1503:B2 3.76187e-05
2 *1494:A2 0.000442845
3 *1490:ZN 0.000431664
4 *336:12 0.000912128
5 *1494:A2 *1486:A1 0
6 *1494:A2 *1489:A1 2.04597e-06
7 *1494:A2 *1501:A1 1.07369e-05
8 *1494:A2 *1504:A1 0.000357183
9 *1494:A2 *1504:A2 2.36218e-05
10 *1494:A2 *1506:A2 7.64211e-05
11 *1494:A2 *1604:I0 0
12 *1494:A2 *469:6 0
13 *1503:B2 *1486:A1 6.31509e-05
14 *1503:B2 *1504:A1 3.4596e-05
15 *336:12 *1482:A2 0
16 *336:12 *1486:A1 3.27153e-05
17 *336:12 *1489:A2 2.47495e-05
18 *336:12 *1490:A1 0.000970477
19 *336:12 *1605:I0 0.000102337
20 *336:12 *460:14 0.000667085
21 *336:12 *467:38 0
22 *1494:A1 *1494:A2 0.00102903
*RES
1 *1490:ZN *336:12 18.7 
2 *336:12 *1494:A2 9.492 
3 *336:12 *1503:B2 5.02 
*END

*D_NET *337 0.00176744
*CONN
*I *1494:B1 I *D gf180mcu_fd_sc_mcu7t5v0__aoi22_1
*I *1493:A1 I *D gf180mcu_fd_sc_mcu7t5v0__nand2_1
*I *1491:Z O *D gf180mcu_fd_sc_mcu7t5v0__or2_1
*CAP
1 *1494:B1 0
2 *1493:A1 0.000139371
3 *1491:Z 0.000244801
4 *337:10 0.000384172
5 *1493:A1 *1493:A2 0.000242297
6 *1493:A1 *1497:A2 4.11175e-05
7 *1493:A1 *1501:A1 0.000419179
8 *337:10 *1492:A1 0.000129884
9 *337:10 *1505:A2 0.000166615
*RES
1 *1491:Z *337:10 6.06 
2 *337:10 *1493:A1 15.268 
3 *337:10 *1494:B1 4.5 
*END

*D_NET *338 0.00136903
*CONN
*I *1494:B2 I *D gf180mcu_fd_sc_mcu7t5v0__aoi22_1
*I *1493:A2 I *D gf180mcu_fd_sc_mcu7t5v0__nand2_1
*I *1492:ZN O *D gf180mcu_fd_sc_mcu7t5v0__nand2_1
*CAP
1 *1494:B2 0
2 *1493:A2 0.000164312
3 *1492:ZN 0.000154267
4 *338:8 0.000318579
5 *1493:A2 *1501:A1 1.73875e-05
6 *338:8 *1492:A1 0.000166161
7 *1493:A1 *1493:A2 0.000242297
8 *1494:A1 *338:8 8.59076e-05
9 *1505:A1 *1493:A2 5.39728e-06
10 *142:14 *1493:A2 0.000214724
*RES
1 *1492:ZN *338:8 5.956 
2 *338:8 *1493:A2 15.684 
3 *338:8 *1494:B2 4.5 
*END

*D_NET *339 0.00430466
*CONN
*I *1501:A1 I *D gf180mcu_fd_sc_mcu7t5v0__nand4_1
*I *1493:ZN O *D gf180mcu_fd_sc_mcu7t5v0__nand2_1
*CAP
1 *1501:A1 0.00097198
2 *1493:ZN 0.00097198
3 *1501:A1 *1491:A2 5.89482e-05
4 *1501:A1 *1492:A1 3.18325e-05
5 *1501:A1 *1495:A2 0
6 *1501:A1 *1496:A2 0.000317182
7 *1501:A1 *1497:A2 0.000541971
8 *1501:A1 *1500:A1 9.35851e-06
9 *1501:A1 *1501:A3 0.000143709
10 *1501:A1 *1505:A2 1.41186e-05
11 *1501:A1 *1506:A2 3.76389e-05
12 *1501:A1 *1601:S 0.000337289
13 *1501:A1 *343:18 3.58826e-05
14 *1501:A1 *351:10 0
15 *1493:A1 *1501:A1 0.000419179
16 *1493:A2 *1501:A1 1.73875e-05
17 *1494:A2 *1501:A1 1.07369e-05
18 *1496:A1 *1501:A1 9.76253e-05
19 *1497:A1 *1501:A1 0.000258744
20 *1498:A1 *1501:A1 1.06825e-05
21 *142:14 *1501:A1 1.8413e-05
*RES
1 *1493:ZN *1501:A1 27.256 
*END

*D_NET *340 0.000815747
*CONN
*I *1505:A2 I *D gf180mcu_fd_sc_mcu7t5v0__nand3_1
*I *1494:ZN O *D gf180mcu_fd_sc_mcu7t5v0__aoi22_1
*CAP
1 *1505:A2 0.000287215
2 *1494:ZN 0.000287215
3 *1505:A2 *1506:A2 2.59868e-05
4 *1494:A1 *1505:A2 3.4596e-05
5 *1501:A1 *1505:A2 1.41186e-05
6 *337:10 *1505:A2 0.000166615
*RES
1 *1494:ZN *1505:A2 10.872 
*END

*D_NET *341 0.0027053
*CONN
*I *1500:A1 I *D gf180mcu_fd_sc_mcu7t5v0__and4_1
*I *1501:A4 I *D gf180mcu_fd_sc_mcu7t5v0__nand4_1
*I *1495:ZN O *D gf180mcu_fd_sc_mcu7t5v0__nand2_1
*CAP
1 *1500:A1 0.000463099
2 *1501:A4 0.000173407
3 *1495:ZN 8.33826e-05
4 *341:6 0.000719888
5 *1500:A1 *1496:A2 0.000343079
6 *1500:A1 *1499:B2 5.77431e-06
7 *1500:A1 *1500:A3 1.40331e-05
8 *1500:A1 *1501:A2 0.000145425
9 *1500:A1 *1506:A2 1.91879e-05
10 *1500:A1 *351:10 1.70498e-06
11 *1501:A4 *1260:I 0
12 *1501:A4 *1499:A2 0
13 *1501:A4 *1501:A2 0.000367033
14 *341:6 *1506:A1 0.000265501
15 *341:6 *1506:A2 3.38251e-05
16 *1495:A1 *1501:A4 0
17 *1499:B1 *1500:A1 6.06017e-05
18 *1501:A1 *1500:A1 9.35851e-06
19 *136:23 *341:6 0
*RES
1 *1495:ZN *341:6 5.436 
2 *341:6 *1501:A4 15.268 
3 *341:6 *1500:A1 9.076 
*END

*D_NET *342 0.00123729
*CONN
*I *1500:A2 I *D gf180mcu_fd_sc_mcu7t5v0__and4_1
*I *1496:ZN O *D gf180mcu_fd_sc_mcu7t5v0__nand2_1
*CAP
1 *1500:A2 3.33526e-05
2 *1496:ZN 3.33526e-05
3 *1500:A2 *1500:A3 0.00057941
4 *1500:A2 *1500:A4 0.000591177
*RES
1 *1496:ZN *1500:A2 19.56 
*END

*D_NET *343 0.00651443
*CONN
*I *1500:A3 I *D gf180mcu_fd_sc_mcu7t5v0__and4_1
*I *1501:A3 I *D gf180mcu_fd_sc_mcu7t5v0__nand4_1
*I *1497:ZN O *D gf180mcu_fd_sc_mcu7t5v0__nand2_1
*CAP
1 *1500:A3 0.000129476
2 *1501:A3 0.000210839
3 *1497:ZN 0.000356434
4 *343:18 0.000696749
5 *1500:A3 *1500:A4 0.00011644
6 *1500:A3 *351:10 2.38773e-05
7 *1501:A3 *1601:S 0.000317921
8 *1501:A3 *465:28 0.000135913
9 *343:18 *1497:A2 0.00049943
10 *343:18 *1500:A4 0.00057304
11 *343:18 *1601:I1 3.1721e-05
12 *343:18 *1601:S 0.00101708
13 *343:18 *465:28 5.13977e-05
14 *343:18 *466:25 3.48225e-05
15 *1497:A1 *343:18 0.000537959
16 *1498:A1 *343:18 1.43288e-05
17 *1499:A1 *1500:A3 1.76416e-05
18 *1499:B1 *1500:A3 0.000490958
19 *1500:A1 *1500:A3 1.40331e-05
20 *1500:A2 *1500:A3 0.00057941
21 *1501:A1 *1501:A3 0.000143709
22 *1501:A1 *343:18 3.58826e-05
23 *136:23 *1500:A3 0.000331109
24 *136:23 *1501:A3 0.000134354
25 *142:14 *343:18 1.99013e-05
*RES
1 *1497:ZN *343:18 19.22 
2 *343:18 *1501:A3 7.1 
3 *343:18 *1500:A3 16.204 
*END

*D_NET *344 0.00227619
*CONN
*I *1500:A4 I *D gf180mcu_fd_sc_mcu7t5v0__and4_1
*I *1498:ZN O *D gf180mcu_fd_sc_mcu7t5v0__nand2_1
*CAP
1 *1500:A4 0.000296977
2 *1498:ZN 0.000296977
3 *1500:A4 *1491:A1 5.76352e-05
4 *1500:A4 *461:12 7.68443e-05
5 *1500:A4 *465:8 0.000103933
6 *1500:A4 *465:28 0.000122244
7 *1498:A1 *1500:A4 1.07369e-05
8 *1499:A1 *1500:A4 1.28023e-05
9 *1500:A2 *1500:A4 0.000591177
10 *1500:A3 *1500:A4 0.00011644
11 *136:23 *1500:A4 1.73875e-05
12 *343:18 *1500:A4 0.00057304
*RES
1 *1498:ZN *1500:A4 22.576 
*END

*D_NET *345 0.00171315
*CONN
*I *1501:A2 I *D gf180mcu_fd_sc_mcu7t5v0__nand4_1
*I *1499:ZN O *D gf180mcu_fd_sc_mcu7t5v0__aoi22_1
*CAP
1 *1501:A2 0.00029096
2 *1499:ZN 0.00029096
3 *1501:A2 *1499:A2 0
4 *1501:A2 *1499:B2 9.06989e-05
5 *1501:A2 *1506:A2 0.000256311
6 *1501:A2 *456:17 0.000271764
7 *1495:A1 *1501:A2 0
8 *1500:A1 *1501:A2 0.000145425
9 *1501:A4 *1501:A2 0.000367033
*RES
1 *1499:ZN *1501:A2 21.12 
*END

*D_NET *346 0.000899182
*CONN
*I *1505:A3 I *D gf180mcu_fd_sc_mcu7t5v0__nand3_1
*I *1500:Z O *D gf180mcu_fd_sc_mcu7t5v0__and4_1
*CAP
1 *1505:A3 8.11664e-05
2 *1500:Z 8.11664e-05
3 *1505:A3 *1497:A2 0.000406972
4 *1505:A3 *1506:A2 0.000329877
*RES
1 *1500:Z *1505:A3 10.456 
*END

*D_NET *347 0.0020228
*CONN
*I *1506:A1 I *D gf180mcu_fd_sc_mcu7t5v0__oai21_1
*I *1501:ZN O *D gf180mcu_fd_sc_mcu7t5v0__nand4_1
*CAP
1 *1506:A1 0.000524208
2 *1501:ZN 0.000524208
3 *1506:A1 *1506:A2 5.70102e-05
4 *1506:A1 *352:8 0.00037585
5 *1506:A1 *464:6 0
6 *1495:A1 *1506:A1 0.000276018
7 *136:6 *1506:A1 0
8 *341:6 *1506:A1 0.000265501
*RES
1 *1501:ZN *1506:A1 22.576 
*END

*D_NET *348 0.00257534
*CONN
*I *1504:A1 I *D gf180mcu_fd_sc_mcu7t5v0__nand2_1
*I *1502:ZN O *D gf180mcu_fd_sc_mcu7t5v0__aoi22_1
*CAP
1 *1504:A1 0.000280264
2 *1502:ZN 0.000280264
3 *1504:A1 *1486:A1 0.000135988
4 *1504:A1 *492:339 0.00102472
5 *1494:A2 *1504:A1 0.000357183
6 *1503:A1 *1504:A1 0.000355286
7 *1503:B1 *1504:A1 0.000107043
8 *1503:B2 *1504:A1 3.4596e-05
9 *1505:A1 *1504:A1 0
*RES
1 *1502:ZN *1504:A1 21.952 
*END

*D_NET *349 0.00108964
*CONN
*I *1504:A2 I *D gf180mcu_fd_sc_mcu7t5v0__nand2_1
*I *1503:ZN O *D gf180mcu_fd_sc_mcu7t5v0__aoi22_1
*CAP
1 *1504:A2 0.000199891
2 *1503:ZN 0.000199891
3 *1504:A2 *1486:A1 0.000291223
4 *1504:A2 *1486:A2 0.000334265
5 *1504:A2 *1506:A2 4.07478e-05
6 *1494:A2 *1504:A2 2.36218e-05
*RES
1 *1503:ZN *1504:A2 12.016 
*END

*D_NET *350 0.0051792
*CONN
*I *1506:A2 I *D gf180mcu_fd_sc_mcu7t5v0__oai21_1
*I *1504:ZN O *D gf180mcu_fd_sc_mcu7t5v0__nand2_1
*CAP
1 *1506:A2 0.00136563
2 *1504:ZN 0.00136563
3 *1506:A2 *1243:I 0.00013468
4 *1506:A2 *1492:A1 0
5 *1506:A2 *1497:A2 8.92721e-05
6 *1506:A2 *1499:B2 0.000179186
7 *1506:A2 *351:10 0.00086042
8 *1506:A2 *456:17 3.70435e-05
9 *1506:A2 *457:12 0
10 *1494:A2 *1506:A2 7.64211e-05
11 *1498:A1 *1506:A2 3.93698e-05
12 *1499:A1 *1506:A2 4.15842e-05
13 *1500:A1 *1506:A2 1.91879e-05
14 *1501:A1 *1506:A2 3.76389e-05
15 *1501:A2 *1506:A2 0.000256311
16 *1504:A2 *1506:A2 4.07478e-05
17 *1505:A1 *1506:A2 0.000127714
18 *1505:A2 *1506:A2 2.59868e-05
19 *1505:A3 *1506:A2 0.000329877
20 *1506:A1 *1506:A2 5.70102e-05
21 *132:8 *1506:A2 6.16518e-05
22 *341:6 *1506:A2 3.38251e-05
*RES
1 *1504:ZN *1506:A2 31.312 
*END

*D_NET *351 0.0156893
*CONN
*I *1567:A1 I *D gf180mcu_fd_sc_mcu7t5v0__aoi21_1
*I *1576:A2 I *D gf180mcu_fd_sc_mcu7t5v0__aoi21_1
*I *1505:ZN O *D gf180mcu_fd_sc_mcu7t5v0__nand3_1
*CAP
1 *1567:A1 0.00135974
2 *1576:A2 0
3 *1505:ZN 0.00165791
4 *351:10 0.00301764
5 *1567:A1 *1258:I 0.000569953
6 *1567:A1 *1454:A1 0.000108673
7 *1567:A1 *1454:A2 3.11096e-05
8 *1567:A1 *1543:S 1.823e-05
9 *1567:A1 *1544:B 1.85523e-05
10 *1567:A1 *1546:A1 2.36218e-05
11 *1567:A1 *1547:A2 0.000256285
12 *1567:A1 *1590:A2 2.43266e-05
13 *1567:A1 *356:29 0.000407543
14 *1567:A1 *356:42 0.000274703
15 *1567:A1 *356:113 0.000807021
16 *1567:A1 *359:16 0.000210914
17 *1567:A1 *480:113 0.000960784
18 *1567:A1 *561:29 6.18411e-06
19 *351:10 *1243:I 0.000228035
20 *351:10 *1454:A2 0
21 *351:10 *1492:A1 0
22 *351:10 *1499:B2 0.00018297
23 *351:10 *1653:CLK 4.53928e-05
24 *351:10 *1668:CLK 0.000150295
25 *351:10 *1741:I 0
26 *351:10 *487:175 6.87156e-05
27 *1468:A1 *1567:A1 3.99399e-06
28 *1479:A2 *351:10 5.52791e-05
29 *1480:A1 *351:10 0
30 *1480:B *1567:A1 0.000129426
31 *1480:B *351:10 0.000674568
32 *1481:A1 *351:10 0
33 *1499:B1 *351:10 2.16156e-05
34 *1500:A1 *351:10 1.70498e-06
35 *1500:A3 *351:10 2.38773e-05
36 *1501:A1 *351:10 0
37 *1506:A2 *351:10 0.00086042
38 *1542:A2 *1567:A1 0.000106014
39 *1546:A2 *1567:A1 0.000414267
40 *1546:A3 *1567:A1 0.00110147
41 *120:27 *351:10 8.56865e-05
42 *123:47 *1567:A1 0.0001339
43 *123:49 *1567:A1 0.000179296
44 *300:6 *1567:A1 0.00036342
45 *302:8 *1567:A1 0.000861244
46 *304:12 *1567:A1 0.00017298
47 *304:25 *1567:A1 7.15853e-05
*RES
1 *1505:ZN *351:10 20.204 
2 *351:10 *1576:A2 4.5 
3 *351:10 *1567:A1 33.26 
*END

*D_NET *352 0.00836041
*CONN
*I *1507:A1 I *D gf180mcu_fd_sc_mcu7t5v0__nand3_1
*I *1577:A2 I *D gf180mcu_fd_sc_mcu7t5v0__aoi22_1
*I *1506:ZN O *D gf180mcu_fd_sc_mcu7t5v0__oai21_1
*CAP
1 *1507:A1 0.000107341
2 *1577:A2 0.000244173
3 *1506:ZN 0.000641553
4 *352:8 0.000993068
5 *1507:A1 *1476:B 1.89164e-05
6 *1507:A1 *1510:A1 9.73865e-06
7 *1507:A1 *563:34 0.000314673
8 *1577:A2 *1476:B 5.12047e-06
9 *1577:A2 *1509:A2 0
10 *1577:A2 *1584:A2 0.000615959
11 *352:8 *1476:B 0.00260157
12 *352:8 *1584:A2 2.85674e-05
13 *352:8 *1668:CLK 0.00135462
14 *352:8 *359:62 0
15 *352:8 *488:10 3.68491e-05
16 *352:8 *488:27 0.000118716
17 *1506:A1 *352:8 0.00037585
18 *1668:D *352:8 4.55316e-05
19 *292:33 *352:8 0.00069009
20 *316:142 *352:8 0
21 *322:10 *1577:A2 0.000158067
*RES
1 *1506:ZN *352:8 19.712 
2 *352:8 *1577:A2 11.08 
3 *352:8 *1507:A1 9.936 
*END

*D_NET *353 0.00254206
*CONN
*I *1508:A1 I *D gf180mcu_fd_sc_mcu7t5v0__oai21_1
*I *1507:ZN O *D gf180mcu_fd_sc_mcu7t5v0__nand3_1
*CAP
1 *1508:A1 0.000243491
2 *1507:ZN 0.000243491
3 *1508:A1 *1476:B 8.4278e-05
4 *1508:A1 *1510:A1 0.00117833
5 *1508:A1 *474:25 0
6 *1476:A1 *1508:A1 1.91879e-05
7 *1508:B *1508:A1 0.000708358
8 *1509:A1 *1508:A1 4.77699e-05
9 *322:10 *1508:A1 1.71581e-05
*RES
1 *1507:ZN *1508:A1 21.744 
*END

*D_NET *354 0.00404244
*CONN
*I *1510:A1 I *D gf180mcu_fd_sc_mcu7t5v0__nand2_1
*I *1508:ZN O *D gf180mcu_fd_sc_mcu7t5v0__oai21_1
*CAP
1 *1510:A1 0.00058006
2 *1508:ZN 0.00058006
3 *1510:A1 *1476:B 0.000204826
4 *1510:A1 *1510:A2 0.000533406
5 *1510:A1 *1585:A1 0.000106581
6 *1510:A1 *480:14 0
7 *1510:A1 *563:34 0.000662298
8 *1476:A1 *1510:A1 0.000171397
9 *1507:A1 *1510:A1 9.73865e-06
10 *1508:A1 *1510:A1 0.00117833
11 *1509:A1 *1510:A1 1.57479e-05
*RES
1 *1508:ZN *1510:A1 24.552 
*END

*D_NET *355 0.00153248
*CONN
*I *1510:A2 I *D gf180mcu_fd_sc_mcu7t5v0__nand2_1
*I *1509:Z O *D gf180mcu_fd_sc_mcu7t5v0__or2_1
*CAP
1 *1510:A2 0.000457263
2 *1509:Z 0.000457263
3 *1510:A2 *1585:A1 3.22441e-06
4 *1510:A2 *474:23 3.0781e-05
5 *1510:A2 *474:25 3.91427e-05
6 *1510:A2 *480:14 0
7 *1507:A3 *1510:A2 1.13999e-05
8 *1510:A1 *1510:A2 0.000533406
*RES
1 *1509:Z *1510:A2 21.328 
*END

*D_NET *356 0.0338024
*CONN
*I *1571:A1 I *D gf180mcu_fd_sc_mcu7t5v0__oai211_1
*I *1523:A3 I *D gf180mcu_fd_sc_mcu7t5v0__nand4_1
*I *1519:A3 I *D gf180mcu_fd_sc_mcu7t5v0__nand4_1
*I *1517:A3 I *D gf180mcu_fd_sc_mcu7t5v0__nand4_1
*I *1553:C I *D gf180mcu_fd_sc_mcu7t5v0__oai221_1
*I *1546:A4 I *D gf180mcu_fd_sc_mcu7t5v0__nand4_1
*I *1544:A2 I *D gf180mcu_fd_sc_mcu7t5v0__aoi21_1
*I *1542:A4 I *D gf180mcu_fd_sc_mcu7t5v0__nand4_1
*I *1564:B I *D gf180mcu_fd_sc_mcu7t5v0__aoi211_1
*I *1511:ZN O *D gf180mcu_fd_sc_mcu7t5v0__nor2_1
*CAP
1 *1571:A1 0
2 *1523:A3 0.000117947
3 *1519:A3 2.78933e-05
4 *1517:A3 0
5 *1553:C 0.000348209
6 *1546:A4 0.000150893
7 *1544:A2 0.000232901
8 *1542:A4 1.38984e-05
9 *1564:B 0
10 *1511:ZN 0.000749106
11 *356:130 0.000653675
12 *356:113 0.00161897
13 *356:82 0.00282473
14 *356:72 0.00150943
15 *356:42 0.000400659
16 *356:29 0.000584242
17 *356:21 0.000770815
18 *356:14 0.000822395
19 *1519:A3 *1520:B 0
20 *1519:A3 *359:51 2.33768e-05
21 *1523:A3 *359:51 0.000301981
22 *1544:A2 *359:8 0.000163869
23 *1544:A2 *361:20 0
24 *1546:A4 *359:16 8.89657e-05
25 *1553:C *1531:A3 5.469e-05
26 *1553:C *1552:A2 0.000187176
27 *1553:C *386:20 0.000351948
28 *1553:C *486:94 2.6438e-06
29 *1553:C *563:86 0.00178758
30 *356:14 *1464:A2 5.61793e-05
31 *356:14 *1511:A2 1.91879e-05
32 *356:14 *1561:A3 6.52129e-05
33 *356:14 *1564:A1 4.07478e-05
34 *356:14 *1565:A1 3.44892e-05
35 *356:14 *1565:A2 0.00151759
36 *356:14 *1569:A1 8.6943e-06
37 *356:14 *422:45 0.000147292
38 *356:14 *486:12 0.000361257
39 *356:14 *486:25 0.00019118
40 *356:21 *1561:A3 0.00061938
41 *356:21 *1564:A1 0.000666291
42 *356:21 *422:45 3.10673e-05
43 *356:29 *372:20 0
44 *356:29 *486:35 0.000582359
45 *356:29 *486:46 0.000438808
46 *356:72 *1548:A3 5.90026e-05
47 *356:72 *1561:A3 0.000256285
48 *356:72 *1564:A1 0.000481282
49 *356:72 *422:45 0.000158662
50 *356:82 *487:52 1.19219e-06
51 *356:82 *490:129 0.000188643
52 *356:113 *1448:A1 0.000645296
53 *356:113 *1458:A3 0.000180228
54 *356:113 *1530:A2 0.000784473
55 *356:113 *1552:A1 1.71809e-05
56 *356:113 *483:57 6.50337e-05
57 *356:113 *487:52 2.92452e-05
58 *356:113 *489:50 0.000481976
59 *356:113 *490:46 0.000171431
60 *356:113 *490:129 0.000151425
61 *356:113 *563:86 0.00040541
62 *356:130 *1520:B 0.000166498
63 *356:130 *359:33 0.000113027
64 *356:130 *359:40 0.00197213
65 *356:130 *359:51 4.67771e-06
66 *356:130 *361:20 0.00019439
67 *1456:A2 *356:113 5.23324e-05
68 *1475:A2 *1553:C 3.98614e-06
69 *1475:A3 *1553:C 0.000260037
70 *1511:A1 *356:14 0.000285923
71 *1515:A2 *356:14 0
72 *1518:A1 *356:130 4.41433e-05
73 *1523:A2 *1523:A3 0.000131361
74 *1528:A2 *1544:A2 0.00012524
75 *1531:A4 *1553:C 0.00163517
76 *1535:B *356:113 2.76367e-05
77 *1542:A2 *1544:A2 0.000113016
78 *1542:A2 *1546:A4 0.000316249
79 *1548:A1 *356:72 0.000184043
80 *1553:A2 *1553:C 1.07369e-05
81 *1553:B2 *1553:C 1.32276e-05
82 *1567:A1 *356:29 0.000407543
83 *1567:A1 *356:42 0.000274703
84 *1567:A1 *356:113 0.000807021
85 *1567:A2 *356:29 0.000300191
86 *1571:B *356:72 4.22457e-05
87 *1653:D *356:130 0.000367115
88 *1671:D *356:14 3.55699e-06
89 *127:16 *356:14 0
90 *134:12 *1553:C 0.000103788
91 *135:8 *356:113 3.76581e-05
92 *138:12 *356:14 0.000102451
93 *138:71 *356:14 3.94674e-05
94 *292:16 *356:14 0.00065703
95 *292:33 *356:82 3.75999e-05
96 *294:8 *356:113 7.69238e-05
97 *297:22 *356:29 8.45035e-05
98 *300:6 *356:113 0.000176981
99 *304:25 *1544:A2 4.9065e-05
100 *304:25 *356:29 0.000118929
101 *304:25 *356:42 0.000100557
102 *309:35 *356:113 1.73703e-05
103 *316:98 *356:113 0.000241129
104 *316:115 *1523:A3 3.4596e-05
105 *316:115 *356:113 7.29199e-05
106 *316:115 *356:130 0.00118784
107 *317:6 *1542:A4 0.000113016
108 *317:6 *1544:A2 1.09841e-05
109 *317:6 *1546:A4 2.79125e-05
110 *317:51 *1546:A4 1.09486e-05
*RES
1 *1511:ZN *356:14 22.756 
2 *356:14 *1564:B 4.5 
3 *356:14 *356:21 1.976 
4 *356:21 *356:29 10.636 
5 *356:29 *1542:A4 9.312 
6 *356:29 *356:42 5.228 
7 *356:42 *1544:A2 15.996 
8 *356:42 *1546:A4 6.164 
9 *356:21 *356:72 3.12 
10 *356:72 *356:82 15.968 
11 *356:82 *1553:C 20.572 
12 *356:82 *356:113 25.98 
13 *356:113 *1517:A3 9 
14 *356:113 *356:130 13.652 
15 *356:130 *1519:A3 4.812 
16 *356:130 *1523:A3 5.956 
17 *356:72 *1571:A1 4.5 
*END

*D_NET *357 0.00881954
*CONN
*I *1516:A2 I *D gf180mcu_fd_sc_mcu7t5v0__nor4_1
*I *1590:A2 I *D gf180mcu_fd_sc_mcu7t5v0__oai221_1
*I *1512:ZN O *D gf180mcu_fd_sc_mcu7t5v0__nand2_1
*CAP
1 *1516:A2 0.000360137
2 *1590:A2 0.00177725
3 *1512:ZN 0
4 *357:4 0.00213738
5 *1516:A2 *1567:B 1.71326e-05
6 *1516:A2 *1568:A2 3.4596e-05
7 *1516:A2 *1595:A3 2.38656e-05
8 *1590:A2 *1449:A3 5.22308e-05
9 *1590:A2 *1537:A1 4.28828e-05
10 *1590:A2 *1537:A3 0.000332323
11 *1590:A2 *1539:A3 1.03327e-05
12 *1590:A2 *1541:S 1.37466e-05
13 *1590:A2 *1552:A1 0.000399004
14 *1590:A2 *1567:B 0
15 *1590:A2 *1568:A2 2.64466e-05
16 *1590:A2 *1590:C 1.71326e-05
17 *1590:A2 *1597:A1 0.000146896
18 *1590:A2 *366:10 0.000263002
19 *1590:A2 *370:10 0.000207716
20 *1590:A2 *372:20 0.000636134
21 *1590:A2 *483:57 5.77431e-06
22 *1590:A2 *483:63 0.000118519
23 *1590:A2 *489:25 7.67119e-05
24 *1590:A2 *489:37 0.00106755
25 *1516:A4 *1516:A2 0
26 *1529:A2 *1590:A2 0.000218218
27 *1533:A1 *1516:A2 2.81522e-06
28 *1533:A1 *1590:A2 0.000135894
29 *1556:A2 *1590:A2 8.27261e-05
30 *1567:A1 *1590:A2 2.43266e-05
31 *295:6 *1590:A2 0.000178873
32 *295:12 *1590:A2 0.000102761
33 *299:16 *1590:A2 7.92296e-05
34 *304:12 *1590:A2 6.96463e-05
35 *317:6 *1516:A2 0.000158287
36 *317:6 *1590:A2 0
*RES
1 *1512:ZN *357:4 4.5 
2 *357:4 *1590:A2 21.66 
3 *357:4 *1516:A2 7.828 
*END

*D_NET *358 0.00264677
*CONN
*I *1516:A3 I *D gf180mcu_fd_sc_mcu7t5v0__nor4_1
*I *1570:B I *D gf180mcu_fd_sc_mcu7t5v0__aoi21_1
*I *1513:ZN O *D gf180mcu_fd_sc_mcu7t5v0__oai21_1
*CAP
1 *1516:A3 0.00020539
2 *1570:B 0.000153339
3 *1513:ZN 0.00031799
4 *358:10 0.000676718
5 *1516:A3 *359:8 0
6 *1570:B *1443:A2 0.000191039
7 *358:10 *1609:A2 0.000113016
8 *1446:I *1516:A3 0
9 *1446:I *358:10 1.73246e-05
10 *1516:A4 *1516:A3 3.44165e-05
11 *1516:A4 *1570:B 0.000318385
12 *1595:A4 *1516:A3 0.000580586
13 *291:10 *358:10 7.87395e-06
14 *292:16 *1516:A3 1.46474e-05
15 *292:16 *358:10 0
16 *317:12 *1516:A3 1.60428e-05
*RES
1 *1513:ZN *358:10 6.476 
2 *358:10 *1570:B 5.956 
3 *358:10 *1516:A3 6.684 
*END

*D_NET *359 0.0310205
*CONN
*I *1542:A1 I *D gf180mcu_fd_sc_mcu7t5v0__nand4_1
*I *1599:A4 I *D gf180mcu_fd_sc_mcu7t5v0__nand4_1
*I *1597:A4 I *D gf180mcu_fd_sc_mcu7t5v0__nand4_1
*I *1588:B I *D gf180mcu_fd_sc_mcu7t5v0__oai31_1
*I *1593:A2 I *D gf180mcu_fd_sc_mcu7t5v0__nand2_1
*I *1579:A2 I *D gf180mcu_fd_sc_mcu7t5v0__nand2_1
*I *1523:A4 I *D gf180mcu_fd_sc_mcu7t5v0__nand4_1
*I *1519:A4 I *D gf180mcu_fd_sc_mcu7t5v0__nand4_1
*I *1517:A4 I *D gf180mcu_fd_sc_mcu7t5v0__nand4_1
*I *1537:A4 I *D gf180mcu_fd_sc_mcu7t5v0__nand4_1
*I *1514:ZN O *D gf180mcu_fd_sc_mcu7t5v0__nor3_1
*CAP
1 *1542:A1 3.6366e-05
2 *1599:A4 0
3 *1597:A4 0
4 *1588:B 9.03883e-05
5 *1593:A2 0.000360245
6 *1579:A2 0.000251769
7 *1523:A4 0
8 *1519:A4 0
9 *1517:A4 0
10 *1537:A4 0.00014397
11 *1514:ZN 0.000435324
12 *359:74 0.00129869
13 *359:72 0.00105593
14 *359:66 0.00034792
15 *359:62 0.000713869
16 *359:51 0.000852811
17 *359:40 0.000641549
18 *359:33 0.00125028
19 *359:16 0.00131971
20 *359:8 0.000830705
21 *1537:A4 *1471:A2 3.99846e-05
22 *1537:A4 *1541:S 0.000634616
23 *1537:A4 *483:63 0.000113027
24 *1537:A4 *563:107 0.000204659
25 *1579:A2 *1579:A1 0.000114849
26 *1579:A2 *1580:A2 0
27 *1579:A2 *1670:CLK 2.06748e-05
28 *1579:A2 *404:30 2.73715e-06
29 *1588:B *1589:A2 0.00055766
30 *1588:B *480:14 0.000202464
31 *1593:A2 *1577:A1 0.000487599
32 *1593:A2 *1593:A1 0.000113016
33 *1593:A2 *563:44 0
34 *359:8 *1547:A2 0.000235968
35 *359:16 *1471:A2 0
36 *359:16 *1547:A2 4.16532e-05
37 *359:16 *372:12 0.000260055
38 *359:33 *1517:A1 8.67129e-05
39 *359:33 *1541:I0 0.000276007
40 *359:33 *1541:S 0.00147623
41 *359:33 *1726:CLK 0.000276675
42 *359:33 *361:20 0.00011287
43 *359:33 *471:19 5.20069e-05
44 *359:33 *473:12 2.91117e-05
45 *359:33 *473:72 0.000131792
46 *359:40 *1454:A2 2.70039e-05
47 *359:40 *1518:B 0.000979229
48 *359:40 *1520:B 0.000417934
49 *359:40 *1653:CLK 0.000184718
50 *359:40 *1668:CLK 2.81522e-06
51 *359:51 *1520:B 0
52 *359:51 *1668:CLK 2.70393e-05
53 *359:62 *1668:CLK 2.39156e-06
54 *359:62 *492:282 0.000182068
55 *359:72 *422:45 1.07369e-05
56 *359:72 *483:57 0.000396425
57 *359:74 *487:20 0.000106581
58 *359:74 *487:26 6.98665e-05
59 *1460:A1 *359:72 0.00083088
60 *1460:A1 *359:74 0.000253847
61 *1471:A1 *359:16 0.000295827
62 *1479:A1 *359:62 0.0001823
63 *1479:A2 *359:62 0.000291984
64 *1507:A3 *359:74 4.55996e-05
65 *1508:A2 *359:62 0.00127618
66 *1508:A2 *359:66 0.000665882
67 *1508:A2 *359:72 3.19064e-05
68 *1508:A2 *359:74 0.000117459
69 *1516:A3 *359:8 0
70 *1519:A3 *359:51 2.33768e-05
71 *1523:A3 *359:51 0.000301981
72 *1542:A2 *359:8 4.07478e-05
73 *1542:A2 *359:16 0.000366224
74 *1544:A2 *359:8 0.000163869
75 *1545:A2 *359:8 0.000203364
76 *1546:A3 *359:16 0.000377814
77 *1546:A4 *359:16 8.89657e-05
78 *1567:A1 *359:16 0.000210914
79 *1577:B2 *1579:A2 0.00015899
80 *1577:B2 *359:74 5.65788e-06
81 *1578:B *1593:A2 0.000188422
82 *1589:A1 *359:72 7.05624e-05
83 *1592:B *1593:A2 0.000639166
84 *1597:A3 *359:72 3.4596e-05
85 *1654:D *359:51 1.23682e-05
86 *1654:D *359:62 1.29855e-05
87 *1669:D *359:72 3.74622e-05
88 *124:14 *359:72 9.87827e-05
89 *126:30 *359:74 1.2629e-05
90 *292:16 *359:8 0.000106889
91 *295:12 *1537:A4 0.000103788
92 *300:6 *359:40 0
93 *300:19 *1537:A4 0.000271764
94 *300:19 *359:33 0.000454126
95 *300:21 *1537:A4 0.00102578
96 *302:8 *359:16 0.000182208
97 *316:31 *1593:A2 0.00130846
98 *316:44 *1579:A2 3.55699e-06
99 *316:44 *359:66 0.000107648
100 *316:44 *359:74 2.02438e-05
101 *316:61 *359:72 3.45129e-05
102 *316:142 *359:62 0.000199988
103 *316:142 *359:66 0.000546477
104 *317:6 *359:8 1.77964e-05
105 *317:51 *359:16 0
106 *352:8 *359:62 0
107 *356:130 *359:33 0.000113027
108 *356:130 *359:40 0.00197213
109 *356:130 *359:51 4.67771e-06
*RES
1 *1514:ZN *359:8 9.076 
2 *359:8 *359:16 10.012 
3 *359:16 *1537:A4 12.744 
4 *359:16 *359:33 14.276 
5 *359:33 *1517:A4 4.5 
6 *359:33 *359:40 7.592 
7 *359:40 *1519:A4 4.5 
8 *359:40 *359:51 1.976 
9 *359:51 *1523:A4 4.5 
10 *359:51 *359:62 12.196 
11 *359:62 *359:66 6.268 
12 *359:66 *359:72 8.036 
13 *359:72 *359:74 4.264 
14 *359:74 *1579:A2 10.768 
15 *359:74 *1593:A2 14.408 
16 *359:72 *1588:B 10.56 
17 *359:66 *1597:A4 4.5 
18 *359:62 *1599:A4 9 
19 *359:8 *1542:A1 4.812 
*END

*D_NET *360 0.0211838
*CONN
*I *1595:A2 I *D gf180mcu_fd_sc_mcu7t5v0__nor4_1
*I *1585:A2 I *D gf180mcu_fd_sc_mcu7t5v0__nor3_1
*I *1565:B I *D gf180mcu_fd_sc_mcu7t5v0__aoi21_1
*I *1515:ZN O *D gf180mcu_fd_sc_mcu7t5v0__nand2_1
*CAP
1 *1595:A2 0.000299005
2 *1585:A2 0.00464305
3 *1565:B 0.000996593
4 *1515:ZN 0.000553531
5 *360:12 0.00589417
6 *1565:B *1758:I 3.82231e-05
7 *1565:B *463:16 0.000177525
8 *1565:B *484:14 0
9 *1565:B *485:20 6.8763e-06
10 *1565:B *485:28 0.000209557
11 *1585:A2 *403:26 0.00255452
12 *1595:A2 *1563:A2 0.000166817
13 *1595:A2 *1568:B 2.46957e-05
14 *1595:A2 *1570:A1 9.00226e-05
15 *1595:A2 *393:8 0.000177246
16 *1595:A2 *463:34 5.89116e-05
17 *1595:A2 *483:63 0.000783746
18 *1595:A2 *484:33 0.000341532
19 *360:12 *1558:A2 3.25733e-05
20 *360:12 *1560:A1 1.07369e-05
21 *360:12 *1561:A3 3.78977e-05
22 *360:12 *393:8 0.000265501
23 *1508:A2 *1585:A2 0.00017728
24 *1515:A2 *1595:A2 0.000158673
25 *1595:A1 *1595:A2 0.000105709
26 *1671:D *1565:B 2.33932e-05
27 *138:12 *1595:A2 0.00108348
28 *138:71 *360:12 4.8749e-06
29 *139:40 *360:12 0.000468395
30 *292:16 *1595:A2 0.001622
31 *316:44 *1585:A2 0.00017728
*RES
1 *1515:ZN *360:12 15.788 
2 *360:12 *1565:B 18.18 
3 *360:12 *1585:A2 34.716 
4 *1515:ZN *1595:A2 25.176 
*END

*D_NET *361 0.0298133
*CONN
*I *1518:A2 I *D gf180mcu_fd_sc_mcu7t5v0__oai21_1
*I *1520:A2 I *D gf180mcu_fd_sc_mcu7t5v0__oai21_1
*I *1524:A2 I *D gf180mcu_fd_sc_mcu7t5v0__oai21_1
*I *1521:S I *D gf180mcu_fd_sc_mcu7t5v0__mux2_2
*I *1792:I I *D gf180mcu_fd_sc_mcu7t5v0__buf_2
*I *1516:ZN O *D gf180mcu_fd_sc_mcu7t5v0__nor4_1
*CAP
1 *1518:A2 0
2 *1520:A2 0
3 *1524:A2 0.000467329
4 *1521:S 0.00111385
5 *1792:I 2.77605e-05
6 *1516:ZN 0.0023288
7 *361:42 0.00153842
8 *361:36 0.00136442
9 *361:28 0.000792329
10 *361:20 0.00262086
11 *1521:S *1371:A1 0.000121749
12 *1521:S *1477:I0 0.00109505
13 *1521:S *1477:I3 0.000271764
14 *1521:S *1632:A1 0.000802519
15 *1521:S *1632:B2 2.24654e-05
16 *1521:S *1635:A1 5.19976e-05
17 *1521:S *434:20 0.000387113
18 *1521:S *487:175 0.00052232
19 *1521:S *492:446 0.000168226
20 *1521:S *559:28 0.000472709
21 *1521:S *578:62 0.000415294
22 *1524:A2 *1730:CLK 0.000435576
23 *1524:A2 *504:26 0.000347955
24 *1792:I *1477:I2 3.4596e-05
25 *361:20 *1541:I1 0.00011484
26 *361:20 *1541:S 0.000110633
27 *361:20 *1726:CLK 0.000458125
28 *361:20 *1739:I 0.000215256
29 *361:20 *471:19 8.96031e-05
30 *361:20 *473:12 1.60428e-05
31 *361:20 *473:14 4.4731e-05
32 *361:20 *473:16 0.000134864
33 *361:20 *473:20 6.03575e-05
34 *361:20 *473:72 7.18388e-06
35 *361:28 *1742:I 9.71402e-05
36 *361:28 *488:109 5.6515e-05
37 *361:28 *553:12 0.000651459
38 *361:36 *1519:A1 1.90528e-05
39 *361:36 *1648:A1 7.05624e-05
40 *361:36 *1649:B 0.000626417
41 *361:36 *1730:CLK 0.000569975
42 *361:36 *1742:I 0
43 *361:36 *487:175 0.000264772
44 *361:36 *492:282 0
45 *361:36 *504:26 0.000560747
46 *361:36 *553:38 0
47 *361:42 *455:12 0.000415294
48 *361:42 *487:175 0.00117737
49 DAT_O[0] *1521:S 0.000188281
50 *1286:A1 *1524:A2 0.000113016
51 *1347:A1 *1792:I 3.57634e-06
52 *1352:A1 *1521:S 6.49835e-06
53 *1352:A2 *1521:S 0.000126161
54 *1518:A1 *361:20 3.60303e-05
55 *1518:A1 *361:28 5.53884e-05
56 *1520:A1 *361:36 0.000352713
57 *1544:A2 *361:20 0
58 *1545:A2 *361:20 0.000487059
59 *1648:B *1524:A2 1.15486e-05
60 *1655:D *1521:S 0.000160152
61 *1661:D *361:20 0.000432834
62 *1662:D *361:20 8.14679e-05
63 *1693:D *1521:S 0.000259802
64 *1725:D *361:20 0.000191459
65 *121:10 *361:36 8.64348e-05
66 *131:12 *1524:A2 3.4596e-05
67 *140:16 *1521:S 0.000136093
68 *141:112 *1792:I 0.000113016
69 *160:12 *1524:A2 4.04689e-05
70 *161:10 *1524:A2 0.000243056
71 *292:16 *361:20 2.80885e-05
72 *316:115 *361:20 0.00111322
73 *316:115 *361:28 0.0002941
74 *323:30 *1521:S 0.000296392
75 *323:30 *361:42 0.00345052
76 *356:130 *361:20 0.00019439
77 *359:33 *361:20 0.00011287
*RES
1 *1516:ZN *361:20 35.964 
2 *361:20 *361:28 12.744 
3 *361:28 *361:36 15.864 
4 *361:36 *361:42 14.068 
5 *361:42 *1792:I 9.312 
6 *361:42 *1521:S 23.976 
7 *361:36 *1524:A2 9.18 
8 *361:28 *1520:A2 4.5 
9 *361:20 *1518:A2 4.5 
*END

*D_NET *362 0.00141255
*CONN
*I *1518:B I *D gf180mcu_fd_sc_mcu7t5v0__oai21_1
*I *1517:ZN O *D gf180mcu_fd_sc_mcu7t5v0__nand4_1
*CAP
1 *1518:B 0.00017082
2 *1517:ZN 0.00017082
3 *1518:B *1454:A2 9.168e-05
4 *300:6 *1518:B 0
5 *359:40 *1518:B 0.000979229
*RES
1 *1517:ZN *1518:B 11.6 
*END

*D_NET *363 0.000759137
*CONN
*I *1520:B I *D gf180mcu_fd_sc_mcu7t5v0__oai21_1
*I *1519:ZN O *D gf180mcu_fd_sc_mcu7t5v0__nand4_1
*CAP
1 *1520:B 8.73523e-05
2 *1519:ZN 8.73523e-05
3 *1519:A3 *1520:B 0
4 *356:130 *1520:B 0.000166498
5 *359:40 *1520:B 0.000417934
6 *359:51 *1520:B 0
*RES
1 *1519:ZN *1520:B 10.456 
*END

*D_NET *364 0.00298738
*CONN
*I *1524:B I *D gf180mcu_fd_sc_mcu7t5v0__oai21_1
*I *1523:ZN O *D gf180mcu_fd_sc_mcu7t5v0__nand4_1
*CAP
1 *1524:B 0.000613203
2 *1523:ZN 0.000613203
3 *1524:B *1742:I 4.96738e-05
4 *1524:B *475:65 0
5 *1344:A1 *1524:B 0.00018974
6 *1651:C *1524:B 2.17484e-05
7 *1654:D *1524:B 0.000795121
8 *120:27 *1524:B 0.000435926
9 *160:12 *1524:B 8.88029e-05
10 *160:16 *1524:B 0.000179963
*RES
1 *1523:ZN *1524:B 24.448 
*END

*D_NET *365 0.000490377
*CONN
*I *1567:B I *D gf180mcu_fd_sc_mcu7t5v0__aoi21_1
*I *1528:ZN O *D gf180mcu_fd_sc_mcu7t5v0__nand2_1
*CAP
1 *1567:B 0.000175813
2 *1528:ZN 0.000175813
3 *1567:B *1568:A2 1.8751e-05
4 *1516:A2 *1567:B 1.71326e-05
5 *1590:A2 *1567:B 0
6 *317:6 *1567:B 0.000102867
7 *317:51 *1567:B 0
*RES
1 *1528:ZN *1567:B 10.248 
*END

*D_NET *366 0.00787447
*CONN
*I *1530:A2 I *D gf180mcu_fd_sc_mcu7t5v0__nand2_1
*I *1552:A1 I *D gf180mcu_fd_sc_mcu7t5v0__oai31_1
*I *1529:ZN O *D gf180mcu_fd_sc_mcu7t5v0__oai21_1
*CAP
1 *1530:A2 0.000331542
2 *1552:A1 0.00114084
3 *1529:ZN 5.74889e-05
4 *366:10 0.00152987
5 *1530:A2 *1537:A1 1.30027e-05
6 *1552:A1 *1448:A1 0.000127762
7 *1552:A1 *1449:A3 0.000189985
8 *1552:A1 *1469:A3 0.00030613
9 *1552:A1 *1531:A1 0.000176388
10 *1552:A1 *1531:A3 0.000536571
11 *1552:A1 *1549:A2 0.0001714
12 *1552:A1 *1560:A1 0.000241687
13 *1552:A1 *483:63 0.000146042
14 *366:10 *483:57 1.12327e-05
15 *366:10 *483:63 9.71816e-05
16 *1458:A2 *1530:A2 0.000180589
17 *1475:A3 *1552:A1 0.000103788
18 *1529:A1 *1530:A2 8.73965e-05
19 *1531:A4 *1552:A1 0.000568792
20 *1535:B *1530:A2 0.000127454
21 *1590:A2 *1552:A1 0.000399004
22 *1590:A2 *366:10 0.000263002
23 *135:8 *1530:A2 4.17589e-06
24 *135:23 *1530:A2 0.000178559
25 *294:8 *1552:A1 8.29207e-05
26 *356:113 *1530:A2 0.000784473
27 *356:113 *1552:A1 1.71809e-05
*RES
1 *1529:ZN *366:10 5.644 
2 *366:10 *1552:A1 24.42 
3 *366:10 *1530:A2 17.244 
*END

*D_NET *367 0.00386926
*CONN
*I *1537:A1 I *D gf180mcu_fd_sc_mcu7t5v0__nand4_1
*I *1530:ZN O *D gf180mcu_fd_sc_mcu7t5v0__nand2_1
*CAP
1 *1537:A1 0.00057285
2 *1530:ZN 0.00057285
3 *1537:A1 *1539:A3 9.76253e-05
4 *1537:A1 *1541:S 0.000191948
5 *1537:A1 *489:56 0.000122357
6 *1456:A2 *1537:A1 9.35542e-06
7 *1530:A2 *1537:A1 1.30027e-05
8 *1556:A2 *1537:A1 0.00149971
9 *1590:A2 *1537:A1 4.28828e-05
10 *135:23 *1537:A1 3.62791e-05
11 *299:16 *1537:A1 0.000546043
12 *304:12 *1537:A1 0.000164354
*RES
1 *1530:ZN *1537:A1 15.76 
*END

*D_NET *368 0.00102288
*CONN
*I *1552:A2 I *D gf180mcu_fd_sc_mcu7t5v0__oai31_1
*I *1531:Z O *D gf180mcu_fd_sc_mcu7t5v0__and4_1
*CAP
1 *1552:A2 0.000123195
2 *1531:Z 0.000123195
3 *1552:A2 *1531:A3 0.000180228
4 *1552:A2 *1549:A2 0.000396581
5 *1552:A2 *386:20 4.62207e-06
6 *1475:A3 *1552:A2 7.88434e-06
7 *1536:B2 *1552:A2 0
8 *1553:C *1552:A2 0.000187176
*RES
1 *1531:Z *1552:A2 19.56 
*END

*D_NET *369 0.00242715
*CONN
*I *1548:A3 I *D gf180mcu_fd_sc_mcu7t5v0__nand4_1
*I *1532:ZN O *D gf180mcu_fd_sc_mcu7t5v0__nand4_1
*CAP
1 *1548:A3 0.000353111
2 *1532:ZN 0.000353111
3 *1548:A3 *1532:A1 0.000182208
4 *1548:A3 *1564:A1 4.07478e-05
5 *1548:A3 *388:12 0.000190154
6 *1548:A3 *487:54 0.000182208
7 *1571:B *1548:A3 0.000569419
8 *1571:C *1548:A3 0.000194511
9 *297:14 *1548:A3 1.99386e-05
10 *300:42 *1548:A3 0.000163869
11 *307:12 *1548:A3 0.000118867
12 *356:72 *1548:A3 5.90026e-05
*RES
1 *1532:ZN *1548:A3 13.888 
*END

*D_NET *370 0.00382606
*CONN
*I *1534:A4 I *D gf180mcu_fd_sc_mcu7t5v0__nand4_1
*I *1555:A2 I *D gf180mcu_fd_sc_mcu7t5v0__nand3_1
*I *1571:A2 I *D gf180mcu_fd_sc_mcu7t5v0__oai211_1
*I *1533:ZN O *D gf180mcu_fd_sc_mcu7t5v0__nor3_1
*CAP
1 *1534:A4 0
2 *1555:A2 4.36465e-05
3 *1571:A2 7.27111e-05
4 *1533:ZN 0.000328078
5 *370:23 0.000218263
6 *370:10 0.000575406
7 *370:10 *372:20 0.000387194
8 *370:10 *483:63 0.000289109
9 *370:23 *1747:I 4.18157e-05
10 *370:23 *422:45 0.000261413
11 *1534:A3 *370:23 3.22108e-05
12 *1548:A1 *1571:A2 6.17392e-05
13 *1554:A3 *1555:A2 0.00040541
14 *1571:C *1571:A2 1.23748e-05
15 *1590:A2 *370:10 0.000207716
16 *300:21 *1555:A2 0.00040541
17 *309:35 *1571:A2 4.28898e-05
18 *309:35 *370:10 8.38169e-05
19 *309:35 *370:23 0.000110023
20 *317:51 *1571:A2 5.31759e-05
21 *317:51 *370:10 0.000193651
*RES
1 *1533:ZN *370:10 13.368 
2 *370:10 *1571:A2 9.728 
3 *370:10 *370:23 6.476 
4 *370:23 *1555:A2 14.644 
5 *370:23 *1534:A4 4.5 
*END

*D_NET *371 0.000939685
*CONN
*I *1537:A2 I *D gf180mcu_fd_sc_mcu7t5v0__nand4_1
*I *1534:ZN O *D gf180mcu_fd_sc_mcu7t5v0__nand4_1
*CAP
1 *1537:A2 7.23061e-05
2 *1534:ZN 7.23061e-05
3 *1537:A2 *372:12 2.52289e-05
4 *295:12 *1537:A2 0.000271764
5 *300:21 *1537:A2 0.000495887
6 *317:51 *1537:A2 2.19312e-06
*RES
1 *1534:ZN *1537:A2 19.352 
*END

*D_NET *372 0.00681325
*CONN
*I *1537:A3 I *D gf180mcu_fd_sc_mcu7t5v0__nand4_1
*I *1548:A2 I *D gf180mcu_fd_sc_mcu7t5v0__nand4_1
*I *1564:A1 I *D gf180mcu_fd_sc_mcu7t5v0__aoi211_1
*I *1535:ZN O *D gf180mcu_fd_sc_mcu7t5v0__aoi21_1
*CAP
1 *1537:A3 5.45283e-05
2 *1548:A2 0
3 *1564:A1 0.000244914
4 *1535:ZN 0.000364748
5 *372:20 0.000753527
6 *372:12 0.000927889
7 *1537:A3 *483:63 4.06228e-05
8 *1564:A1 *393:8 0
9 *372:20 *483:63 8.85997e-05
10 *1471:A1 *372:12 0.000260055
11 *1515:A2 *1564:A1 2.73715e-06
12 *1537:A2 *372:12 2.52289e-05
13 *1548:A1 *372:20 0.000179413
14 *1548:A3 *1564:A1 4.07478e-05
15 *1564:A2 *1564:A1 3.28137e-05
16 *1571:B *1564:A1 5.47431e-06
17 *1571:C *372:20 7.76501e-06
18 *1590:A2 *1537:A3 0.000332323
19 *1590:A2 *372:20 0.000636134
20 *139:40 *1564:A1 1.43411e-05
21 *295:12 *1537:A3 0.000103788
22 *297:14 *1564:A1 1.63544e-05
23 *297:22 *1564:A1 0.000170876
24 *300:19 *372:12 1.26243e-05
25 *300:21 *372:12 8.25729e-05
26 *309:35 *372:20 0.000319414
27 *317:51 *372:12 0.000257822
28 *317:51 *372:20 2.37133e-06
29 *356:14 *1564:A1 4.07478e-05
30 *356:21 *1564:A1 0.000666291
31 *356:29 *372:20 0
32 *356:72 *1564:A1 0.000481282
33 *359:16 *372:12 0.000260055
34 *370:10 *372:20 0.000387194
*RES
1 *1535:ZN *372:12 17.036 
2 *372:12 *372:20 14.2 
3 *372:20 *1564:A1 8.244 
4 *372:20 *1548:A2 4.5 
5 *372:12 *1537:A3 5.436 
*END

*D_NET *373 0.000730078
*CONN
*I *1552:A3 I *D gf180mcu_fd_sc_mcu7t5v0__oai31_1
*I *1536:ZN O *D gf180mcu_fd_sc_mcu7t5v0__oai22_1
*CAP
1 *1552:A3 0.000263496
2 *1536:ZN 0.000263496
3 *1552:A3 *1812:I 0.000134833
4 *1552:A3 *385:12 2.87272e-05
5 *1536:A1 *1552:A3 2.45971e-05
6 *1536:A2 *1552:A3 0
7 *1536:B2 *1552:A3 1.49279e-05
*RES
1 *1536:ZN *1552:A3 20.288 
*END

*D_NET *374 0.00427465
*CONN
*I *1541:S I *D gf180mcu_fd_sc_mcu7t5v0__mux2_2
*I *1537:ZN O *D gf180mcu_fd_sc_mcu7t5v0__nand4_1
*CAP
1 *1541:S 0.000486924
2 *1537:ZN 0.000486924
3 *1541:S *1471:A2 0.000248654
4 *1541:S *1540:A1 3.66431e-05
5 *1541:S *1540:B 8.22472e-05
6 *1541:S *1541:I0 1.90179e-05
7 *1541:S *471:19 1.54384e-05
8 *1537:A1 *1541:S 0.000191948
9 *1537:A4 *1541:S 0.000634616
10 *1539:A1 *1541:S 0.000144901
11 *1590:A2 *1541:S 1.37466e-05
12 *304:12 *1541:S 0.000326725
13 *359:33 *1541:S 0.00147623
14 *361:20 *1541:S 0.000110633
*RES
1 *1537:ZN *1541:S 25.072 
*END

*D_NET *375 0.0114
*CONN
*I *1540:A3 I *D gf180mcu_fd_sc_mcu7t5v0__oai31_1
*I *1551:A1 I *D gf180mcu_fd_sc_mcu7t5v0__aoi21_1
*I *1550:A1 I *D gf180mcu_fd_sc_mcu7t5v0__nand2_1
*I *1538:ZN O *D gf180mcu_fd_sc_mcu7t5v0__nand4_1
*CAP
1 *1540:A3 0.000485537
2 *1551:A1 0
3 *1550:A1 0.000198503
4 *1538:ZN 0.000150896
5 *375:18 0.00094019
6 *375:8 0.00137812
7 *1540:A3 *1471:A2 6.18354e-06
8 *1540:A3 *1540:B 6.55507e-05
9 *1550:A1 *1550:A2 0.000235979
10 *1550:A1 *1551:A2 6.49505e-05
11 *1550:A1 *1559:A2 7.87395e-06
12 *1550:A1 *486:79 0.000835971
13 *1550:A1 *486:94 0.000497696
14 *375:8 *1532:A1 7.91532e-05
15 *375:8 *480:24 0.000397755
16 *375:8 *480:32 0.000236009
17 *375:8 *490:133 0.000325477
18 *375:18 *1549:A2 5.34458e-06
19 *375:18 *1551:A2 1.12327e-05
20 *375:18 *1552:B 0.00017573
21 *375:18 *1560:A1 1.4348e-05
22 *375:18 *480:32 0.000169624
23 *375:18 *486:94 8.14957e-05
24 *375:18 *487:83 0.000431319
25 *1469:B1 *375:18 2.63271e-05
26 *1474:B *1550:A1 4.18042e-05
27 *1474:B *375:18 9.96173e-06
28 *1539:A1 *1540:A3 1.06825e-05
29 *1539:A2 *1540:A3 2.36792e-05
30 *1549:A1 *375:18 0.000192301
31 *1549:B *375:18 5.36894e-05
32 *1556:A2 *1540:A3 0.00183227
33 *1556:A2 *375:18 0.00139196
34 *1556:A3 *375:18 0
35 *297:14 *375:8 4.41442e-05
36 *298:18 *1550:A1 1.51054e-05
37 *299:22 *1540:A3 0.000526869
38 *299:22 *375:18 1.57138e-05
39 *299:67 *1540:A3 0.000181604
40 *300:42 *1540:A3 6.17392e-05
41 *300:42 *375:8 0.000177248
*RES
1 *1538:ZN *375:8 11.184 
2 *375:8 *375:18 12.196 
3 *375:18 *1550:A1 8.452 
4 *375:18 *1551:A1 4.5 
5 *375:8 *1540:A3 15.76 
*END

*D_NET *376 0.00113902
*CONN
*I *1540:B I *D gf180mcu_fd_sc_mcu7t5v0__oai31_1
*I *1539:ZN O *D gf180mcu_fd_sc_mcu7t5v0__nand4_1
*CAP
1 *1540:B 0.00020949
2 *1539:ZN 0.00020949
3 *1540:B *1540:A1 0.000125283
4 *1539:A1 *1540:B 0.000427061
5 *1540:A3 *1540:B 6.55507e-05
6 *1541:S *1540:B 8.22472e-05
7 *299:67 *1540:B 1.99013e-05
*RES
1 *1539:ZN *1540:B 20.184 
*END

*D_NET *377 0.00113517
*CONN
*I *1541:I0 I *D gf180mcu_fd_sc_mcu7t5v0__mux2_2
*I *1540:ZN O *D gf180mcu_fd_sc_mcu7t5v0__oai31_1
*CAP
1 *1541:I0 0.000268632
2 *1540:ZN 0.000268632
3 *1541:I0 *1540:A1 0.000143493
4 *1541:I0 *1748:I 2.9156e-05
5 *1541:I0 *473:72 0.000110334
6 *1541:I0 *473:85 1.99013e-05
7 *1541:S *1541:I0 1.90179e-05
8 *359:33 *1541:I0 0.000276007
*RES
1 *1540:ZN *1541:I0 20.704 
*END

*D_NET *378 0.0012832
*CONN
*I *1543:S I *D gf180mcu_fd_sc_mcu7t5v0__mux2_2
*I *1542:ZN O *D gf180mcu_fd_sc_mcu7t5v0__nand4_1
*CAP
1 *1543:S 0.000205431
2 *1542:ZN 0.000205431
3 *1543:S *561:29 0
4 *1543:I0 *1543:S 0.000582349
5 *1567:A1 *1543:S 1.823e-05
6 *304:25 *1543:S 0.000271764
*RES
1 *1542:ZN *1543:S 20.392 
*END

*D_NET *379 0.00136035
*CONN
*I *1545:A4 I *D gf180mcu_fd_sc_mcu7t5v0__nor4_1
*I *1544:ZN O *D gf180mcu_fd_sc_mcu7t5v0__aoi21_1
*CAP
1 *1545:A4 6.19741e-05
2 *1544:ZN 6.19741e-05
3 *1545:A4 *1547:A2 0.000732955
4 *1545:A4 *484:91 0.000381202
5 *1544:A1 *1545:A4 0.000122244
*RES
1 *1544:ZN *1545:A4 10.976 
*END

*D_NET *380 0.00548384
*CONN
*I *1547:A2 I *D gf180mcu_fd_sc_mcu7t5v0__aoi211_1
*I *1546:ZN O *D gf180mcu_fd_sc_mcu7t5v0__nand4_1
*CAP
1 *1547:A2 0.000883619
2 *1546:ZN 0.000883619
3 *1547:A2 *1445:A1 1.09116e-05
4 *1547:A2 *1544:B 6.69964e-05
5 *1547:A2 *473:24 0.000273792
6 *1547:A2 *484:91 0.000592559
7 *1547:A2 *565:10 0.000273974
8 *1547:A2 *565:17 0.000113016
9 *1547:A2 *565:36 0.000174815
10 *1442:A1 *1547:A2 3.59979e-05
11 *1544:A1 *1547:A2 0.000108108
12 *1545:A2 *1547:A2 0.000645952
13 *1545:A4 *1547:A2 0.000732955
14 *1546:A2 *1547:A2 2.36218e-05
15 *1567:A1 *1547:A2 0.000256285
16 *1609:A1 *1547:A2 0
17 *288:10 *1547:A2 3.22108e-05
18 *288:34 *1547:A2 9.77823e-05
19 *359:8 *1547:A2 0.000235968
20 *359:16 *1547:A2 4.16532e-05
*RES
1 *1546:ZN *1547:A2 20.232 
*END

*D_NET *381 0.00342026
*CONN
*I *1561:A3 I *D gf180mcu_fd_sc_mcu7t5v0__nand3_1
*I *1548:ZN O *D gf180mcu_fd_sc_mcu7t5v0__nand4_1
*CAP
1 *1561:A3 0.00054771
2 *1548:ZN 0.00054771
3 *1561:A3 *1565:A2 0.000463172
4 *1561:A3 *422:45 0.000367796
5 *1561:A3 *486:35 0
6 *138:71 *1561:A3 0.000322666
7 *139:40 *1561:A3 2.32625e-05
8 *139:51 *1561:A3 0.000159365
9 *292:16 *1561:A3 9.80196e-06
10 *356:14 *1561:A3 6.52129e-05
11 *356:21 *1561:A3 0.00061938
12 *356:72 *1561:A3 0.000256285
13 *360:12 *1561:A3 3.78977e-05
*RES
1 *1548:ZN *1561:A3 24.656 
*END

*D_NET *382 0.0017329
*CONN
*I *1551:A2 I *D gf180mcu_fd_sc_mcu7t5v0__aoi21_1
*I *1550:A2 I *D gf180mcu_fd_sc_mcu7t5v0__nand2_1
*I *1549:ZN O *D gf180mcu_fd_sc_mcu7t5v0__aoi21_1
*CAP
1 *1551:A2 3.35911e-05
2 *1550:A2 0.000213352
3 *1549:ZN 0.000161236
4 *382:8 0.000408179
5 *1550:A2 *386:20 8.21146e-06
6 *1551:A2 *1549:A2 4.07478e-05
7 *1474:B *1550:A2 0.000113016
8 *1475:A3 *1550:A2 3.04939e-05
9 *1475:A3 *1551:A2 2.36218e-05
10 *1475:A3 *382:8 0.000150661
11 *1550:A1 *1550:A2 0.000235979
12 *1550:A1 *1551:A2 6.49505e-05
13 *298:18 *1550:A2 0.000237629
14 *375:18 *1551:A2 1.12327e-05
*RES
1 *1549:ZN *382:8 5.54 
2 *382:8 *1550:A2 7.412 
3 *382:8 *1551:A2 5.228 
*END

*D_NET *383 0.000410335
*CONN
*I *1559:A2 I *D gf180mcu_fd_sc_mcu7t5v0__and3_1
*I *1550:ZN O *D gf180mcu_fd_sc_mcu7t5v0__nand2_1
*CAP
1 *1559:A2 0.00011861
2 *1550:ZN 0.00011861
3 *1559:A2 *486:79 3.60231e-05
4 *1550:A1 *1559:A2 7.87395e-06
5 *298:18 *1559:A2 0.000129218
*RES
1 *1550:ZN *1559:A2 10.248 
*END

*D_NET *384 0.00243327
*CONN
*I *1552:B I *D gf180mcu_fd_sc_mcu7t5v0__oai31_1
*I *1551:ZN O *D gf180mcu_fd_sc_mcu7t5v0__aoi21_1
*CAP
1 *1552:B 0.000466695
2 *1551:ZN 0.000466695
3 *1552:B *1549:A2 2.38773e-05
4 *1552:B *1560:A1 5.37297e-05
5 *1552:B *386:20 0.000629939
6 *1552:B *486:94 3.42651e-05
7 *1475:A3 *1552:B 0.000582343
8 *375:18 *1552:B 0.00017573
*RES
1 *1551:ZN *1552:B 22.576 
*END

*D_NET *385 0.0154259
*CONN
*I *1560:A1 I *D gf180mcu_fd_sc_mcu7t5v0__nor2_1
*I *1588:A1 I *D gf180mcu_fd_sc_mcu7t5v0__oai31_1
*I *1583:A1 I *D gf180mcu_fd_sc_mcu7t5v0__nor3_1
*I *1578:A1 I *D gf180mcu_fd_sc_mcu7t5v0__oai21_1
*I *1592:A1 I *D gf180mcu_fd_sc_mcu7t5v0__oai21_1
*I *1573:A1 I *D gf180mcu_fd_sc_mcu7t5v0__nor2_1
*I *1552:ZN O *D gf180mcu_fd_sc_mcu7t5v0__oai31_1
*CAP
1 *1560:A1 0.00160487
2 *1588:A1 0.000429569
3 *1583:A1 4.48834e-05
4 *1578:A1 0.000121733
5 *1592:A1 0
6 *1573:A1 8.70593e-05
7 *1552:ZN 0.00246144
8 *385:39 0.000748887
9 *385:25 0.000121733
10 *385:23 0.000330513
11 *385:12 0.000999713
12 *1560:A1 *1469:A3 0.000744524
13 *1560:A1 *1549:A2 0.000108453
14 *1560:A1 *1554:A1 8.42801e-05
15 *1560:A1 *1558:A2 0
16 *1560:A1 *387:8 0
17 *1560:A1 *387:12 0
18 *1560:A1 *403:26 0
19 *1560:A1 *486:94 2.24654e-05
20 *1560:A1 *487:83 3.83946e-05
21 *1573:A1 *1573:A2 4.58667e-05
22 *1573:A1 *1586:A1 4.38131e-05
23 *1573:A1 *1670:CLK 0
24 *1578:A1 *1578:A2 0.000218453
25 *1578:A1 *1593:A1 3.4596e-05
26 *1578:A1 *404:30 7.18755e-06
27 *1583:A1 *563:34 0.00018025
28 *1588:A1 *1586:A1 5.22953e-05
29 *1588:A1 *1588:A2 0.000238332
30 *1588:A1 *1589:A2 6.64873e-05
31 *1588:A1 *403:30 4.26091e-05
32 *1588:A1 *480:14 0.000185295
33 *385:12 *1470:A2 0.000500772
34 *385:12 *1536:B1 7.72481e-05
35 *385:12 *1593:A1 0.000114701
36 *385:12 *1594:A1 0.000428493
37 *385:12 *1594:A2 5.51177e-05
38 *385:12 *1812:I 0
39 *385:12 *404:6 8.13929e-05
40 *385:12 *404:30 1.07369e-05
41 *385:12 *486:94 0.00071626
42 *385:12 *563:34 0
43 *385:12 *563:44 0
44 *385:23 *1573:A2 8.23372e-05
45 *385:23 *1586:A1 8.39601e-05
46 *385:23 *403:30 5.23324e-05
47 *385:39 *1586:A1 0.00018237
48 *385:39 *403:30 0.000330105
49 *1462:A2 *1560:A1 0.000113016
50 *1467:A1 *1560:A1 1.80385e-06
51 *1469:B1 *1560:A1 0.000736514
52 *1470:A1 *385:12 1.09486e-05
53 *1475:A3 *1560:A1 7.38538e-05
54 *1549:B *1560:A1 2.67548e-05
55 *1552:A1 *1560:A1 0.000241687
56 *1552:A3 *385:12 2.87272e-05
57 *1552:B *1560:A1 5.37297e-05
58 *1554:A3 *1560:A1 0
59 *1577:B2 *1578:A1 0.000268613
60 *1592:B *1588:A1 2.30903e-05
61 *1670:D *385:12 0.000428493
62 *123:12 *1560:A1 0.000607004
63 *126:10 *1583:A1 2.42026e-05
64 *139:40 *1560:A1 2.38656e-05
65 *297:14 *1560:A1 0.00059438
66 *297:22 *1560:A1 7.48703e-05
67 *299:22 *1560:A1 6.23568e-05
68 *299:43 *1560:A1 3.511e-05
69 *316:31 *1578:A1 0.000171124
70 *316:31 *385:12 2.11493e-05
71 *360:12 *1560:A1 1.07369e-05
72 *375:18 *1560:A1 1.4348e-05
*RES
1 *1552:ZN *385:12 18.256 
2 *385:12 *1573:A1 9.728 
3 *385:12 *385:23 0.936 
4 *385:23 *385:25 4.5 
5 *385:25 *1592:A1 4.5 
6 *385:25 *1578:A1 6.476 
7 *385:23 *385:39 2.6 
8 *385:39 *1583:A1 9.52 
9 *385:39 *1588:A1 12.12 
10 *1552:ZN *1560:A1 32.04 
*END

*D_NET *386 0.00672942
*CONN
*I *1559:A3 I *D gf180mcu_fd_sc_mcu7t5v0__and3_1
*I *1558:A1 I *D gf180mcu_fd_sc_mcu7t5v0__nand4_1
*I *1553:ZN O *D gf180mcu_fd_sc_mcu7t5v0__oai221_1
*CAP
1 *1559:A3 0.000144803
2 *1558:A1 0.000211354
3 *1553:ZN 0.000983578
4 *386:20 0.00133974
5 *1558:A1 *1561:A1 0.000406972
6 *1558:A1 *1561:A2 0.000127794
7 *1559:A3 *486:35 1.5359e-05
8 *386:20 *1558:A4 0
9 *386:20 *1561:A2 6.8199e-07
10 *386:20 *389:8 2.38865e-05
11 *386:20 *389:12 0
12 *386:20 *486:94 4.63309e-05
13 *1469:A1 *386:20 9.7683e-06
14 *1469:B2 *386:20 0.000596769
15 *1475:A2 *386:20 6.83186e-05
16 *1475:A3 *386:20 0.000425439
17 *1536:B2 *386:20 8.58666e-05
18 *1550:A2 *386:20 8.21146e-06
19 *1552:A2 *386:20 4.62207e-06
20 *1552:B *386:20 0.000629939
21 *1553:B2 *386:20 4.67771e-06
22 *1553:C *386:20 0.000351948
23 *298:18 *386:20 8.1598e-06
24 *311:12 *1558:A1 0.000227525
25 *311:12 *386:20 0.00100768
*RES
1 *1553:ZN *386:20 23.9 
2 *386:20 *1558:A1 7.1 
3 *386:20 *1559:A3 14.228 
*END

*D_NET *387 0.00281127
*CONN
*I *1572:A1 I *D gf180mcu_fd_sc_mcu7t5v0__nand3_1
*I *1557:A1 I *D gf180mcu_fd_sc_mcu7t5v0__and3_1
*I *1558:A2 I *D gf180mcu_fd_sc_mcu7t5v0__nand4_1
*I *1554:ZN O *D gf180mcu_fd_sc_mcu7t5v0__nand4_1
*CAP
1 *1572:A1 0
2 *1557:A1 0
3 *1558:A2 0.00041672
4 *1554:ZN 0.000250187
5 *387:12 0.000648301
6 *387:8 0.000481768
7 *1558:A2 *1558:A3 0.000176388
8 *1558:A2 *1558:A4 0.000425052
9 *1558:A2 *1561:A2 7.15269e-06
10 *387:8 *1554:A2 1.50424e-05
11 *387:8 *389:8 0
12 *387:8 *389:12 6.61468e-06
13 *387:8 *403:26 0.000100568
14 *387:12 *1557:A2 3.73779e-05
15 *387:12 *1558:A4 7.5959e-06
16 *387:12 *389:12 2.85677e-05
17 *1560:A1 *1558:A2 0
18 *1560:A1 *387:8 0
19 *1560:A1 *387:12 0
20 *138:71 *1558:A2 8.61516e-05
21 *139:40 *1558:A2 9.12098e-05
22 *360:12 *1558:A2 3.25733e-05
*RES
1 *1554:ZN *387:8 6.372 
2 *387:8 *387:12 1.664 
3 *387:12 *1558:A2 16.828 
4 *387:12 *1557:A1 4.5 
5 *387:8 *1572:A1 4.5 
*END

*D_NET *388 0.00427169
*CONN
*I *1557:A2 I *D gf180mcu_fd_sc_mcu7t5v0__and3_1
*I *1558:A3 I *D gf180mcu_fd_sc_mcu7t5v0__nand4_1
*I *1555:ZN O *D gf180mcu_fd_sc_mcu7t5v0__nand3_1
*CAP
1 *1557:A2 2.6309e-05
2 *1558:A3 0.000763912
3 *1555:ZN 0.000691663
4 *388:12 0.00148188
5 *1557:A2 *1558:A4 3.82231e-05
6 *1557:A2 *389:12 2.31997e-05
7 *388:12 *1560:A2 0
8 *388:12 *1572:A2 0.000215526
9 *388:12 *486:35 0
10 *1548:A3 *388:12 0.000190154
11 *1558:A2 *1558:A3 0.000176388
12 *1571:C *388:12 0.000203739
13 *139:40 *1558:A3 0.00016643
14 *297:14 *388:12 0.000256887
15 *387:12 *1557:A2 3.73779e-05
*RES
1 *1555:ZN *388:12 14.512 
2 *388:12 *1558:A3 21.64 
3 *388:12 *1557:A2 9.312 
*END

*D_NET *389 0.0020173
*CONN
*I *1572:A3 I *D gf180mcu_fd_sc_mcu7t5v0__nand3_1
*I *1557:A3 I *D gf180mcu_fd_sc_mcu7t5v0__and3_1
*I *1558:A4 I *D gf180mcu_fd_sc_mcu7t5v0__nand4_1
*I *1556:ZN O *D gf180mcu_fd_sc_mcu7t5v0__nand4_1
*CAP
1 *1572:A3 0
2 *1557:A3 0
3 *1558:A4 0.000235923
4 *1556:ZN 0.000214783
5 *389:12 0.000457277
6 *389:8 0.000436137
7 *1558:A4 *1561:A2 9.02038e-05
8 *389:8 *403:26 2.98389e-05
9 *1557:A2 *1558:A4 3.82231e-05
10 *1557:A2 *389:12 2.31997e-05
11 *1558:A2 *1558:A4 0.000425052
12 *386:20 *1558:A4 0
13 *386:20 *389:8 2.38865e-05
14 *386:20 *389:12 0
15 *387:8 *389:8 0
16 *387:8 *389:12 6.61468e-06
17 *387:12 *1558:A4 7.5959e-06
18 *387:12 *389:12 2.85677e-05
*RES
1 *1556:ZN *389:8 6.164 
2 *389:8 *389:12 1.664 
3 *389:12 *1558:A4 7.204 
4 *389:12 *1557:A3 4.5 
5 *389:8 *1572:A3 4.5 
*END

*D_NET *390 0.0012967
*CONN
*I *1561:A1 I *D gf180mcu_fd_sc_mcu7t5v0__nand3_1
*I *1557:Z O *D gf180mcu_fd_sc_mcu7t5v0__and3_1
*CAP
1 *1561:A1 0.000163262
2 *1557:Z 0.000163262
3 *1561:A1 *1561:A2 0.000546158
4 *1558:A1 *1561:A1 0.000406972
5 *311:12 *1561:A1 1.70427e-05
*RES
1 *1557:Z *1561:A1 11.184 
*END

*D_NET *391 0.00119763
*CONN
*I *1560:A2 I *D gf180mcu_fd_sc_mcu7t5v0__nor2_1
*I *1558:ZN O *D gf180mcu_fd_sc_mcu7t5v0__nand4_1
*CAP
1 *1560:A2 0.00025714
2 *1558:ZN 0.00025714
3 *1560:A2 *486:35 0.000683353
4 *388:12 *1560:A2 0
*RES
1 *1558:ZN *1560:A2 19.976 
*END

*D_NET *392 0.00166548
*CONN
*I *1561:A2 I *D gf180mcu_fd_sc_mcu7t5v0__nand3_1
*I *1559:Z O *D gf180mcu_fd_sc_mcu7t5v0__and3_1
*CAP
1 *1561:A2 0.000446403
2 *1559:Z 0.000446403
3 *1558:A1 *1561:A2 0.000127794
4 *1558:A2 *1561:A2 7.15269e-06
5 *1558:A4 *1561:A2 9.02038e-05
6 *1561:A1 *1561:A2 0.000546158
7 *138:71 *1561:A2 6.8199e-07
8 *386:20 *1561:A2 6.8199e-07
*RES
1 *1559:Z *1561:A2 13.16 
*END

*D_NET *393 0.00746537
*CONN
*I *1568:B I *D gf180mcu_fd_sc_mcu7t5v0__oai21_1
*I *1565:A1 I *D gf180mcu_fd_sc_mcu7t5v0__aoi21_1
*I *1560:ZN O *D gf180mcu_fd_sc_mcu7t5v0__nor2_1
*CAP
1 *1568:B 0.000148274
2 *1565:A1 0.000299564
3 *1560:ZN 0.000317261
4 *393:8 0.000765099
5 *1565:A1 *1562:A2 0.000155408
6 *1565:A1 *1569:A1 0.000841996
7 *1565:A1 *394:6 4.18157e-05
8 *1565:A1 *463:6 0.000207576
9 *1565:A1 *463:16 0.000314403
10 *1568:B *1569:A1 0.000874667
11 *1568:B *463:34 0.00023706
12 *1463:A1 *1568:B 3.4596e-05
13 *1515:A2 *393:8 9.62885e-05
14 *1563:B *1568:B 0.000458096
15 *1563:C *1568:B 0.000103788
16 *1564:A1 *393:8 0
17 *1564:A2 *393:8 1.64684e-05
18 *1595:A2 *1568:B 2.46957e-05
19 *1595:A2 *393:8 0.000177246
20 *138:6 *393:8 2.04597e-06
21 *138:12 *1565:A1 0.000477603
22 *138:12 *1568:B 0.0011582
23 *138:21 *1568:B 0.000376528
24 *138:71 *393:8 1.03286e-05
25 *139:40 *393:8 2.6374e-05
26 *356:14 *1565:A1 3.44892e-05
27 *360:12 *393:8 0.000265501
*RES
1 *1560:ZN *393:8 11.392 
2 *393:8 *1565:A1 12.952 
3 *393:8 *1568:B 13.576 
*END

*D_NET *394 0.00986352
*CONN
*I *1569:A1 I *D gf180mcu_fd_sc_mcu7t5v0__aoi21_1
*I *1562:A2 I *D gf180mcu_fd_sc_mcu7t5v0__nand2_1
*I *1561:ZN O *D gf180mcu_fd_sc_mcu7t5v0__nand3_1
*CAP
1 *1569:A1 0.000781051
2 *1562:A2 0.000558749
3 *1561:ZN 0.000129978
4 *394:6 0.00146978
5 *1562:A2 *1565:A2 0.000473099
6 *1562:A2 *1607:A2 0.000370537
7 *1562:A2 *485:28 0.000322862
8 *1569:A1 *1570:A2 0.0009446
9 *1569:A1 *422:14 0.000297057
10 *1569:A1 *422:45 3.4596e-05
11 *1569:A1 *463:16 7.80011e-05
12 *1569:A1 *463:34 0.000179413
13 *1569:A1 *472:26 0.000322056
14 *1569:A1 *485:20 0.000283451
15 *394:6 *1565:A2 0.000447709
16 *1515:A2 *1569:A1 0
17 *1565:A1 *1562:A2 0.000155408
18 *1565:A1 *1569:A1 0.000841996
19 *1565:A1 *394:6 4.18157e-05
20 *1568:B *1569:A1 0.000874667
21 *1569:B *1569:A1 0.000230514
22 *1671:D *1562:A2 4.07817e-05
23 *1671:D *1569:A1 0.000972031
24 *1679:D *1569:A1 4.67771e-06
25 *138:6 *394:6 0
26 *138:71 *394:6 0
27 *356:14 *1569:A1 8.6943e-06
*RES
1 *1561:ZN *394:6 5.852 
2 *394:6 *1562:A2 19.428 
3 *394:6 *1569:A1 24.524 
*END

*D_NET *395 0.00246405
*CONN
*I *1566:A2 I *D gf180mcu_fd_sc_mcu7t5v0__and2_1
*I *1562:ZN O *D gf180mcu_fd_sc_mcu7t5v0__nand2_1
*CAP
1 *1566:A2 0.000553412
2 *1562:ZN 0.000553412
3 *1566:A2 *1671:CLK 6.63337e-05
4 *1566:A2 *472:63 5.158e-05
5 *1665:D *1566:A2 5.37622e-05
6 *1680:D *1566:A2 0.000126515
7 *1782:I *1566:A2 2.36218e-05
8 *127:16 *1566:A2 0.00103541
*RES
1 *1562:ZN *1566:A2 23.824 
*END

*D_NET *396 0.00215735
*CONN
*I *1568:A1 I *D gf180mcu_fd_sc_mcu7t5v0__oai21_1
*I *1564:C I *D gf180mcu_fd_sc_mcu7t5v0__aoi211_1
*I *1563:ZN O *D gf180mcu_fd_sc_mcu7t5v0__aoi211_1
*CAP
1 *1568:A1 2.91602e-05
2 *1564:C 0.000118225
3 *1563:ZN 0.000152368
4 *396:6 0.000299753
5 *1564:C *422:45 0.000122244
6 *1564:C *472:26 0.000113027
7 *1568:A1 *1570:A1 3.4596e-05
8 *396:6 *1570:A1 0.000398121
9 *396:6 *472:26 7.15269e-06
10 *1563:B *1568:A1 2.14739e-05
11 *1563:B *396:6 0.000233749
12 *1595:A1 *1568:A1 2.14739e-05
13 *1595:A1 *396:6 8.04335e-05
14 *138:25 *1564:C 0.000334711
15 *139:51 *1564:C 1.67036e-05
16 *292:16 *1564:C 0.000174156
*RES
1 *1563:ZN *396:6 6.268 
2 *396:6 *1564:C 15.164 
3 *396:6 *1568:A1 4.812 
*END

*D_NET *397 0.0042848
*CONN
*I *1565:A2 I *D gf180mcu_fd_sc_mcu7t5v0__aoi21_1
*I *1564:ZN O *D gf180mcu_fd_sc_mcu7t5v0__aoi211_1
*CAP
1 *1565:A2 0.000477576
2 *1564:ZN 0.000477576
3 *1565:A2 *1464:A2 0.000254486
4 *1565:A2 *486:12 0.000114274
5 *1565:A2 *486:25 1.40331e-05
6 *1561:A3 *1565:A2 0.000463172
7 *1562:A2 *1565:A2 0.000473099
8 *138:71 *1565:A2 4.52811e-05
9 *356:14 *1565:A2 0.00151759
10 *394:6 *1565:A2 0.000447709
*RES
1 *1564:ZN *1565:A2 24.864 
*END

*D_NET *398 0.00110518
*CONN
*I *1566:A1 I *D gf180mcu_fd_sc_mcu7t5v0__and2_1
*I *1565:ZN O *D gf180mcu_fd_sc_mcu7t5v0__aoi21_1
*CAP
1 *1566:A1 0.000482276
2 *1565:ZN 0.000482276
3 *1566:A1 *1758:I 9.59851e-05
4 *1566:A1 *486:12 4.46438e-05
*RES
1 *1565:ZN *1566:A1 12.328 
*END

*D_NET *399 0.00183268
*CONN
*I *1568:A2 I *D gf180mcu_fd_sc_mcu7t5v0__oai21_1
*I *1567:ZN O *D gf180mcu_fd_sc_mcu7t5v0__aoi21_1
*CAP
1 *1568:A2 0.000284152
2 *1567:ZN 0.000284152
3 *1568:A2 *1595:A3 0.000188231
4 *1568:A2 *486:52 0.000188241
5 *1516:A2 *1568:A2 3.4596e-05
6 *1567:B *1568:A2 1.8751e-05
7 *1590:A2 *1568:A2 2.64466e-05
8 *138:25 *1568:A2 1.23478e-05
9 *138:40 *1568:A2 2.76472e-05
10 *139:68 *1568:A2 0.00072589
11 *292:16 *1568:A2 4.22226e-05
*RES
1 *1567:ZN *1568:A2 20.704 
*END

*D_NET *400 0.00375917
*CONN
*I *1570:A1 I *D gf180mcu_fd_sc_mcu7t5v0__aoi21_1
*I *1568:ZN O *D gf180mcu_fd_sc_mcu7t5v0__oai21_1
*CAP
1 *1570:A1 0.000425713
2 *1568:ZN 0.000425713
3 *1570:A1 *1595:A3 0.000639156
4 *1570:A1 *463:34 3.51644e-05
5 *1570:A1 *483:63 8.79431e-05
6 *1570:A1 *485:20 0.000921609
7 *1516:A4 *1570:A1 5.25526e-05
8 *1563:A1 *1570:A1 0.000187586
9 *1568:A1 *1570:A1 3.4596e-05
10 *1595:A1 *1570:A1 0.000398132
11 *1595:A2 *1570:A1 9.00226e-05
12 *292:16 *1570:A1 6.28659e-05
13 *317:12 *1570:A1 0
14 *396:6 *1570:A1 0.000398121
*RES
1 *1568:ZN *1570:A1 23.928 
*END

*D_NET *401 0.00289453
*CONN
*I *1570:A2 I *D gf180mcu_fd_sc_mcu7t5v0__aoi21_1
*I *1569:ZN O *D gf180mcu_fd_sc_mcu7t5v0__aoi21_1
*CAP
1 *1570:A2 0.000494361
2 *1569:ZN 0.000494361
3 *1570:A2 *1441:A2 9.99253e-06
4 *1570:A2 *1443:A1 8.35178e-06
5 *1570:A2 *1607:A2 9.89533e-06
6 *1515:A2 *1570:A2 0
7 *1569:A1 *1570:A2 0.0009446
8 *1569:B *1570:A2 0.000788625
9 *1666:D *1570:A2 0.000144343
*RES
1 *1569:ZN *1570:A2 23.616 
*END

*D_NET *402 0.00124135
*CONN
*I *1572:A2 I *D gf180mcu_fd_sc_mcu7t5v0__nand3_1
*I *1571:ZN O *D gf180mcu_fd_sc_mcu7t5v0__oai211_1
*CAP
1 *1572:A2 0.000438369
2 *1571:ZN 0.000438369
3 *1554:A3 *1572:A2 3.60627e-05
4 *1556:A4 *1572:A2 0
5 *297:14 *1572:A2 0.000113027
6 *388:12 *1572:A2 0.000215526
*RES
1 *1571:ZN *1572:A2 20.912 
*END

*D_NET *403 0.013864
*CONN
*I *1583:A2 I *D gf180mcu_fd_sc_mcu7t5v0__nor3_1
*I *1588:A2 I *D gf180mcu_fd_sc_mcu7t5v0__oai31_1
*I *1578:A2 I *D gf180mcu_fd_sc_mcu7t5v0__oai21_1
*I *1592:A2 I *D gf180mcu_fd_sc_mcu7t5v0__oai21_1
*I *1573:A2 I *D gf180mcu_fd_sc_mcu7t5v0__nor2_1
*I *1572:ZN O *D gf180mcu_fd_sc_mcu7t5v0__nand3_1
*CAP
1 *1583:A2 0
2 *1588:A2 0.00043652
3 *1578:A2 0.000127699
4 *1592:A2 0
5 *1573:A2 6.62202e-05
6 *1572:ZN 0.00209817
7 *403:41 0.000127699
8 *403:30 0.000558588
9 *403:28 0.000928888
10 *403:26 0.00209817
11 *1573:A2 *1670:CLK 0
12 *1578:A2 *404:30 9.56679e-05
13 *1588:A2 *1594:A1 0
14 *1588:A2 *487:26 0.000102352
15 *403:26 *1467:A2 0.000220507
16 *403:26 *1469:A2 1.12327e-05
17 *403:26 *1531:A1 0.000480688
18 *403:26 *1531:A2 0.000499674
19 *403:26 *1554:A1 1.36398e-06
20 *403:26 *1556:A1 8.44565e-06
21 *403:26 *1583:A3 0.000476175
22 *403:26 *480:38 0.000694817
23 *403:26 *487:83 0.000105621
24 *403:26 *563:34 0.000460056
25 *403:26 *563:86 2.88467e-05
26 *403:30 *1670:CLK 0
27 *403:30 *487:26 1.99254e-05
28 *1462:A2 *403:26 0
29 *1469:A1 *403:26 0.00017137
30 *1469:B2 *403:26 0
31 *1475:A1 *403:26 2.96056e-06
32 *1549:B *403:26 1.58141e-05
33 *1554:A3 *403:26 0.000122244
34 *1554:A4 *403:26 0.00010924
35 *1556:A2 *403:26 1.19103e-05
36 *1560:A1 *403:26 0
37 *1573:A1 *1573:A2 4.58667e-05
38 *1577:B2 *403:30 3.61986e-05
39 *1578:A1 *1578:A2 0.000218453
40 *1585:A2 *403:26 0.00255452
41 *1588:A1 *1588:A2 0.000238332
42 *1588:A1 *403:30 4.26091e-05
43 *126:30 *403:30 5.19951e-05
44 *385:23 *1573:A2 8.23372e-05
45 *385:23 *403:30 5.23324e-05
46 *385:39 *403:30 0.000330105
47 *387:8 *403:26 0.000100568
48 *389:8 *403:26 2.98389e-05
*RES
1 *1572:ZN *403:26 37.996 
2 *403:26 *403:28 4.5 
3 *403:28 *403:30 3.432 
4 *403:30 *1573:A2 9.728 
5 *403:30 *403:41 4.5 
6 *403:41 *1592:A2 4.5 
7 *403:41 *1578:A2 6.06 
8 *403:28 *1588:A2 12.016 
9 *403:26 *1583:A2 4.5 
*END

*D_NET *404 0.00895362
*CONN
*I *1580:A1 I *D gf180mcu_fd_sc_mcu7t5v0__aoi21_1
*I *1584:A2 I *D gf180mcu_fd_sc_mcu7t5v0__nor2_1
*I *1586:A1 I *D gf180mcu_fd_sc_mcu7t5v0__nand2_1
*I *1594:A2 I *D gf180mcu_fd_sc_mcu7t5v0__aoi21_1
*I *1573:ZN O *D gf180mcu_fd_sc_mcu7t5v0__nor2_1
*CAP
1 *1580:A1 1.80171e-05
2 *1584:A2 0.000952192
3 *1586:A1 0.000767464
4 *1594:A2 0.000216274
5 *1573:ZN 0
6 *404:30 0.00151367
7 *404:6 0.00107875
8 *404:4 0.000638464
9 *1580:A1 *1580:A2 2.38773e-05
10 *1580:A1 *1580:B 3.42651e-05
11 *1584:A2 *1509:A2 0
12 *1584:A2 *1580:A2 0.000407553
13 *1584:A2 *1580:B 1.61847e-05
14 *1584:A2 *1584:A1 0.000145815
15 *1584:A2 *1585:A1 0
16 *1584:A2 *480:14 1.91996e-05
17 *1584:A2 *488:10 0.00020084
18 *1584:A2 *517:10 0
19 *1584:A2 *563:34 0
20 *1586:A1 *1594:A1 8.86794e-05
21 *1594:A2 *1812:I 0.000134752
22 *404:6 *1812:I 1.02007e-05
23 *404:30 *1579:A1 2.98389e-05
24 *404:30 *1580:A2 2.38656e-05
25 *404:30 *1580:B 0.000193782
26 *404:30 *1812:I 4.71514e-05
27 *1573:A1 *1586:A1 4.38131e-05
28 *1577:A2 *1584:A2 0.000615959
29 *1577:B2 *404:30 1.80703e-05
30 *1578:A1 *404:30 7.18755e-06
31 *1578:A2 *404:30 9.56679e-05
32 *1579:A2 *404:30 2.73715e-06
33 *1588:A1 *1586:A1 5.22953e-05
34 *1592:B *1586:A1 0.000161016
35 *1668:D *1584:A2 3.50523e-05
36 *1670:D *1594:A2 0.000140368
37 *292:33 *1584:A2 0.000687162
38 *316:44 *1584:A2 9.13171e-05
39 *352:8 *1584:A2 2.85674e-05
40 *385:12 *1594:A2 5.51177e-05
41 *385:12 *404:6 8.13929e-05
42 *385:12 *404:30 1.07369e-05
43 *385:23 *1586:A1 8.39601e-05
44 *385:39 *1586:A1 0.00018237
*RES
1 *1573:ZN *404:4 4.5 
2 *404:4 *404:6 0.728 
3 *404:6 *1594:A2 7.308 
4 *404:6 *1586:A1 18.596 
5 *404:4 *404:30 4.68 
6 *404:30 *1584:A2 21.196 
7 *404:30 *1580:A1 4.812 
*END

*D_NET *405 0.00621845
*CONN
*I *1577:A1 I *D gf180mcu_fd_sc_mcu7t5v0__aoi22_1
*I *1574:ZN O *D gf180mcu_fd_sc_mcu7t5v0__aoi211_1
*CAP
1 *1577:A1 0.0010143
2 *1574:ZN 0.0010143
3 *1577:A1 *1553:B1 0.000121719
4 *1577:A1 *1580:A2 0.000103788
5 *1577:A1 *1593:A1 3.42651e-05
6 *1577:A1 *487:26 0.000285235
7 *1577:A1 *563:34 2.38656e-05
8 *1577:A1 *563:44 2.6732e-05
9 *1476:A1 *1577:A1 1.79405e-05
10 *1508:B *1577:A1 0.000267016
11 *1577:B1 *1577:A1 0.000128449
12 *1578:B *1577:A1 0.000269917
13 *1582:A3 *1577:A1 1.73223e-05
14 *1592:B *1577:A1 0.00062995
15 *1593:A2 *1577:A1 0.000487599
16 *126:8 *1577:A1 6.73915e-06
17 *126:10 *1577:A1 0.000796445
18 *134:12 *1577:A1 0.000268435
19 *301:10 *1577:A1 0.000125105
20 *316:31 *1577:A1 0.00057933
*RES
1 *1574:ZN *1577:A1 21.688 
*END

*D_NET *406 0.000437494
*CONN
*I *1576:B I *D gf180mcu_fd_sc_mcu7t5v0__aoi21_1
*I *1575:ZN O *D gf180mcu_fd_sc_mcu7t5v0__nand4_1
*CAP
1 *1576:B 0.00010226
2 *1575:ZN 0.00010226
3 *1480:B *1576:B 5.75541e-05
4 *1576:A1 *1576:B 1.71326e-05
5 *139:80 *1576:B 0.000158287
*RES
1 *1575:ZN *1576:B 10.144 
*END

*D_NET *407 0.00163086
*CONN
*I *1591:A2 I *D gf180mcu_fd_sc_mcu7t5v0__oai21_1
*I *1576:ZN O *D gf180mcu_fd_sc_mcu7t5v0__aoi21_1
*CAP
1 *1591:A2 0.000301208
2 *1576:ZN 0.000301208
3 *1591:A2 *1587:A1 1.94951e-05
4 *1591:A2 *487:142 0.000985274
5 *1591:A2 *489:12 2.36792e-05
*RES
1 *1576:ZN *1591:A2 20.6 
*END

*D_NET *408 0.00111151
*CONN
*I *1580:A2 I *D gf180mcu_fd_sc_mcu7t5v0__aoi21_1
*I *1577:ZN O *D gf180mcu_fd_sc_mcu7t5v0__aoi22_1
*CAP
1 *1580:A2 0.000202056
2 *1577:ZN 0.000202056
3 *1580:A2 *1580:B 7.11788e-06
4 *1577:A1 *1580:A2 0.000103788
5 *1577:B1 *1580:A2 0.000103788
6 *1577:B2 *1580:A2 3.32327e-05
7 *1579:A2 *1580:A2 0
8 *1580:A1 *1580:A2 2.38773e-05
9 *1584:A2 *1580:A2 0.000407553
10 *316:44 *1580:A2 4.17589e-06
11 *404:30 *1580:A2 2.38656e-05
*RES
1 *1577:ZN *1580:A2 19.976 
*END

*D_NET *409 0.00033827
*CONN
*I *1579:A1 I *D gf180mcu_fd_sc_mcu7t5v0__nand2_1
*I *1578:ZN O *D gf180mcu_fd_sc_mcu7t5v0__oai21_1
*CAP
1 *1579:A1 6.85785e-05
2 *1578:ZN 6.85785e-05
3 *1577:B2 *1579:A1 5.64251e-05
4 *1579:A2 *1579:A1 0.000114849
5 *404:30 *1579:A1 2.98389e-05
*RES
1 *1578:ZN *1579:A1 9.728 
*END

*D_NET *410 0.000865437
*CONN
*I *1580:B I *D gf180mcu_fd_sc_mcu7t5v0__aoi21_1
*I *1579:ZN O *D gf180mcu_fd_sc_mcu7t5v0__nand2_1
*CAP
1 *1580:B 0.000264296
2 *1579:ZN 0.000264296
3 *1580:B *1670:CLK 0
4 *1580:B *1812:I 6.69436e-05
5 *1580:B *516:8 1.85523e-05
6 *1580:A1 *1580:B 3.42651e-05
7 *1580:A2 *1580:B 7.11788e-06
8 *1584:A2 *1580:B 1.61847e-05
9 *404:30 *1580:B 0.000193782
*RES
1 *1579:ZN *1580:B 20.704 
*END

*D_NET *411 0.00208174
*CONN
*I *1582:A2 I *D gf180mcu_fd_sc_mcu7t5v0__nor4_1
*I *1586:A2 I *D gf180mcu_fd_sc_mcu7t5v0__nand2_1
*I *1581:ZN O *D gf180mcu_fd_sc_mcu7t5v0__nor2_1
*CAP
1 *1582:A2 0
2 *1586:A2 0.000370708
3 *1581:ZN 0.000247155
4 *411:10 0.000617864
5 *1586:A2 *1583:A3 0.000133946
6 *1586:A2 *1594:A1 3.45021e-05
7 *411:10 *490:8 0.000160696
8 *411:10 *490:14 0.000109233
9 *411:10 *563:34 0.000181969
10 *1460:A2 *1586:A2 0.000118399
11 *1582:A4 *1586:A2 0.000107272
*RES
1 *1581:ZN *411:10 6.684 
2 *411:10 *1586:A2 15.788 
3 *411:10 *1582:A2 4.5 
*END

*D_NET *412 0.00146057
*CONN
*I *1583:A3 I *D gf180mcu_fd_sc_mcu7t5v0__nor3_1
*I *1582:ZN O *D gf180mcu_fd_sc_mcu7t5v0__nor4_1
*CAP
1 *1583:A3 0.000243575
2 *1582:ZN 0.000243575
3 *1583:A3 *490:8 0.000316249
4 *1583:A3 *563:34 7.18755e-06
5 *1460:A2 *1583:A3 3.98599e-05
6 *1586:A2 *1583:A3 0.000133946
7 *403:26 *1583:A3 0.000476175
*RES
1 *1582:ZN *1583:A3 11.6 
*END

*D_NET *413 0.00140302
*CONN
*I *1585:A3 I *D gf180mcu_fd_sc_mcu7t5v0__nor3_1
*I *1583:ZN O *D gf180mcu_fd_sc_mcu7t5v0__nor3_1
*CAP
1 *1585:A3 0.000390345
2 *1583:ZN 0.000390345
3 *1585:A3 *487:26 3.55539e-05
4 *1585:A3 *563:34 0.00013281
5 *1476:A1 *1585:A3 0.000177804
6 *126:8 *1585:A3 9.76253e-05
7 *126:10 *1585:A3 0.000178541
*RES
1 *1583:ZN *1585:A3 12.744 
*END

*D_NET *414 0.00204865
*CONN
*I *1585:A1 I *D gf180mcu_fd_sc_mcu7t5v0__nor3_1
*I *1584:ZN O *D gf180mcu_fd_sc_mcu7t5v0__nor2_1
*CAP
1 *1585:A1 0.000508274
2 *1584:ZN 0.000508274
3 *1585:A1 *1476:B 0.000141529
4 *1585:A1 *474:23 0
5 *1585:A1 *488:10 5.12872e-06
6 *1585:A1 *563:34 0.00030117
7 *1507:A2 *1585:A1 0.000394668
8 *1507:A3 *1585:A1 7.97992e-05
9 *1510:A1 *1585:A1 0.000106581
10 *1510:A2 *1585:A1 3.22441e-06
11 *1584:A2 *1585:A1 0
*RES
1 *1584:ZN *1585:A1 22.16 
*END

*D_NET *415 0.00282677
*CONN
*I *1589:A2 I *D gf180mcu_fd_sc_mcu7t5v0__aoi21_1
*I *1586:ZN O *D gf180mcu_fd_sc_mcu7t5v0__nand2_1
*CAP
1 *1589:A2 0.000462044
2 *1586:ZN 0.000462044
3 *1589:A2 *480:14 0.000186095
4 *1589:A2 *563:34 0
5 *1460:A2 *1589:A2 0.00109245
6 *1588:A1 *1589:A2 6.64873e-05
7 *1588:B *1589:A2 0.00055766
*RES
1 *1586:ZN *1589:A2 14.616 
*END

*D_NET *416 0.00278238
*CONN
*I *1590:C I *D gf180mcu_fd_sc_mcu7t5v0__oai221_1
*I *1588:A3 I *D gf180mcu_fd_sc_mcu7t5v0__oai31_1
*I *1587:ZN O *D gf180mcu_fd_sc_mcu7t5v0__nand3_1
*CAP
1 *1590:C 0.000253565
2 *1588:A3 0.000355539
3 *1587:ZN 0
4 *416:4 0.000609104
5 *1588:A3 *1587:A3 3.43535e-05
6 *1588:A3 *1594:A1 0
7 *1588:A3 *487:26 5.38485e-05
8 *1588:A3 *487:142 0
9 *1590:C *1587:A2 0.00070471
10 *1590:C *1591:B 0.000428184
11 *1590:C *1597:A1 0.000199544
12 *1590:C *489:25 0
13 *1460:A1 *1588:A3 0
14 *1590:A2 *1590:C 1.71326e-05
15 *1591:A1 *1590:C 0.000126399
*RES
1 *1587:ZN *416:4 4.5 
2 *416:4 *1588:A3 15.684 
3 *416:4 *1590:C 8.244 
*END

*D_NET *417 0.00169407
*CONN
*I *1589:B I *D gf180mcu_fd_sc_mcu7t5v0__aoi21_1
*I *1588:ZN O *D gf180mcu_fd_sc_mcu7t5v0__oai31_1
*CAP
1 *1589:B 0.000300168
2 *1588:ZN 0.000300168
3 *1589:B *1669:CLK 0.000176685
4 *1589:B *480:14 0.000164193
5 *1589:B *488:27 7.20834e-05
6 *1589:A1 *1589:B 0.000166817
7 *124:33 *1589:B 0.000513957
*RES
1 *1588:ZN *1589:B 12.744 
*END

*D_NET *418 0.00106152
*CONN
*I *1591:B I *D gf180mcu_fd_sc_mcu7t5v0__oai21_1
*I *1590:ZN O *D gf180mcu_fd_sc_mcu7t5v0__oai221_1
*CAP
1 *1591:B 0.000211738
2 *1590:ZN 0.000211738
3 *1591:B *1594:A1 1.60428e-05
4 *1591:B *489:25 8.52456e-06
5 *1590:A1 *1591:B 0.000185295
6 *1590:C *1591:B 0.000428184
7 *1591:A1 *1591:B 0
*RES
1 *1590:ZN *1591:B 11.184 
*END

*D_NET *419 0.00572039
*CONN
*I *1594:A1 I *D gf180mcu_fd_sc_mcu7t5v0__aoi21_1
*I *1591:ZN O *D gf180mcu_fd_sc_mcu7t5v0__oai21_1
*CAP
1 *1594:A1 0.00128567
2 *1591:ZN 0.00128567
3 *1594:A1 *1593:A1 0.000181411
4 *1594:A1 *487:142 0.00020333
5 *1594:A1 *488:83 0.00028269
6 *1594:A1 *488:94 0.000157235
7 *1594:A1 *489:25 5.13977e-05
8 *1594:A1 *563:34 0
9 *1460:A2 *1594:A1 3.76146e-05
10 *1582:A4 *1594:A1 1.21147e-05
11 *1586:A1 *1594:A1 8.86794e-05
12 *1586:A2 *1594:A1 3.45021e-05
13 *1588:A2 *1594:A1 0
14 *1588:A3 *1594:A1 0
15 *1590:A1 *1594:A1 3.44395e-05
16 *1591:A1 *1594:A1 7.87395e-06
17 *1591:B *1594:A1 1.60428e-05
18 *1592:B *1594:A1 0.00147488
19 *305:8 *1594:A1 0.000125979
20 *316:31 *1594:A1 1.23682e-05
21 *385:12 *1594:A1 0.000428493
*RES
1 *1591:ZN *1594:A1 29.856 
*END

*D_NET *420 0.00167668
*CONN
*I *1593:A1 I *D gf180mcu_fd_sc_mcu7t5v0__nand2_1
*I *1592:ZN O *D gf180mcu_fd_sc_mcu7t5v0__oai21_1
*CAP
1 *1593:A1 0.000416284
2 *1592:ZN 0.000416284
3 *1593:A1 *486:109 0
4 *1577:A1 *1593:A1 3.42651e-05
5 *1578:A1 *1593:A1 3.4596e-05
6 *1593:A2 *1593:A1 0.000113016
7 *1594:A1 *1593:A1 0.000181411
8 *316:31 *1593:A1 0.000366126
9 *385:12 *1593:A1 0.000114701
*RES
1 *1592:ZN *1593:A1 21.848 
*END

*D_NET *421 0.000124964
*CONN
*I *1594:B I *D gf180mcu_fd_sc_mcu7t5v0__aoi21_1
*I *1593:ZN O *D gf180mcu_fd_sc_mcu7t5v0__nand2_1
*CAP
1 *1594:B 6.18154e-05
2 *1593:ZN 6.18154e-05
3 *1470:A1 *1594:B 1.33325e-06
*RES
1 *1593:ZN *1594:B 9.52 
*END

*D_NET *422 0.0245388
*CONN
*I *1791:I I *D gf180mcu_fd_sc_mcu7t5v0__buf_2
*I *1601:S I *D gf180mcu_fd_sc_mcu7t5v0__mux2_2
*I *1600:A1 I *D gf180mcu_fd_sc_mcu7t5v0__oai21_1
*I *1598:A1 I *D gf180mcu_fd_sc_mcu7t5v0__oai21_1
*I *1596:S I *D gf180mcu_fd_sc_mcu7t5v0__mux2_2
*I *1595:ZN O *D gf180mcu_fd_sc_mcu7t5v0__nor4_1
*CAP
1 *1791:I 0.000287303
2 *1601:S 0.00085869
3 *1600:A1 0
4 *1598:A1 0
5 *1596:S 0
6 *1595:ZN 0.000238658
7 *422:52 0.000756697
8 *422:45 0.00267906
9 *422:14 0.00273241
10 *1601:S *1260:I 0.000428914
11 *1601:S *1499:A2 0.000271774
12 *1601:S *1600:B 7.87395e-06
13 *1601:S *1601:I0 0.000122244
14 *1601:S *1601:I1 1.85662e-05
15 *1601:S *483:57 5.47431e-06
16 *1791:I *1601:I0 3.50983e-05
17 *1791:I *1601:I1 5.13977e-05
18 *1791:I *466:34 8.12098e-05
19 *422:14 *1596:I1 0
20 *422:14 *1607:A2 5.64714e-05
21 *422:14 *1758:I 7.93961e-05
22 *422:14 *463:16 0.000235806
23 *422:14 *472:26 9.58004e-06
24 *422:14 *484:27 0.000730711
25 *422:45 *1587:A3 0.000406972
26 *422:45 *1590:B2 0.000607646
27 *422:45 *1597:A1 0.000203955
28 *422:45 *1598:B 0.000422811
29 *422:45 *1599:A1 0
30 *422:45 *1600:B 0.000501785
31 *422:45 *1747:I 1.02379e-05
32 *422:45 *472:26 0.000550441
33 *422:45 *483:57 5.89755e-05
34 *422:45 *486:117 0.000258741
35 *422:45 *487:30 0.000323375
36 *422:45 *487:36 0.00140901
37 *422:45 *487:52 0.000235806
38 *422:45 *488:43 0.000873214
39 *422:45 *488:47 0.000325488
40 *422:45 *490:38 6.72756e-05
41 *422:45 *490:46 0.000113016
42 *422:45 *563:86 4.29477e-05
43 *422:45 *563:90 7.65651e-05
44 *422:45 *563:96 8.95256e-06
45 *422:52 *1600:B 0.000126878
46 *422:52 *483:57 4.30466e-05
47 *1460:A1 *422:45 0.000427061
48 *1497:A1 *1601:S 0.000129604
49 *1501:A1 *1601:S 0.000337289
50 *1501:A3 *1601:S 0.000317921
51 *1532:A4 *422:45 0.000626863
52 *1538:A3 *422:45 0
53 *1548:A1 *422:45 0.000176038
54 *1555:A3 *422:45 0.00047924
55 *1561:A3 *422:45 0.000367796
56 *1564:C *422:45 0.000122244
57 *1569:A1 *422:14 0.000297057
58 *1569:A1 *422:45 3.4596e-05
59 *1571:B *422:45 6.40402e-05
60 *1591:A1 *422:45 4.98352e-05
61 *1595:A1 *422:14 0.000188403
62 *1598:A2 *1601:S 0
63 *1600:A2 *1601:S 0.000107711
64 *1668:D *422:45 0.00033778
65 *1672:D *422:45 0.00033778
66 *1672:D *422:52 4.07478e-05
67 *124:14 *422:45 0.000159376
68 *136:23 *1601:S 6.92168e-05
69 *294:21 *422:45 0.000476175
70 *307:12 *422:45 4.89977e-05
71 *309:8 *422:45 0.000636062
72 *309:35 *422:45 0.000218934
73 *316:61 *422:45 0.000442217
74 *316:71 *422:45 5.57504e-05
75 *316:142 *422:45 9.35542e-06
76 *343:18 *1601:S 0.00101708
77 *356:14 *422:45 0.000147292
78 *356:21 *422:45 3.10673e-05
79 *356:72 *422:45 0.000158662
80 *359:72 *422:45 1.07369e-05
81 *370:23 *422:45 0.000261413
*RES
1 *1595:ZN *422:14 16.932 
2 *422:14 *1596:S 4.5 
3 *422:14 *422:45 41.136 
4 *422:45 *1598:A1 4.5 
5 *422:45 *422:52 1.976 
6 *422:52 *1600:A1 4.5 
7 *422:52 *1601:S 21.3 
8 *1601:S *1791:I 11.496 
*END

*D_NET *423 0.00193058
*CONN
*I *1598:B I *D gf180mcu_fd_sc_mcu7t5v0__oai21_1
*I *1597:ZN O *D gf180mcu_fd_sc_mcu7t5v0__nand4_1
*CAP
1 *1598:B 0.000536306
2 *1597:ZN 0.000536306
3 *1598:B *483:57 0.000288497
4 *1668:D *1598:B 7.16472e-05
5 *316:61 *1598:B 7.5013e-05
6 *422:45 *1598:B 0.000422811
*RES
1 *1597:ZN *1598:B 14.408 
*END

*D_NET *424 0.00234277
*CONN
*I *1600:B I *D gf180mcu_fd_sc_mcu7t5v0__oai21_1
*I *1599:ZN O *D gf180mcu_fd_sc_mcu7t5v0__nand4_1
*CAP
1 *1600:B 0.000817292
2 *1599:ZN 0.000817292
3 *1600:B *1599:A1 0
4 *1600:B *464:6 0
5 *1601:S *1600:B 7.87395e-06
6 *1672:D *1600:B 7.16472e-05
7 *136:6 *1600:B 0
8 *136:23 *1600:B 0
9 *422:45 *1600:B 0.000501785
10 *422:52 *1600:B 0.000126878
*RES
1 *1599:ZN *1600:B 15.968 
*END

*D_NET *425 0.0552955
*CONN
*I *1621:B1 I *D gf180mcu_fd_sc_mcu7t5v0__aoi22_1
*I *1613:B1 I *D gf180mcu_fd_sc_mcu7t5v0__aoi22_1
*I *1615:B1 I *D gf180mcu_fd_sc_mcu7t5v0__aoi22_1
*I *1619:B1 I *D gf180mcu_fd_sc_mcu7t5v0__aoi22_1
*I *1617:B1 I *D gf180mcu_fd_sc_mcu7t5v0__aoi22_1
*I *1640:A2 I *D gf180mcu_fd_sc_mcu7t5v0__aoi22_1
*I *1642:A2 I *D gf180mcu_fd_sc_mcu7t5v0__aoi22_1
*I *1646:A2 I *D gf180mcu_fd_sc_mcu7t5v0__aoi21_1
*I *1638:A2 I *D gf180mcu_fd_sc_mcu7t5v0__aoi22_1
*I *1636:A2 I *D gf180mcu_fd_sc_mcu7t5v0__aoi22_1
*I *1634:A2 I *D gf180mcu_fd_sc_mcu7t5v0__aoi22_1
*I *1630:A2 I *D gf180mcu_fd_sc_mcu7t5v0__aoi22_1
*I *1632:A2 I *D gf180mcu_fd_sc_mcu7t5v0__aoi22_1
*I *1628:A2 I *D gf180mcu_fd_sc_mcu7t5v0__aoi22_1
*I *1625:B1 I *D gf180mcu_fd_sc_mcu7t5v0__aoi22_1
*I *1623:B1 I *D gf180mcu_fd_sc_mcu7t5v0__aoi22_1
*I *1611:B1 I *D gf180mcu_fd_sc_mcu7t5v0__aoi22_1
*I *1610:ZN O *D gf180mcu_fd_sc_mcu7t5v0__aoi21_1
*CAP
1 *1621:B1 5.17378e-05
2 *1613:B1 0.00014109
3 *1615:B1 0.0001199
4 *1619:B1 2.95829e-05
5 *1617:B1 0.000488998
6 *1640:A2 9.28183e-05
7 *1642:A2 0.0003858
8 *1646:A2 0
9 *1638:A2 0
10 *1636:A2 0
11 *1634:A2 0
12 *1630:A2 8.6983e-05
13 *1632:A2 0
14 *1628:A2 0
15 *1625:B1 0.000183187
16 *1623:B1 0
17 *1611:B1 0.000599214
18 *1610:ZN 0
19 *425:204 0.000850738
20 *425:196 0.000813526
21 *425:174 0.000566185
22 *425:172 0.000527898
23 *425:144 0.00077555
24 *425:133 0.000669209
25 *425:118 0.000614859
26 *425:103 0.000667472
27 *425:96 0.0010026
28 *425:79 0.000815342
29 *425:68 0.000836387
30 *425:53 0.00192607
31 *425:38 0.00155813
32 *425:29 0.000414961
33 *425:25 0.000796488
34 *425:4 0.000807089
35 *1611:B1 *1341:A4 0.000742312
36 *1611:B1 *1413:A1 0.000179413
37 *1611:B1 *1619:A1 0.0013758
38 *1611:B1 *1622:A2 8.35178e-06
39 *1611:B1 *451:49 0.000317994
40 *1611:B1 *451:53 0.00115865
41 *1611:B1 *452:18 0.000404614
42 *1611:B1 *452:20 0.000332849
43 *1613:B1 *1613:A1 0.000113278
44 *1613:B1 *492:23 0.000241241
45 *1615:B1 *1615:A1 9.39768e-05
46 *1615:B1 *1795:I 0.00010357
47 *1617:B1 *1421:A1 0
48 *1617:B1 *1423:A1 1.88794e-05
49 *1617:B1 *1620:A2 0.000149559
50 *1617:B1 *1795:I 3.646e-05
51 *1619:B1 *1421:A1 3.6012e-05
52 *1621:B1 *1621:A1 3.28419e-05
53 *1621:B1 *1798:I 0.000178559
54 *1625:B1 *1626:A2 0.000106926
55 *1625:B1 *1800:I 0.000106926
56 *1630:A2 *1630:A1 0.000158673
57 *1640:A2 *1641:A2 4.97811e-05
58 *1640:A2 *434:108 6.64023e-06
59 *1640:A2 *492:465 4.11062e-06
60 *1642:A2 *1376:A1 8.9207e-06
61 *1642:A2 *1642:A1 0.000106908
62 *1642:A2 *1642:B1 0.00250161
63 *1642:A2 *1643:A2 0.00209876
64 *1642:A2 *434:108 0.000225503
65 *1642:A2 *479:63 0.000152839
66 *1642:A2 *511:14 0.000114359
67 *1642:A2 *558:38 5.29249e-05
68 *1642:A2 *560:10 1.85523e-05
69 *1642:A2 *560:14 6.18411e-06
70 *425:25 *1341:A4 0.000106908
71 *425:29 *1623:A1 9.28422e-05
72 *425:29 *1623:B2 0.000113027
73 *425:29 *1624:A2 0.000536792
74 *425:29 *477:33 4.1048e-06
75 *425:29 *477:35 1.67624e-05
76 *425:38 *477:33 1.05507e-05
77 *425:53 *1325:A2 0.000931361
78 *425:53 *1427:A2 0
79 *425:53 *1628:B2 1.91479e-06
80 *425:53 *1629:A2 2.46717e-05
81 *425:53 *1691:CLK 3.29065e-05
82 *425:53 *1699:CLK 0.000223904
83 *425:53 *1769:I 0.000465544
84 *425:53 *477:33 3.19583e-05
85 *425:53 *577:98 0.000770057
86 *425:53 *580:10 2.45666e-05
87 *425:68 *1325:A2 6.18453e-05
88 *425:68 *1628:A1 6.21972e-06
89 *425:68 *1628:B1 0.000265863
90 *425:68 *1769:I 0.00110723
91 *425:79 *1632:A1 0.000196336
92 *425:79 *1769:I 0.000188403
93 *425:79 *492:446 0.000962298
94 *425:96 *1634:A1 5.37445e-05
95 *425:96 *1634:B2 4.4504e-06
96 *425:96 *1692:CLK 0.000870766
97 *425:96 *434:61 0
98 *425:96 *479:151 0.000260682
99 *425:96 *492:446 0.000505222
100 *425:96 *492:465 0.000223462
101 *425:103 *1635:A2 0.00139488
102 *425:103 *1636:A1 4.07478e-05
103 *425:103 *1695:CLK 0.000580926
104 *425:103 *434:74 0.000185341
105 *425:118 *1636:A1 0.000288492
106 *425:118 *1695:CLK 0.000510075
107 *425:118 *434:81 0.000183604
108 *425:118 *434:94 7.60693e-05
109 *425:133 *1376:A1 0.000159505
110 *425:133 *1639:A2 0.000654535
111 *425:133 *1646:B 1.67036e-05
112 *425:133 *434:94 1.07369e-05
113 *425:133 *434:108 3.56569e-05
114 *425:144 *1376:A1 0.000112585
115 *425:144 *1643:A1 0
116 *425:144 *434:108 0.000255666
117 *425:144 *492:465 0.000103651
118 *425:172 *1421:A1 2.46717e-05
119 *425:172 *477:35 8.42233e-05
120 *425:172 *477:41 0.000562319
121 *425:174 *1341:A4 2.46957e-05
122 *425:174 *1795:I 0.000122322
123 *425:196 *1341:A4 9.423e-05
124 *425:196 *1622:A2 0
125 *425:196 *1795:I 0.000311108
126 *425:204 *1615:A1 0.000160566
127 *425:204 *1795:I 0.000466691
128 ADDR_O[0] *1613:B1 3.52832e-05
129 ADDR_O[4] *425:25 0.000165879
130 ADDR_O[4] *425:172 6.58778e-05
131 ADDR_O[5] *425:204 0.00165808
132 ADDR_O[6] *1611:B1 0
133 ADDR_O[6] *1625:B1 0.00196923
134 ADDR_O[6] *425:25 0
135 ADDR_O[7] *1625:B1 7.7118e-06
136 CYC_O *425:133 0
137 DAT_O[0] *425:96 6.53541e-05
138 DAT_O[1] *425:96 5.08075e-05
139 STB_O *425:118 0.000175765
140 STB_O *425:133 0.000224849
141 *1341:A1 *425:53 0.000160555
142 *1352:A1 *425:96 0.000141017
143 *1376:A2 *425:133 1.823e-05
144 *1378:B *425:96 0.000326839
145 *1378:B *425:103 0.000160439
146 *1422:A1 *425:172 0.000600896
147 *1423:A2 *1611:B1 0.000242172
148 *1426:A1 *1617:B1 0.000667962
149 *1426:A1 *1619:B1 9.7618e-05
150 *1610:A1 *425:53 0
151 *1611:A2 *1611:B1 0.000692791
152 *1617:A2 *1617:B1 0.000140065
153 *1619:A2 *1617:B1 1.03283e-05
154 *1621:A2 *425:172 0.000248324
155 *1621:A2 *425:196 4.09812e-05
156 *1625:A2 *1625:B1 0.0019748
157 *1625:A2 *425:29 2.13874e-05
158 *1625:A2 *425:38 8.06101e-06
159 *1625:A2 *425:53 4.09834e-06
160 *1644:A1 *425:204 2.82894e-06
161 *1689:D *425:25 0.000265775
162 *1689:D *425:172 0.000118926
163 *1690:D *425:204 0.000219921
164 *1692:D *1630:A2 3.95619e-06
165 *1692:D *425:96 0.000192905
166 *1693:D *425:79 0.000175001
167 *1693:D *425:96 7.93873e-05
168 *1696:D *425:133 0.000149923
169 *1696:D *425:144 0.000299284
170 *1723:D *425:172 2.81522e-06
171 *1723:D *425:196 0
172 *1724:D *425:29 0.000247762
173 *1724:D *425:38 0
174 *1779:I *1642:A2 0.000320451
175 *1779:I *425:144 0.000417168
176 *1790:I *425:53 0
177 *140:101 *425:53 0.000160585
178 *242:8 *1611:B1 2.96449e-05
179 *279:18 *1611:B1 1.23478e-05
180 *279:18 *1617:B1 0.000113773
181 *279:40 *1617:B1 0.000153724
182 *279:53 *1617:B1 0.000215295
183 *279:53 *425:174 0.000259344
184 *279:67 *425:172 9.15718e-05
185 *279:67 *425:204 0.000167497
*RES
1 *1610:ZN *425:4 4.5 
2 *425:4 *1611:B1 23.588 
3 *425:4 *425:25 6.788 
4 *425:25 *425:29 7.308 
5 *425:29 *1623:B1 4.5 
6 *425:29 *425:38 0.832 
7 *425:38 *1625:B1 19.74 
8 *425:38 *425:53 10.92 
9 *425:53 *1628:A2 4.5 
10 *425:53 *425:68 24.136 
11 *425:68 *1632:A2 4.5 
12 *425:68 *425:79 7.62 
13 *425:79 *1630:A2 9.52 
14 *425:79 *425:96 12.508 
15 *425:96 *1634:A2 4.5 
16 *425:96 *425:103 5.928 
17 *425:103 *1636:A2 4.5 
18 *425:103 *425:118 3.848 
19 *425:118 *1638:A2 4.5 
20 *425:118 *425:133 13.264 
21 *425:133 *1646:A2 4.5 
22 *425:133 *425:144 8.244 
23 *425:144 *1642:A2 17.944 
24 *425:144 *1640:A2 9.52 
25 *425:25 *425:172 12.952 
26 *425:172 *425:174 0.936 
27 *425:174 *1617:B1 13.576 
28 *425:174 *1619:B1 9.312 
29 *425:172 *425:196 2.184 
30 *425:196 *425:204 11.468 
31 *425:204 *1615:B1 5.436 
32 *425:204 *1613:B1 15.268 
33 *425:196 *1621:B1 9.52 
*END

*D_NET *426 0.0118153
*CONN
*I *1612:A2 I *D gf180mcu_fd_sc_mcu7t5v0__nor2_1
*I *1611:ZN O *D gf180mcu_fd_sc_mcu7t5v0__aoi22_1
*CAP
1 *1612:A2 0.00206631
2 *1611:ZN 0.00206631
3 *1612:A2 *1405:A1 9.35932e-05
4 *1612:A2 *1614:A2 0.00712333
5 *1612:A2 *1620:A2 0.000172464
6 *1612:A2 *492:198 0
7 *1683:D *1612:A2 0.000293318
8 *242:32 *1612:A2 0
*RES
1 *1611:ZN *1612:A2 48.0115 
*END

*D_NET *427 0.0168859
*CONN
*I *1614:A2 I *D gf180mcu_fd_sc_mcu7t5v0__nor2_1
*I *1613:ZN O *D gf180mcu_fd_sc_mcu7t5v0__aoi22_1
*CAP
1 *1614:A2 0.000791641
2 *1613:ZN 0.000791641
3 *1614:A2 *1616:A2 0.00790237
4 *1614:A2 *1618:A2 5.87709e-06
5 *1612:A2 *1614:A2 0.00712333
6 *1685:D *1614:A2 3.20448e-05
7 *1720:D *1614:A2 2.04932e-06
8 *1780:I *1614:A2 0.000236982
*RES
1 *1613:ZN *1614:A2 46.3024 
*END

*D_NET *428 0.0155513
*CONN
*I *1616:A2 I *D gf180mcu_fd_sc_mcu7t5v0__nor2_1
*I *1615:ZN O *D gf180mcu_fd_sc_mcu7t5v0__aoi22_1
*CAP
1 *1616:A2 0.00106499
2 *1615:ZN 0.00106499
3 *1616:A2 *1309:A1 0.000326984
4 *1616:A2 *449:89 2.76896e-06
5 *1616:A2 *477:55 0.000109357
6 *1616:A2 *492:23 0.000168457
7 *1614:A2 *1616:A2 0.00790237
8 *1684:D *1616:A2 0.000509839
9 *1685:D *1616:A2 0.00407817
10 *1686:D *1616:A2 0.000157761
11 *1780:I *1616:A2 0.000165591
12 *242:32 *1616:A2 0
*RES
1 *1615:ZN *1616:A2 48.4864 
*END

*D_NET *429 0.00931768
*CONN
*I *1618:A2 I *D gf180mcu_fd_sc_mcu7t5v0__nor2_1
*I *1617:ZN O *D gf180mcu_fd_sc_mcu7t5v0__aoi22_1
*CAP
1 *1618:A2 0.000826688
2 *1617:ZN 0.000826688
3 *1618:A2 *1615:A1 0.00232457
4 *1618:A2 *1617:A1 0.00123816
5 *1618:A2 *1721:CLK 0.000228035
6 *1618:A2 *1794:I 3.646e-05
7 *1618:A2 *450:10 0.000832916
8 *1618:A2 *450:21 0.000201718
9 *1618:A2 *492:60 0.000513371
10 *1618:A2 *492:62 6.8763e-06
11 *1618:A2 *492:145 6.62609e-05
12 *1404:A2 *1618:A2 0.000114429
13 *1409:A4 *1618:A2 0.000464459
14 *1614:A2 *1618:A2 5.87709e-06
15 *1686:D *1618:A2 0.000337769
16 *1721:D *1618:A2 0.000345571
17 *10:18 *1618:A2 0
18 *131:31 *1618:A2 9.84829e-05
19 *250:38 *1618:A2 0.000102887
20 *257:27 *1618:A2 0.000746465
*RES
1 *1617:ZN *1618:A2 33.184 
*END

*D_NET *430 0.00493572
*CONN
*I *1620:A2 I *D gf180mcu_fd_sc_mcu7t5v0__nor2_1
*I *1619:ZN O *D gf180mcu_fd_sc_mcu7t5v0__aoi22_1
*CAP
1 *1620:A2 0.00106811
2 *1619:ZN 0.00106811
3 *1620:A2 *1421:A1 1.97922e-05
4 *1620:A2 *1613:A1 0.000986212
5 *1620:A2 *1793:I 1.4887e-05
6 *1620:A2 *451:10 0
7 *1620:A2 *477:49 1.74162e-05
8 *1620:A2 *477:55 1.78817e-06
9 *1620:A2 *492:23 0.000504068
10 *1421:A2 *1620:A2 0.000387113
11 *1422:B *1620:A2 6.2763e-05
12 *1612:A2 *1620:A2 0.000172464
13 *1617:B1 *1620:A2 0.000149559
14 *1687:D *1620:A2 0.000414635
15 *1780:I *1620:A2 6.88053e-05
*RES
1 *1619:ZN *1620:A2 29.544 
*END

*D_NET *431 0.00628614
*CONN
*I *1622:A2 I *D gf180mcu_fd_sc_mcu7t5v0__nor2_1
*I *1621:ZN O *D gf180mcu_fd_sc_mcu7t5v0__aoi22_1
*CAP
1 *1622:A2 0.000806526
2 *1621:ZN 0.000806526
3 *1622:A2 *1723:CLK 2.90389e-05
4 *1622:A2 *451:53 0.000194093
5 *1622:A2 *500:12 2.90389e-05
6 *1414:A2 *1622:A2 3.28419e-05
7 *1422:A1 *1622:A2 0.00103941
8 *1426:A2 *1622:A2 0.0010071
9 *1611:B1 *1622:A2 8.35178e-06
10 *1621:A2 *1622:A2 0.000134113
11 *1688:D *1622:A2 0.000121589
12 *1723:D *1622:A2 0.000330729
13 *242:8 *1622:A2 2.6374e-05
14 *273:10 *1622:A2 0.00172041
15 *425:196 *1622:A2 0
*RES
1 *1621:ZN *1622:A2 30.168 
*END

*D_NET *432 0.00982404
*CONN
*I *1624:A2 I *D gf180mcu_fd_sc_mcu7t5v0__nor2_1
*I *1623:ZN O *D gf180mcu_fd_sc_mcu7t5v0__aoi22_1
*CAP
1 *1624:A2 0.000381068
2 *1623:ZN 0.000381068
3 *1624:A2 *1623:A1 0.000536792
4 *1624:A2 *492:228 5.89482e-05
5 *1422:A2 *1624:A2 0.00371678
6 *1689:D *1624:A2 0.00395949
7 *242:8 *1624:A2 0.000126289
8 *280:18 *1624:A2 0.000126809
9 *425:29 *1624:A2 0.000536792
*RES
1 *1623:ZN *1624:A2 30.584 
*END

*D_NET *433 0.00371854
*CONN
*I *1626:A2 I *D gf180mcu_fd_sc_mcu7t5v0__nor2_1
*I *1625:ZN O *D gf180mcu_fd_sc_mcu7t5v0__aoi22_1
*CAP
1 *1626:A2 0.00083215
2 *1625:ZN 0.00083215
3 *1626:A2 *1625:A1 0.000681837
4 *1626:A2 *1644:A2 4.00009e-05
5 *1626:A2 *1645:A2 0.000358124
6 *1626:A2 *1645:B 0.000589979
7 *1626:A2 *1800:I 6.56181e-05
8 *1626:A2 *501:12 2.38656e-05
9 *1625:B1 *1626:A2 0.000106926
10 *1690:D *1626:A2 2.28626e-05
11 *1699:D *1626:A2 3.66596e-05
12 *279:67 *1626:A2 0.000128369
*RES
1 *1625:ZN *1626:A2 17.84 
*END

*D_NET *434 0.0226058
*CONN
*I *1646:B I *D gf180mcu_fd_sc_mcu7t5v0__aoi21_1
*I *1640:B1 I *D gf180mcu_fd_sc_mcu7t5v0__aoi22_1
*I *1642:B1 I *D gf180mcu_fd_sc_mcu7t5v0__aoi22_1
*I *1638:B1 I *D gf180mcu_fd_sc_mcu7t5v0__aoi22_1
*I *1636:B1 I *D gf180mcu_fd_sc_mcu7t5v0__aoi22_1
*I *1634:B1 I *D gf180mcu_fd_sc_mcu7t5v0__aoi22_1
*I *1630:B1 I *D gf180mcu_fd_sc_mcu7t5v0__aoi22_1
*I *1632:B1 I *D gf180mcu_fd_sc_mcu7t5v0__aoi22_1
*I *1628:B1 I *D gf180mcu_fd_sc_mcu7t5v0__aoi22_1
*I *1627:ZN O *D gf180mcu_fd_sc_mcu7t5v0__nor3_1
*CAP
1 *1646:B 4.02278e-05
2 *1640:B1 3.38438e-05
3 *1642:B1 0.000377728
4 *1638:B1 0
5 *1636:B1 0
6 *1634:B1 0
7 *1630:B1 0
8 *1632:B1 0
9 *1628:B1 0.000760405
10 *1627:ZN 4.37446e-05
11 *434:108 0.00103289
12 *434:94 0.00082581
13 *434:81 0.00038457
14 *434:74 0.000808011
15 *434:61 0.00107031
16 *434:20 0.0010839
17 *434:10 0.000622493
18 *434:6 0.000825352
19 *1628:B1 *1325:A1 1.01781e-05
20 *1628:B1 *1628:A1 4.07478e-05
21 *1628:B1 *1628:B2 2.45959e-05
22 *1628:B1 *1691:CLK 0
23 *1628:B1 *1769:I 8.07896e-05
24 *1628:B1 *1775:I 9.19654e-05
25 *1628:B1 *492:435 0
26 *1640:B1 *1641:A2 0.000106926
27 *1640:B1 *559:12 9.8328e-06
28 *1642:B1 *1640:A1 0.000253893
29 *1642:B1 *1642:A1 2.90178e-05
30 *1642:B1 *511:14 0.000937868
31 *1642:B1 *560:10 0.000158666
32 *1646:B *1646:A1 0.000197059
33 *434:6 *1627:A2 4.29477e-05
34 *434:6 *1627:A3 0.00017298
35 *434:10 *1634:A1 8.19187e-05
36 *434:10 *479:151 0
37 *434:10 *507:12 6.57935e-06
38 *434:20 *1630:B2 5.7109e-05
39 *434:20 *1632:B2 0.000135894
40 *434:20 *1769:I 1.32185e-05
41 *434:20 *492:435 0
42 *434:20 *507:12 1.17984e-05
43 *434:20 *555:66 9.52686e-05
44 *434:61 *1627:A2 1.07369e-05
45 *434:61 *1634:A1 0.000125274
46 *434:61 *1634:B2 0.00015007
47 *434:61 *1692:CLK 3.34058e-05
48 *434:61 *479:151 2.25032e-05
49 *434:61 *492:465 0.000157936
50 *434:74 *1635:A2 0.00120571
51 *434:74 *1636:A1 1.71326e-05
52 *434:74 *1636:B2 1.71326e-05
53 *434:74 *492:465 4.50321e-05
54 *434:81 *1636:A1 0.000116352
55 *434:81 *1636:B2 7.46298e-05
56 *434:94 *1639:A2 0.000876224
57 *434:108 *1376:A1 2.08795e-05
58 *434:108 *1640:A1 2.52289e-05
59 *434:108 *1641:A2 9.45824e-06
60 *434:108 *1643:A1 0
61 *434:108 *1646:A1 4.17612e-05
62 *434:108 *479:63 6.25872e-05
63 *434:108 *492:465 0.000846571
64 DAT_O[1] *434:10 0.000478241
65 DAT_O[2] *434:10 0
66 DAT_O[3] *434:61 0.000283521
67 *1352:A1 *434:6 3.4596e-05
68 *1352:A1 *434:10 0.000284618
69 *1352:A1 *434:20 0.000741118
70 *1376:A2 *434:108 0
71 *1378:A2 *434:74 0.000332241
72 *1378:A2 *434:81 1.20415e-05
73 *1521:S *434:20 0.000387113
74 *1640:A2 *434:108 6.64023e-06
75 *1642:A2 *1642:B1 0.00250161
76 *1642:A2 *434:108 0.000225503
77 *1693:D *434:61 0.000111569
78 *1696:D *434:81 0.000438464
79 *1696:D *434:94 0.00101075
80 *1779:I *1642:B1 0.000320451
81 *1779:I *434:108 0
82 *1788:I *1628:B1 4.05503e-05
83 *1790:I *1628:B1 2.01905e-05
84 *222:28 *1628:B1 1.97258e-05
85 *425:68 *1628:B1 0.000265863
86 *425:96 *434:61 0
87 *425:103 *434:74 0.000185341
88 *425:118 *434:81 0.000183604
89 *425:118 *434:94 7.60693e-05
90 *425:133 *1646:B 1.67036e-05
91 *425:133 *434:94 1.07369e-05
92 *425:133 *434:108 3.56569e-05
93 *425:144 *434:108 0.000255666
*RES
1 *1627:ZN *434:6 5.02 
2 *434:6 *434:10 7.932 
3 *434:10 *434:20 8.868 
4 *434:20 *1628:B1 28.116 
5 *434:20 *1632:B1 4.5 
6 *434:10 *1630:B1 9 
7 *434:6 *434:61 13.368 
8 *434:61 *1634:B1 4.5 
9 *434:61 *434:74 6.656 
10 *434:74 *1636:B1 4.5 
11 *434:74 *434:81 2.6 
12 *434:81 *1638:B1 4.5 
13 *434:81 *434:94 8.14 
14 *434:94 *434:108 14.72 
15 *434:108 *1642:B1 16.28 
16 *434:108 *1640:B1 9.312 
17 *434:94 *1646:B 9.52 
*END

*D_NET *435 0.00091926
*CONN
*I *1629:A2 I *D gf180mcu_fd_sc_mcu7t5v0__nor2_1
*I *1628:ZN O *D gf180mcu_fd_sc_mcu7t5v0__aoi22_1
*CAP
1 *1629:A2 0.000123667
2 *1628:ZN 0.000123667
3 *1629:A2 *1367:A4 0.000447626
4 *1629:A2 *1627:A3 0.000107843
5 *1629:A2 *1628:A1 1.12327e-05
6 *1629:A2 *1769:I 4.07478e-05
7 *1790:I *1629:A2 5.36452e-06
8 *225:10 *1629:A2 3.44395e-05
9 *425:53 *1629:A2 2.46717e-05
*RES
1 *1628:ZN *1629:A2 19.768 
*END

*D_NET *436 0.000279278
*CONN
*I *1631:A2 I *D gf180mcu_fd_sc_mcu7t5v0__nor2_1
*I *1630:ZN O *D gf180mcu_fd_sc_mcu7t5v0__aoi22_1
*CAP
1 *1631:A2 6.25423e-05
2 *1630:ZN 6.25423e-05
3 *1631:A2 *1376:B2 0.000154193
*RES
1 *1630:ZN *1631:A2 9.936 
*END

*D_NET *437 0.000847675
*CONN
*I *1633:A2 I *D gf180mcu_fd_sc_mcu7t5v0__nor2_1
*I *1632:ZN O *D gf180mcu_fd_sc_mcu7t5v0__aoi22_1
*CAP
1 *1633:A2 0.000398283
2 *1632:ZN 0.000398283
3 *1633:A2 *1769:I 4.78801e-05
4 *1633:A2 *492:435 3.22786e-06
*RES
1 *1632:ZN *1633:A2 11.496 
*END

*D_NET *438 0.00625905
*CONN
*I *1635:A2 I *D gf180mcu_fd_sc_mcu7t5v0__nor2_1
*I *1634:ZN O *D gf180mcu_fd_sc_mcu7t5v0__aoi22_1
*CAP
1 *1635:A2 0.000886458
2 *1634:ZN 0.000886458
3 DAT_O[5] *1635:A2 0.00130411
4 DAT_O[6] *1635:A2 2.09309e-05
5 *1695:D *1635:A2 0.000560497
6 *425:103 *1635:A2 0.00139488
7 *434:74 *1635:A2 0.00120571
*RES
1 *1634:ZN *1635:A2 31.104 
*END

*D_NET *439 0.0137648
*CONN
*I *1637:A2 I *D gf180mcu_fd_sc_mcu7t5v0__nor2_1
*I *1636:ZN O *D gf180mcu_fd_sc_mcu7t5v0__aoi22_1
*CAP
1 *1637:A2 0
2 *1636:ZN 0.00497372
3 *439:22 0.00497372
4 *439:22 *1636:A1 0.000129047
5 *439:22 *1636:B2 0.000384099
6 *439:22 *1707:CLK 0.000131841
7 *439:22 *1771:I 0.000359882
8 *439:22 *1805:I 0.000694763
9 *439:22 *478:10 0.000114392
10 *439:22 *509:14 0.00020873
11 *439:22 *574:10 0.00010353
12 DAT_O[6] *439:22 0.000667149
13 STB_O *439:22 0.000371962
14 *1695:D *439:22 0.000651939
*RES
1 *1636:ZN *439:22 47.906 
2 *439:22 *1637:A2 4.5 
*END

*D_NET *440 0.003563
*CONN
*I *1639:A2 I *D gf180mcu_fd_sc_mcu7t5v0__nor2_1
*I *1638:ZN O *D gf180mcu_fd_sc_mcu7t5v0__aoi22_1
*CAP
1 *1639:A2 0.000308774
2 *1638:ZN 0.000308774
3 *1639:A2 *1646:A1 2.46831e-05
4 *1639:A2 *1811:I 0
5 *1639:A2 *492:465 1.23682e-05
6 WE_O *1639:A2 0.000966936
7 *1696:D *1639:A2 0.000410703
8 *425:133 *1639:A2 0.000654535
9 *434:94 *1639:A2 0.000876224
*RES
1 *1638:ZN *1639:A2 14.824 
*END

*D_NET *441 0.0156837
*CONN
*I *1641:A2 I *D gf180mcu_fd_sc_mcu7t5v0__nor2_1
*I *1640:ZN O *D gf180mcu_fd_sc_mcu7t5v0__aoi22_1
*CAP
1 *1641:A2 0.00181661
2 *1640:ZN 0.00181661
3 *1641:A2 *1522:I0 0
4 *1641:A2 *1638:B2 1.53275e-05
5 *1641:A2 *1771:I 0.000569964
6 *1641:A2 *458:12 0.000582349
7 *1641:A2 *458:20 0.000280581
8 *1641:A2 *479:63 0.000229626
9 *1641:A2 *556:69 0.0037615
10 *1641:A2 *559:12 0.000156281
11 *1292:A2 *1641:A2 0.000913509
12 *1297:A1 *1641:A2 5.23324e-05
13 *1303:A1 *1641:A2 0.000184061
14 *1312:A3 *1641:A2 0.000809422
15 *1363:I0 *1641:A2 0.000332873
16 *1373:A1 *1641:A2 4.72158e-05
17 *1374:I0 *1641:A2 0.000667872
18 *1376:A2 *1641:A2 0.00256759
19 *1640:A2 *1641:A2 4.97811e-05
20 *1640:B1 *1641:A2 0.000106926
21 *1697:D *1641:A2 0.000354408
22 *1700:D *1641:A2 0.00011444
23 *11:16 *1641:A2 0.000244956
24 *434:108 *1641:A2 9.45824e-06
*RES
1 *1640:ZN *1641:A2 46.288 
*END

*D_NET *442 0.00473263
*CONN
*I *1643:A2 I *D gf180mcu_fd_sc_mcu7t5v0__nor2_1
*I *1642:ZN O *D gf180mcu_fd_sc_mcu7t5v0__aoi22_1
*CAP
1 *1643:A2 0.000505445
2 *1642:ZN 0.000505445
3 *1643:A2 *479:50 0.000399922
4 *1643:A2 *479:63 0.00012761
5 *1643:A2 *558:38 0.000209016
6 *1642:A2 *1643:A2 0.00209876
7 *1698:D *1643:A2 0.000679271
8 *1779:I *1643:A2 0.000207164
*RES
1 *1642:ZN *1643:A2 26.008 
*END

*D_NET *443 0.00162667
*CONN
*I *1645:A2 I *D gf180mcu_fd_sc_mcu7t5v0__aoi21_1
*I *1644:ZN O *D gf180mcu_fd_sc_mcu7t5v0__oai21_1
*CAP
1 *1645:A2 0.000148391
2 *1644:ZN 0.000148391
3 *1645:A2 *1644:A2 0.000971765
4 *1626:A2 *1645:A2 0.000358124
*RES
1 *1644:ZN *1645:A2 11.912 
*END

*D_NET *444 0.0102626
*CONN
*I *1647:A2 I *D gf180mcu_fd_sc_mcu7t5v0__nor2_1
*I *1646:ZN O *D gf180mcu_fd_sc_mcu7t5v0__aoi21_1
*CAP
1 *1647:A2 0.00407997
2 *1646:ZN 0.00407997
3 *1647:A2 *1364:A2 0.000123777
4 *1647:A2 *1522:I0 0.000310591
5 *1647:A2 *560:20 0.000469872
6 *1363:I0 *1647:A2 0.000102324
7 *1373:B *1647:A2 0.000192271
8 *1700:D *1647:A2 0.000761576
9 *1704:D *1647:A2 0.000142244
10 *1779:I *1647:A2 0
*RES
1 *1646:ZN *1647:A2 47.4812 
*END

*D_NET *445 0.000796193
*CONN
*I *1649:B I *D gf180mcu_fd_sc_mcu7t5v0__aoi21_1
*I *1648:ZN O *D gf180mcu_fd_sc_mcu7t5v0__oai21_1
*CAP
1 *1649:B 8.48879e-05
2 *1648:ZN 8.48879e-05
3 *1649:B *553:38 0
4 *361:36 *1649:B 0.000626417
*RES
1 *1648:ZN *1649:B 19.56 
*END

*D_NET *446 0.00119846
*CONN
*I *1651:B I *D gf180mcu_fd_sc_mcu7t5v0__oai211_1
*I *1650:ZN O *D gf180mcu_fd_sc_mcu7t5v0__nand2_1
*CAP
1 *1651:B 0.0003038
2 *1650:ZN 0.0003038
3 *1651:B *1650:A1 1.57479e-05
4 *1651:B *554:6 8.30301e-05
5 *1651:C *1651:B 0.000182208
6 *1657:D *1651:B 5.51177e-05
7 *160:25 *1651:B 0.000254761
*RES
1 *1650:ZN *1651:B 12.536 
*END

*D_NET *447 0.0365189
*CONN
*I *1284:A4 I *D gf180mcu_fd_sc_mcu7t5v0__nor4_1
*I *1285:A4 I *D gf180mcu_fd_sc_mcu7t5v0__or4_1
*I *1287:A4 I *D gf180mcu_fd_sc_mcu7t5v0__or4_1
*I *1286:A4 I *D gf180mcu_fd_sc_mcu7t5v0__nor4_1
*I *1304:A1 I *D gf180mcu_fd_sc_mcu7t5v0__and2_1
*I *1306:A3 I *D gf180mcu_fd_sc_mcu7t5v0__and4_1
*I *1405:A1 I *D gf180mcu_fd_sc_mcu7t5v0__and4_1
*I *1611:A1 I *D gf180mcu_fd_sc_mcu7t5v0__aoi22_1
*I *1268:I I *D gf180mcu_fd_sc_mcu7t5v0__clkinv_1
*I *1319:A1 I *D gf180mcu_fd_sc_mcu7t5v0__nor2_1
*I *1305:A1 I *D gf180mcu_fd_sc_mcu7t5v0__nand2_1
*I *1395:A1 I *D gf180mcu_fd_sc_mcu7t5v0__oai221_1
*I *1394:A1 I *D gf180mcu_fd_sc_mcu7t5v0__nand2_1
*I *1717:Q O *D gf180mcu_fd_sc_mcu7t5v0__dffq_1
*CAP
1 *1284:A4 0.00013486
2 *1285:A4 0.000217707
3 *1287:A4 0
4 *1286:A4 0.000165428
5 *1304:A1 3.58205e-05
6 *1306:A3 0.000171435
7 *1405:A1 0.000618855
8 *1611:A1 0
9 *1268:I 0
10 *1319:A1 0
11 *1305:A1 0.000405973
12 *1395:A1 0.000116342
13 *1394:A1 0
14 *1717:Q 0.000435951
15 *447:151 0.000423448
16 *447:133 0.000196621
17 *447:131 0.00190719
18 *447:110 0.00192696
19 *447:79 0.00103673
20 *447:68 0.00128313
21 *447:62 0.00113562
22 *447:51 0.000221257
23 *447:47 0.000628535
24 *447:21 0.000522315
25 *447:19 0.000541732
26 *447:10 0.000557498
27 *1285:A4 *554:19 0.000251178
28 *1305:A1 *1305:A2 0
29 *1305:A1 *448:14 0
30 *1305:A1 *449:8 0
31 *1306:A3 *1276:A4 0.000185295
32 *1306:A3 *1306:A2 0.000185295
33 *1306:A3 *1306:A4 0.000147869
34 *1405:A1 *1408:B 0.000241749
35 *447:10 *1777:I 3.3698e-05
36 *447:10 *448:8 7.60693e-05
37 *447:10 *449:8 3.3698e-05
38 *447:19 *1777:I 2.6666e-05
39 *447:47 *1321:A1 0.000443922
40 *447:47 *1777:I 0.000479555
41 *447:47 *448:27 0.000487365
42 *447:51 *448:40 0.000188241
43 *447:51 *448:49 0.000155298
44 *447:62 *448:49 0.000198911
45 *447:62 *448:62 0.000226716
46 *447:68 *448:62 1.70724e-05
47 *447:68 *448:68 9.79526e-05
48 *447:68 *448:82 6.7375e-05
49 *447:68 *450:68 3.91105e-05
50 *447:79 *1408:B 0.000447626
51 *447:79 *448:82 8.80731e-06
52 *447:79 *450:68 5.38485e-05
53 *447:110 *1321:A1 2.80662e-05
54 *447:110 *448:27 0.000113016
55 *447:131 *1276:A1 2.2517e-05
56 *447:131 *1276:A4 0
57 *447:131 *1321:A1 6.04145e-05
58 *447:131 *1321:A2 0.000203739
59 *447:131 *1383:A4 0.000194511
60 *447:131 *1433:A1 0.000330965
61 *447:131 *504:26 2.26025e-05
62 *447:131 *552:25 0.000114712
63 *447:131 *552:32 4.87048e-05
64 *1280:A2 *447:131 1.12327e-05
65 *1284:A2 *1284:A4 0.000265501
66 *1284:A3 *1284:A4 0.000387745
67 *1286:A1 *1286:A4 0.000416808
68 *1286:A3 *1286:A4 0.000866123
69 *1321:A3 *447:131 0.000256274
70 *1321:A4 *447:131 7.71138e-05
71 *1332:A1 *447:131 1.42728e-05
72 *1393:A1 *447:68 0.000469321
73 *1394:A2 *1305:A1 0
74 *1394:A2 *447:19 0.000113016
75 *1395:A2 *1395:A1 4.63426e-05
76 *1395:C *1395:A1 0.000147028
77 *1396:A1 *447:110 4.29477e-05
78 *1397:A2 *1305:A1 0.000229992
79 *1397:A2 *1395:A1 0.000188241
80 *1398:C *1395:A1 6.64873e-05
81 *1399:A2 *1305:A1 0
82 *1400:A2 *1305:A1 0
83 *1403:B *447:68 2.97312e-05
84 *1403:C *447:68 0
85 *1407:A2 *447:79 9.52686e-05
86 *1412:B1 *447:79 5.61789e-06
87 *1413:A3 *447:79 0.000100928
88 *1433:A2 *447:131 0.000530182
89 *1433:A3 *447:131 9.52686e-05
90 *1434:B1 *447:131 0.000959454
91 *1434:B2 *447:131 0.000477935
92 *1436:A3 *447:131 0
93 *1479:A2 *1285:A4 2.37269e-05
94 *1479:A2 *1286:A4 2.47495e-05
95 *1611:A2 *1405:A1 0.000196441
96 *1611:A2 *447:79 4.58772e-05
97 *1612:A2 *1405:A1 9.35932e-05
98 *1719:D *1305:A1 1.19584e-05
99 *1730:D *447:131 0.00018099
100 *128:29 *447:131 3.09205e-05
101 *128:40 *447:131 1.01702e-05
102 *142:60 *1284:A4 0.000109278
103 *142:147 *447:131 0.000338134
104 *142:157 *447:131 3.4596e-05
105 *142:180 *1306:A3 9.35542e-06
106 *142:180 *447:68 1.01873e-05
107 *143:46 *447:131 3.22108e-05
108 *143:57 *447:131 5.25526e-05
109 *146:30 *1306:A3 0.000158606
110 *146:30 *447:68 0.00012524
111 *150:63 *1286:A4 0.000177551
112 *152:52 *1285:A4 0
113 *152:56 *1285:A4 1.85523e-05
114 *154:22 *447:131 0.00137731
115 *154:31 *447:131 0.000536423
116 *154:59 *447:131 0.000957174
117 *154:59 *447:133 1.71326e-05
118 *154:59 *447:151 3.22108e-05
119 *154:81 *1284:A4 0.000609308
120 *154:81 *447:151 0.00049014
121 *157:82 *447:131 0.00304763
122 *157:82 *447:151 4.07478e-05
123 *157:89 *447:151 7.22679e-05
124 *157:102 *1284:A4 0.000477837
125 *157:102 *447:151 0.000515509
126 *219:28 *1284:A4 4.90897e-05
127 *219:28 *1285:A4 0.000477837
128 *250:32 *1405:A1 0.000308118
129 *250:40 *1305:A1 0.000991153
130 *250:40 *1395:A1 0.000573542
131 *253:12 *447:19 6.91919e-05
132 *253:12 *447:47 0.000126247
133 *262:22 *1405:A1 8.44504e-05
134 *262:22 *447:79 0.000145134
135 *323:30 *1286:A4 2.6972e-05
*RES
1 *1717:Q *447:10 8.14 
2 *447:10 *1394:A1 4.5 
3 *447:10 *447:19 1.248 
4 *447:19 *447:21 4.5 
5 *447:21 *1395:A1 11.08 
6 *447:21 *1305:A1 13.16 
7 *447:19 *447:47 5.408 
8 *447:47 *447:51 5.436 
9 *447:51 *1319:A1 9 
10 *447:51 *447:62 5.644 
11 *447:62 *447:68 11.78 
12 *447:68 *1268:I 9 
13 *447:68 *447:79 3.744 
14 *447:79 *1611:A1 9 
15 *447:79 *1405:A1 22.784 
16 *447:62 *1306:A3 6.476 
17 *447:47 *447:110 0.728 
18 *447:110 *1304:A1 4.812 
19 *447:110 *447:131 34.272 
20 *447:131 *447:133 0.312 
21 *447:133 *1286:A4 16.1 
22 *447:133 *1287:A4 4.5 
23 *447:131 *447:151 1.768 
24 *447:151 *1285:A4 15.58 
25 *447:151 *1284:A4 7.828 
*END

*D_NET *448 0.027293
*CONN
*I *1305:A2 I *D gf180mcu_fd_sc_mcu7t5v0__nand2_1
*I *1306:A4 I *D gf180mcu_fd_sc_mcu7t5v0__and4_1
*I *1310:A2 I *D gf180mcu_fd_sc_mcu7t5v0__nor2_1
*I *1405:A2 I *D gf180mcu_fd_sc_mcu7t5v0__and4_1
*I *1613:A1 I *D gf180mcu_fd_sc_mcu7t5v0__aoi22_1
*I *1276:A1 I *D gf180mcu_fd_sc_mcu7t5v0__nand4_1
*I *1319:A2 I *D gf180mcu_fd_sc_mcu7t5v0__nor2_1
*I *1304:A2 I *D gf180mcu_fd_sc_mcu7t5v0__and2_1
*I *1397:A1 I *D gf180mcu_fd_sc_mcu7t5v0__nand2_1
*I *1718:Q O *D gf180mcu_fd_sc_mcu7t5v0__dffq_1
*CAP
1 *1305:A2 0.000207476
2 *1306:A4 0.000109513
3 *1310:A2 1.45844e-05
4 *1405:A2 0
5 *1613:A1 0.000797546
6 *1276:A1 0.000322453
7 *1319:A2 0
8 *1304:A2 9.21802e-05
9 *1397:A1 0
10 *1718:Q 5.03138e-05
11 *448:82 0.00194076
12 *448:68 0.00134515
13 *448:62 0.000342072
14 *448:49 0.000389033
15 *448:40 6.90347e-05
16 *448:27 0.00071571
17 *448:14 0.000860031
18 *448:8 0.000541961
19 *1276:A1 *1276:A4 1.32276e-05
20 *1276:A1 *1321:A1 0.000108157
21 *1306:A4 *1276:A4 0.000185295
22 *1613:A1 *1615:A1 0.000491616
23 *1613:A1 *451:10 0.000200778
24 *1613:A1 *492:10 0
25 *1613:A1 *492:23 0.000246059
26 *1613:A1 *492:32 4.63309e-05
27 *448:8 *1777:I 1.77406e-05
28 *448:14 *1777:I 0.000207578
29 *448:27 *1434:A3 0.000100724
30 *448:27 *1777:I 0.000498886
31 *448:68 *1320:A2 0.000781715
32 *448:68 *450:68 0.000946453
33 *448:82 *1418:A2 0.000244646
34 *448:82 *1611:B2 0.000669032
35 *448:82 *1615:A1 4.18042e-05
36 *448:82 *449:89 7.86523e-05
37 *448:82 *450:64 0.000128865
38 *448:82 *476:67 2.20308e-05
39 *448:82 *492:198 1.72208e-05
40 ADDR_O[0] *1613:A1 0.00341314
41 *1276:A3 *1276:A1 0.000188435
42 *1305:A1 *1305:A2 0
43 *1305:A1 *448:14 0
44 *1306:A3 *1306:A4 0.000147869
45 *1320:A4 *448:49 6.66715e-05
46 *1320:A4 *448:62 0.000410231
47 *1320:A4 *448:68 6.76318e-05
48 *1321:A4 *1304:A2 3.4596e-05
49 *1393:A1 *448:68 0.00135376
50 *1395:C *448:14 1.5359e-05
51 *1395:C *448:27 0
52 *1396:A1 *1304:A2 0.000103788
53 *1396:A1 *448:27 0.000419265
54 *1396:A2 *1304:A2 0.000113016
55 *1396:A2 *448:27 2.24654e-05
56 *1397:A2 *448:14 0
57 *1397:A2 *448:27 0.000113027
58 *1398:C *448:27 0.000159145
59 *1403:C *1310:A2 6.91919e-05
60 *1403:C *448:82 0.000565691
61 *1409:A4 *1613:A1 4.67771e-06
62 *1409:A4 *448:82 1.73223e-05
63 *1412:B1 *448:82 0.000389658
64 *1613:B1 *1613:A1 0.000113278
65 *1615:A2 *1613:A1 1.71326e-05
66 *1620:A2 *1613:A1 0.000986212
67 *1687:D *1613:A1 2.86115e-06
68 *1717:D *448:14 1.84122e-05
69 *1718:D *448:27 0
70 *128:29 *448:27 0.000124416
71 *142:180 *1306:A4 0.000617635
72 *146:30 *1276:A1 0.000626863
73 *187:8 *1276:A1 0.000103788
74 *187:12 *1304:A2 0.00017139
75 *187:12 *448:40 0.000263751
76 *187:12 *448:49 0.000280581
77 *246:14 *1310:A2 0.000103788
78 *246:14 *448:82 0.000558426
79 *250:38 *1613:A1 0.00030513
80 *257:10 *448:82 5.55773e-06
81 *262:20 *448:82 0
82 *262:22 *448:82 0.000305631
83 *269:14 *448:82 0.0004332
84 *279:67 *1613:A1 7.60693e-05
85 *447:10 *448:8 7.60693e-05
86 *447:47 *448:27 0.000487365
87 *447:51 *448:40 0.000188241
88 *447:51 *448:49 0.000155298
89 *447:62 *448:49 0.000198911
90 *447:62 *448:62 0.000226716
91 *447:68 *448:62 1.70724e-05
92 *447:68 *448:68 9.79526e-05
93 *447:68 *448:82 6.7375e-05
94 *447:79 *448:82 8.80731e-06
95 *447:110 *448:27 0.000113016
96 *447:131 *1276:A1 2.2517e-05
*RES
1 *1718:Q *448:8 9.52 
2 *448:8 *448:14 6.996 
3 *448:14 *1397:A1 4.5 
4 *448:14 *448:27 11.052 
5 *448:27 *1304:A2 9.832 
6 *448:27 *448:40 0.728 
7 *448:40 *1319:A2 9 
8 *448:40 *448:49 0.936 
9 *448:49 *1276:A1 12.328 
10 *448:49 *448:62 1.144 
11 *448:62 *448:68 9.908 
12 *448:68 *448:82 19.088 
13 *448:82 *1613:A1 28.58 
14 *448:82 *1405:A2 4.5 
15 *448:68 *1310:A2 4.812 
16 *448:62 *1306:A4 10.768 
17 *448:8 *1305:A2 10.56 
*END

*D_NET *449 0.0242868
*CONN
*I *1405:A3 I *D gf180mcu_fd_sc_mcu7t5v0__and4_1
*I *1615:A1 I *D gf180mcu_fd_sc_mcu7t5v0__aoi22_1
*I *1309:A1 I *D gf180mcu_fd_sc_mcu7t5v0__and2_1
*I *1400:A1 I *D gf180mcu_fd_sc_mcu7t5v0__xor2_1
*I *1320:A1 I *D gf180mcu_fd_sc_mcu7t5v0__and4_1
*I *1321:A1 I *D gf180mcu_fd_sc_mcu7t5v0__nand4_1
*I *1269:I I *D gf180mcu_fd_sc_mcu7t5v0__clkinv_1
*I *1719:Q O *D gf180mcu_fd_sc_mcu7t5v0__dffq_1
*CAP
1 *1405:A3 0
2 *1615:A1 0.000784644
3 *1309:A1 0.000457209
4 *1400:A1 0.000474234
5 *1320:A1 0.00025414
6 *1321:A1 0.000588607
7 *1269:I 0
8 *1719:Q 0.000270865
9 *449:89 0.00174181
10 *449:56 0.00176857
11 *449:41 0.000903361
12 *449:30 0.000398724
13 *449:17 0.000731397
14 *449:8 0.00034401
15 *1309:A1 *1309:A2 2.14739e-05
16 *1309:A1 *450:64 0.000146725
17 *1309:A1 *492:198 3.99118e-05
18 *1321:A1 *1321:A2 7.60808e-05
19 *1615:A1 *1617:B2 0.000689686
20 *1615:A1 *1794:I 0.000186951
21 *449:89 *1611:B2 3.86911e-05
22 *449:89 *450:21 5.98466e-05
23 *449:89 *450:25 3.85294e-05
24 *449:89 *450:64 3.1625e-05
25 *449:89 *476:67 0.000201474
26 *449:89 *492:198 5.38485e-05
27 ADDR_O[0] *1615:A1 0.00117084
28 *1276:A1 *1321:A1 0.000108157
29 *1305:A1 *449:8 0
30 *1389:A1 *449:30 0.000265469
31 *1389:A1 *449:41 0.000457103
32 *1393:A1 *1320:A1 3.542e-05
33 *1393:A2 *1320:A1 0.000166817
34 *1394:A2 *449:8 1.07369e-05
35 *1399:A1 *449:41 0.000365251
36 *1399:A1 *449:56 0.000410485
37 *1399:A2 *1400:A1 0.000355886
38 *1400:A2 *1400:A1 8.56628e-05
39 *1401:A1 *1400:A1 1.5006e-05
40 *1401:A2 *1400:A1 0.000103788
41 *1401:A4 *1400:A1 0.000133947
42 *1404:A1 *449:41 3.70435e-05
43 *1404:A1 *449:56 0.000569484
44 *1404:A1 *449:89 5.0164e-05
45 *1404:A2 *449:89 1.06742e-05
46 *1412:A2 *1309:A1 0.000476164
47 *1417:A1 *449:89 1.95308e-05
48 *1613:A1 *1615:A1 0.000491616
49 *1615:A2 *1615:A1 0.000125055
50 *1615:B1 *1615:A1 9.39768e-05
51 *1616:A2 *1309:A1 0.000326984
52 *1616:A2 *449:89 2.76896e-06
53 *1618:A2 *1615:A1 0.00232457
54 *1719:D *1400:A1 5.34458e-06
55 *10:18 *1400:A1 0
56 *131:31 *449:30 8.82081e-06
57 *142:180 *1320:A1 0.00100552
58 *142:180 *1321:A1 9.11686e-06
59 *146:6 *449:17 0.000169324
60 *146:10 *449:30 0.00047559
61 *146:10 *449:41 0.000329014
62 *146:30 *1321:A1 0.000146297
63 *187:8 *1321:A1 3.22108e-05
64 *205:38 *1320:A1 0.000414693
65 *205:56 *449:41 6.11661e-05
66 *242:32 *449:89 0.000127812
67 *248:10 *1400:A1 2.21341e-06
68 *249:10 *1321:A1 9.88256e-05
69 *249:10 *449:30 9.19695e-05
70 *250:32 *449:89 0.000102615
71 *250:38 *1615:A1 0.000297369
72 *250:38 *449:89 0.000238516
73 *253:12 *1321:A1 0.000237889
74 *253:12 *449:8 0.000193574
75 *253:12 *449:17 6.49544e-05
76 *253:12 *449:30 1.5331e-05
77 *257:10 *449:56 0.000313627
78 *257:10 *449:89 0.000166085
79 *257:27 *449:89 1.70724e-05
80 *269:14 *449:89 0.000180915
81 *279:67 *1615:A1 0.00011875
82 *425:204 *1615:A1 0.000160566
83 *447:10 *449:8 3.3698e-05
84 *447:47 *1321:A1 0.000443922
85 *447:110 *1321:A1 2.80662e-05
86 *447:131 *1321:A1 6.04145e-05
87 *448:82 *1615:A1 4.18042e-05
88 *448:82 *449:89 7.86523e-05
*RES
1 *1719:Q *449:8 6.58 
2 *449:8 *1269:I 4.5 
3 *449:8 *449:17 5.228 
4 *449:17 *1321:A1 14.824 
5 *449:17 *449:30 1.56 
6 *449:30 *1320:A1 12.64 
7 *449:30 *449:41 1.976 
8 *449:41 *1400:A1 12.952 
9 *449:41 *449:56 4.368 
10 *449:56 *1309:A1 21.536 
11 *449:56 *449:89 19.9257 
12 *449:89 *1615:A1 28.58 
13 *449:89 *1405:A3 4.5 
*END

*D_NET *450 0.0223859
*CONN
*I *1617:A1 I *D gf180mcu_fd_sc_mcu7t5v0__aoi22_1
*I *1309:A2 I *D gf180mcu_fd_sc_mcu7t5v0__and2_1
*I *1307:A3 I *D gf180mcu_fd_sc_mcu7t5v0__nand4_1
*I *1276:A4 I *D gf180mcu_fd_sc_mcu7t5v0__nand4_1
*I *1306:A2 I *D gf180mcu_fd_sc_mcu7t5v0__and4_1
*I *1321:A2 I *D gf180mcu_fd_sc_mcu7t5v0__nand4_1
*I *1320:A2 I *D gf180mcu_fd_sc_mcu7t5v0__and4_1
*I *1409:A1 I *D gf180mcu_fd_sc_mcu7t5v0__and4_1
*I *1404:C I *D gf180mcu_fd_sc_mcu7t5v0__aoi221_1
*I *1410:A1 I *D gf180mcu_fd_sc_mcu7t5v0__nand4_1
*I *1405:A4 I *D gf180mcu_fd_sc_mcu7t5v0__and4_1
*I *1720:Q O *D gf180mcu_fd_sc_mcu7t5v0__dffq_1
*CAP
1 *1617:A1 1.46509e-05
2 *1309:A2 3.28042e-05
3 *1307:A3 5.01696e-05
4 *1276:A4 0.000127869
5 *1306:A2 2.0438e-05
6 *1321:A2 0.000216754
7 *1320:A2 1.86836e-05
8 *1409:A1 0
9 *1404:C 2.18723e-05
10 *1410:A1 0.000189853
11 *1405:A4 0
12 *1720:Q 0.000652206
13 *450:87 0.00028817
14 *450:85 0.000367257
15 *450:81 0.000403596
16 *450:68 0.000348013
17 *450:64 0.000853831
18 *450:49 0.000835326
19 *450:25 0.000283482
20 *450:21 0.000460236
21 *450:10 0.000320104
22 *450:8 0.000777093
23 *1404:C *476:67 0.000103788
24 *1410:A1 *1410:A2 5.52675e-05
25 *1410:A1 *476:67 0.000135744
26 *1617:A1 *1794:I 0.00127404
27 *450:8 *1611:B2 0.00046386
28 *450:8 *1793:I 9.87922e-05
29 *450:10 *1611:B2 0.000201728
30 *450:10 *1794:I 0.000271753
31 *450:21 *1611:B2 0.000494463
32 *450:64 *476:67 4.99626e-05
33 *450:64 *492:198 4.0521e-05
34 ADDR_O[0] *450:8 0
35 *1276:A1 *1276:A4 1.32276e-05
36 *1276:A3 *1276:A4 0.000274212
37 *1276:A3 *1306:A2 3.4596e-05
38 *1306:A3 *1276:A4 0.000185295
39 *1306:A3 *1306:A2 0.000185295
40 *1306:A4 *1276:A4 0.000185295
41 *1307:A1 *1307:A3 8.44565e-06
42 *1307:A2 *1321:A2 3.70435e-05
43 *1307:A2 *450:85 0.000171724
44 *1307:A2 *450:87 6.17392e-05
45 *1309:A1 *1309:A2 2.14739e-05
46 *1309:A1 *450:64 0.000146725
47 *1320:A3 *450:81 0
48 *1320:A4 *1320:A2 0.000268824
49 *1321:A1 *1321:A2 7.60808e-05
50 *1321:A3 *1321:A2 0
51 *1322:A2 *450:85 3.71367e-05
52 *1404:A1 *1410:A1 9.35542e-06
53 *1404:A2 *1404:C 2.14739e-05
54 *1404:A2 *1410:A1 3.4596e-05
55 *1404:B2 *450:49 0.000252492
56 *1404:B2 *450:64 0.000185295
57 *1407:A2 *450:64 0.000389359
58 *1407:B *1309:A2 3.22108e-05
59 *1407:B *1410:A1 1.19521e-05
60 *1407:B *450:64 0.000637784
61 *1409:A4 *450:21 0.000380926
62 *1409:A4 *450:25 0.000116466
63 *1411:A2 *1410:A1 1.56603e-05
64 *1411:A2 *450:49 0.000252492
65 *1411:A2 *450:64 0.000150699
66 *1412:A2 *450:64 1.12327e-05
67 *1413:A3 *450:68 0.00140058
68 *1618:A2 *1617:A1 0.00123816
69 *1618:A2 *450:10 0.000832916
70 *1618:A2 *450:21 0.000201718
71 *142:180 *1276:A4 0.00019175
72 *146:30 *1306:A2 0.000185295
73 *149:14 *450:85 0.000325271
74 *149:18 *450:85 0.000283521
75 *172:23 *1320:A2 0.000421723
76 *172:23 *1321:A2 8.88136e-05
77 *172:23 *450:68 0.000188241
78 *172:23 *450:85 0.000133696
79 *172:23 *450:87 2.60017e-05
80 *189:12 *1321:A2 3.49485e-05
81 *242:32 *450:64 3.06606e-05
82 *248:10 *1307:A3 0.000182219
83 *248:10 *450:81 0.000466936
84 *257:27 *450:25 0.000188241
85 *447:68 *450:68 3.91105e-05
86 *447:79 *450:68 5.38485e-05
87 *447:131 *1276:A4 0
88 *447:131 *1321:A2 0.000203739
89 *448:68 *1320:A2 0.000781715
90 *448:68 *450:68 0.000946453
91 *448:82 *450:64 0.000128865
92 *449:89 *450:21 5.98466e-05
93 *449:89 *450:25 3.85294e-05
94 *449:89 *450:64 3.1625e-05
*RES
1 *1720:Q *450:8 13.264 
2 *450:8 *450:10 2.184 
3 *450:10 *1405:A4 9 
4 *450:10 *450:21 2.912 
5 *450:21 *450:25 5.228 
6 *450:25 *1410:A1 6.268 
7 *450:25 *1404:C 4.812 
8 *450:21 *450:49 5.956 
9 *450:49 *1409:A1 4.5 
10 *450:49 *450:64 14.304 
11 *450:64 *450:68 8.764 
12 *450:68 *1320:A2 10.976 
13 *450:68 *450:81 5.852 
14 *450:81 *450:85 7.308 
15 *450:85 *450:87 0.52 
16 *450:87 *1321:A2 11.08 
17 *450:87 *1306:A2 9.52 
18 *450:85 *1276:A4 10.976 
19 *450:81 *1307:A3 5.02 
20 *450:64 *1309:A2 4.812 
21 *450:8 *1617:A1 12.224 
*END

*D_NET *451 0.0146037
*CONN
*I *1410:A2 I *D gf180mcu_fd_sc_mcu7t5v0__nand4_1
*I *1413:A2 I *D gf180mcu_fd_sc_mcu7t5v0__nand4_1
*I *1619:A1 I *D gf180mcu_fd_sc_mcu7t5v0__aoi22_1
*I *1275:A2 I *D gf180mcu_fd_sc_mcu7t5v0__nor4_1
*I *1408:B I *D gf180mcu_fd_sc_mcu7t5v0__aoi21_1
*I *1418:A2 I *D gf180mcu_fd_sc_mcu7t5v0__nand4_1
*I *1409:A2 I *D gf180mcu_fd_sc_mcu7t5v0__and4_1
*I *1721:Q O *D gf180mcu_fd_sc_mcu7t5v0__dffq_1
*CAP
1 *1410:A2 0.000239974
2 *1413:A2 0
3 *1619:A1 0.000196222
4 *1275:A2 0
5 *1408:B 0.000256797
6 *1418:A2 0.000141281
7 *1409:A2 8.8518e-05
8 *1721:Q 0.000597694
9 *451:53 0.000395048
10 *451:49 0.000355142
11 *451:36 0.00025058
12 *451:21 0.000342756
13 *451:10 0.000810245
14 *1410:A2 *476:67 7.37285e-06
15 *1418:A2 *476:67 5.71503e-06
16 *1619:A1 *1341:A4 0.0002076
17 *1619:A1 *1421:A1 7.47044e-05
18 *1619:A1 *453:10 0.000367043
19 *1619:A1 *453:30 0.00128935
20 *451:10 *1720:CLK 0
21 *451:10 *492:10 0.000192488
22 *451:10 *492:60 0.000209225
23 *451:21 *1611:B2 0.000154581
24 *451:36 *1418:A1 2.81522e-06
25 *451:36 *1611:B2 3.22108e-05
26 *451:49 *1413:A1 4.18042e-05
27 *451:49 *1418:A1 5.63044e-06
28 *1404:B2 *1409:A2 0.000111075
29 *1404:B2 *1410:A2 2.347e-06
30 *1404:B2 *451:10 5.53878e-05
31 *1404:B2 *451:21 7.08905e-06
32 *1405:A1 *1408:B 0.000241749
33 *1407:B *1410:A2 6.19054e-05
34 *1409:A3 *1409:A2 4.87458e-06
35 *1409:A3 *451:21 0.000334884
36 *1409:A4 *451:10 0.000396525
37 *1409:A4 *451:21 0.000182695
38 *1410:A1 *1410:A2 5.52675e-05
39 *1411:A2 *1410:A2 4.57982e-05
40 *1411:A2 *451:10 2.8922e-05
41 *1413:A4 *451:49 2.81522e-06
42 *1416:A2 *1418:A2 0.000103788
43 *1426:A1 *1619:A1 0.000376466
44 *1611:B1 *1619:A1 0.0013758
45 *1611:B1 *451:49 0.000317994
46 *1611:B1 *451:53 0.00115865
47 *1613:A1 *451:10 0.000200778
48 *1619:A2 *1619:A1 0.000158666
49 *1620:A2 *451:10 0
50 *1622:A2 *451:53 0.000194093
51 *1687:D *451:10 2.84252e-05
52 *242:8 *451:49 3.98614e-06
53 *242:12 *1410:A2 0
54 *242:32 *1410:A2 0.000567375
55 *242:55 *1410:A2 2.74956e-05
56 *242:55 *451:21 1.14508e-05
57 *242:55 *451:36 8.88849e-06
58 *242:55 *451:49 1.78817e-06
59 *262:22 *1408:B 0.000689375
60 *262:22 *1418:A2 0.00046052
61 *269:14 *1418:A2 0.000103788
62 *269:14 *451:36 1.78817e-06
63 *272:6 *451:49 3.90996e-05
64 *273:10 *1619:A1 9.46745e-05
65 *273:10 *451:53 0.000142571
66 *279:16 *1619:A1 3.99518e-05
67 *279:18 *1619:A1 7.92185e-06
68 *447:79 *1408:B 0.000447626
69 *448:82 *1418:A2 0.000244646
*RES
1 *1721:Q *451:10 9.596 
2 *451:10 *1409:A2 5.332 
3 *451:10 *451:21 1.768 
4 *451:21 *1418:A2 15.164 
5 *451:21 *451:36 0.52 
6 *451:36 *1408:B 15.268 
7 *451:36 *451:49 1.352 
8 *451:49 *451:53 7.724 
9 *451:53 *1275:A2 9 
10 *451:53 *1619:A1 15.24 
11 *451:49 *1413:A2 4.5 
12 *1408:B *1410:A2 11.704 
*END

*D_NET *452 0.00930461
*CONN
*I *1621:A1 I *D gf180mcu_fd_sc_mcu7t5v0__aoi22_1
*I *1275:A1 I *D gf180mcu_fd_sc_mcu7t5v0__nor4_1
*I *1416:A1 I *D gf180mcu_fd_sc_mcu7t5v0__nor2_1
*I *1418:A1 I *D gf180mcu_fd_sc_mcu7t5v0__nand4_1
*I *1413:A1 I *D gf180mcu_fd_sc_mcu7t5v0__nand4_1
*I *1722:Q O *D gf180mcu_fd_sc_mcu7t5v0__dffq_1
*CAP
1 *1621:A1 0.000485962
2 *1275:A1 2.62518e-05
3 *1416:A1 0
4 *1418:A1 7.26196e-05
5 *1413:A1 4.01245e-05
6 *1722:Q 0
7 *452:20 0.000147778
8 *452:18 8.19358e-05
9 *452:14 0.000887467
10 *452:6 0.00130028
11 *1275:A1 *1797:I 0.000138384
12 *1621:A1 *1341:A4 7.81148e-05
13 *1621:A1 *1798:I 2.89188e-05
14 *452:14 *1418:A3 4.10019e-06
15 *452:14 *1423:A1 9.62442e-06
16 *452:14 *1797:I 0.00049821
17 *452:14 *476:61 4.55849e-05
18 ADDR_O[2] *452:14 0.000249279
19 *1421:A2 *452:14 0.000244512
20 *1422:B *1621:A1 0.000295809
21 *1422:B *452:14 0.000179237
22 *1611:A2 *1413:A1 0.00018553
23 *1611:A2 *452:18 0.000358353
24 *1611:A2 *452:20 0.000290658
25 *1611:B1 *1413:A1 0.000179413
26 *1611:B1 *452:18 0.000404614
27 *1611:B1 *452:20 0.000332849
28 *1621:B1 *1621:A1 3.28419e-05
29 *1687:D *1621:A1 0.000551187
30 *1687:D *452:14 2.71402e-05
31 *1722:D *452:14 0.000951689
32 *149:10 *1275:A1 0.00017298
33 *149:10 *452:14 3.4596e-05
34 *262:20 *452:14 0.000250975
35 *269:14 *1418:A1 0.000327138
36 *272:6 *1413:A1 0.000103788
37 *272:6 *1418:A1 0.000236426
38 *451:36 *1418:A1 2.81522e-06
39 *451:49 *1413:A1 4.18042e-05
40 *451:49 *1418:A1 5.63044e-06
*RES
1 *1722:Q *452:6 9 
2 *452:6 *452:14 13.34 
3 *452:14 *452:18 5.644 
4 *452:18 *452:20 0.936 
5 *452:20 *1413:A1 9.832 
6 *452:20 *1418:A1 9.936 
7 *452:18 *1416:A1 9 
8 *452:14 *1275:A1 5.02 
9 *452:6 *1621:A1 13.68 
*END

*D_NET *453 0.0107815
*CONN
*I *1421:A1 I *D gf180mcu_fd_sc_mcu7t5v0__nor2_1
*I *1623:A1 I *D gf180mcu_fd_sc_mcu7t5v0__aoi22_1
*I *1275:A4 I *D gf180mcu_fd_sc_mcu7t5v0__nor4_1
*I *1418:A3 I *D gf180mcu_fd_sc_mcu7t5v0__nand4_1
*I *1723:Q O *D gf180mcu_fd_sc_mcu7t5v0__dffq_1
*CAP
1 *1421:A1 0.000564361
2 *1623:A1 0.00054502
3 *1275:A4 0
4 *1418:A3 0.000328943
5 *1723:Q 0
6 *453:30 0.00115129
7 *453:10 0.000336174
8 *453:6 4.91394e-05
9 *1418:A3 *1423:A1 0.00050433
10 *1418:A3 *1795:I 0.000292328
11 *1418:A3 *1797:I 8.06159e-05
12 *1421:A1 *1341:A4 7.49136e-05
13 *1421:A1 *477:43 0.000107654
14 *1422:A1 *1421:A1 0.000418244
15 *1422:A1 *453:30 0.000537648
16 *1422:B *1421:A1 0.000618546
17 *1426:A1 *1421:A1 6.21662e-05
18 *1426:A1 *1623:A1 0.000237262
19 *1611:A2 *1418:A3 0.000270191
20 *1617:B1 *1421:A1 0
21 *1619:A1 *1421:A1 7.47044e-05
22 *1619:A1 *453:10 0.000367043
23 *1619:A1 *453:30 0.00128935
24 *1619:B1 *1421:A1 3.6012e-05
25 *1620:A2 *1421:A1 1.97922e-05
26 *1621:A2 *1421:A1 0.000227028
27 *1624:A2 *1623:A1 0.000536792
28 *1625:A2 *1623:A1 1.71326e-05
29 *1723:D *1421:A1 1.07369e-05
30 *1724:D *1623:A1 2.91884e-05
31 *262:20 *1418:A3 8.80731e-06
32 *262:22 *1418:A3 7.93961e-05
33 *273:10 *453:10 0.000367043
34 *273:10 *453:30 0.000784644
35 *279:12 *1623:A1 0.000157761
36 *279:16 *1623:A1 0.000134972
37 *279:67 *1421:A1 0.000318654
38 *279:101 *1623:A1 2.2e-05
39 *425:29 *1623:A1 9.28422e-05
40 *425:172 *1421:A1 2.46717e-05
41 *452:14 *1418:A3 4.10019e-06
*RES
1 *1723:Q *453:6 9 
2 *453:6 *453:10 5.436 
3 *453:10 *1418:A3 17.036 
4 *453:10 *1275:A4 4.5 
5 *453:6 *453:30 3.432 
6 *453:30 *1623:A1 13.68 
7 *453:30 *1421:A1 14.824 
*END

*D_NET *454 0.0161882
*CONN
*I *1424:A3 I *D gf180mcu_fd_sc_mcu7t5v0__nand3_1
*I *1625:A1 I *D gf180mcu_fd_sc_mcu7t5v0__aoi22_1
*I *1275:A3 I *D gf180mcu_fd_sc_mcu7t5v0__nor4_1
*I *1423:A1 I *D gf180mcu_fd_sc_mcu7t5v0__nor2_1
*I *1724:Q O *D gf180mcu_fd_sc_mcu7t5v0__dffq_1
*CAP
1 *1424:A3 0.000587002
2 *1625:A1 0.000806087
3 *1275:A3 0
4 *1423:A1 0.000229274
5 *1724:Q 3.46718e-05
6 *454:14 0.000811467
7 *454:8 0.00138828
8 *454:6 0.000621674
9 *1423:A1 *1795:I 0.000523382
10 *1424:A3 *1406:A4 2.96776e-06
11 *1424:A3 *1420:A2 0
12 *1424:A3 *1799:I 0
13 *1424:A3 *1800:I 0.000128806
14 *1424:A3 *560:58 0.000426955
15 *1625:A1 *1799:I 0.00020683
16 *1625:A1 *501:12 0.000317053
17 *454:14 *1797:I 1.78817e-06
18 *454:14 *1799:I 0.000370884
19 ADDR_O[4] *454:6 4.67771e-06
20 ADDR_O[4] *454:14 7.0955e-05
21 ADDR_O[5] *1625:A1 0.000159949
22 ADDR_O[6] *1424:A3 0.000554049
23 ADDR_O[6] *454:6 0.000179186
24 ADDR_O[6] *454:14 0
25 ADDR_O[7] *1424:A3 8.11055e-05
26 *1418:A3 *1423:A1 0.00050433
27 *1426:A1 *1423:A1 4.07478e-05
28 *1610:A1 *1424:A3 0.000775879
29 *1611:A2 *1423:A1 0.0012102
30 *1617:A2 *1423:A1 0.000106908
31 *1617:B1 *1423:A1 1.88794e-05
32 *1626:A2 *1625:A1 0.000681837
33 *1644:A1 *1625:A1 0.0024123
34 *1699:D *1625:A1 0.000222318
35 *149:10 *1423:A1 6.50535e-05
36 *149:10 *454:14 4.51575e-05
37 *157:36 *1424:A3 0.000271764
38 *241:79 *1625:A1 0.000247832
39 *241:79 *454:14 0.00024406
40 *251:27 *1424:A3 0.00141884
41 *279:10 *1625:A1 0.000149461
42 *279:18 *1423:A1 7.17651e-05
43 *280:18 *1625:A1 0.000184247
44 *452:14 *1423:A1 9.62442e-06
*RES
1 *1724:Q *454:6 5.02 
2 *454:6 *454:8 4.5 
3 *454:8 *454:14 9.284 
4 *454:14 *1423:A1 18.596 
5 *454:14 *1275:A3 4.5 
6 *454:8 *1625:A1 20.232 
7 *454:6 *1424:A3 22.652 
*END

*D_NET *455 0.00283292
*CONN
*I *1778:I I *D gf180mcu_fd_sc_mcu7t5v0__dlyc_1
*I *1313:A2 I *D gf180mcu_fd_sc_mcu7t5v0__nand2_1
*I *1701:Q O *D gf180mcu_fd_sc_mcu7t5v0__dffq_1
*CAP
1 *1778:I 0.000270608
2 *1313:A2 6.15718e-05
3 *1701:Q 0.000149643
4 *455:12 0.000481823
5 *1778:I *487:175 5.85121e-05
6 *1778:I *553:38 0
7 *455:12 *487:175 0.000415294
8 *1313:A1 *1313:A2 0.00011484
9 *1313:A1 *1778:I 0.000177086
10 *150:59 *1313:A2 0.000115371
11 *150:59 *455:12 0.000205662
12 *219:28 *1313:A2 0.000169099
13 *219:28 *455:12 0.000198112
14 *361:42 *455:12 0.000415294
*RES
1 *1701:Q *455:12 16.204 
2 *455:12 *1313:A2 5.644 
3 *455:12 *1778:I 15.892 
*END

*D_NET *456 0.00336925
*CONN
*I *1243:I I *D gf180mcu_fd_sc_mcu7t5v0__clkinv_1
*I *1499:B2 I *D gf180mcu_fd_sc_mcu7t5v0__aoi22_1
*I *1496:A2 I *D gf180mcu_fd_sc_mcu7t5v0__nand2_1
*I *1702:Q O *D gf180mcu_fd_sc_mcu7t5v0__dffq_1
*CAP
1 *1243:I 0.000246673
2 *1499:B2 9.67041e-05
3 *1496:A2 0.00025543
4 *1702:Q 0
5 *456:17 0.000481886
6 *456:4 0.000393939
7 *456:17 *1499:A2 6.57935e-06
8 *1495:A1 *1243:I 0
9 *1495:A1 *456:17 0
10 *1496:A1 *1496:A2 9.76253e-05
11 *1499:A1 *456:17 0
12 *1499:B1 *456:17 0
13 *1500:A1 *1496:A2 0.000343079
14 *1500:A1 *1499:B2 5.77431e-06
15 *1501:A1 *1496:A2 0.000317182
16 *1501:A2 *1499:B2 9.06989e-05
17 *1501:A2 *456:17 0.000271764
18 *1506:A2 *1243:I 0.00013468
19 *1506:A2 *1499:B2 0.000179186
20 *1506:A2 *456:17 3.70435e-05
21 *1702:D *1243:I 0
22 *351:10 *1243:I 0.000228035
23 *351:10 *1499:B2 0.00018297
*RES
1 *1702:Q *456:4 4.5 
2 *456:4 *1496:A2 7.62 
3 *456:4 *456:17 5.644 
4 *456:17 *1499:B2 10.352 
5 *456:17 *1243:I 11.496 
*END

*D_NET *457 0.00570767
*CONN
*I *1497:A2 I *D gf180mcu_fd_sc_mcu7t5v0__nand2_1
*I *1255:I I *D gf180mcu_fd_sc_mcu7t5v0__clkinv_1
*I *1703:Q O *D gf180mcu_fd_sc_mcu7t5v0__dffq_1
*CAP
1 *1497:A2 0.000361069
2 *1255:I 0
3 *1703:Q 0.000433852
4 *457:12 0.000794921
5 *1497:A2 *1491:A2 0.000948895
6 *457:12 *1705:CLK 8.86703e-05
7 *457:12 *461:12 0.000109096
8 *1493:A1 *1497:A2 4.11175e-05
9 *1497:A1 *1497:A2 0.000104736
10 *1498:A1 *1497:A2 0.000783873
11 *1498:A1 *457:12 1.60773e-05
12 *1499:A1 *457:12 0
13 *1501:A1 *1497:A2 0.000541971
14 *1505:A1 *1497:A2 0.000471019
15 *1505:A3 *1497:A2 0.000406972
16 *1506:A2 *1497:A2 8.92721e-05
17 *1506:A2 *457:12 0
18 *132:8 *457:12 1.66971e-05
19 *132:21 *457:12 0
20 *343:18 *1497:A2 0.00049943
*RES
1 *1703:Q *457:12 17.036 
2 *457:12 *1255:I 4.5 
3 *457:12 *1497:A2 20.884 
*END

*D_NET *458 0.0108983
*CONN
*I *1354:A2 I *D gf180mcu_fd_sc_mcu7t5v0__nor2_1
*I *1482:A1 I *D gf180mcu_fd_sc_mcu7t5v0__nand2_1
*I *1483:A1 I *D gf180mcu_fd_sc_mcu7t5v0__or2_1
*I *1290:A2 I *D gf180mcu_fd_sc_mcu7t5v0__nand2_1
*I *1704:Q O *D gf180mcu_fd_sc_mcu7t5v0__dffq_1
*CAP
1 *1354:A2 0
2 *1482:A1 0.000675753
3 *1483:A1 0
4 *1290:A2 0
5 *1704:Q 0.000301195
6 *458:35 0.000883578
7 *458:20 0.000564716
8 *458:12 0.000658087
9 *1482:A1 *1296:A1 0.000211125
10 *1482:A1 *1482:A2 0.000497696
11 *1482:A1 *1484:A2 0.000602924
12 *1482:A1 *1487:A1 2.24654e-05
13 *1482:A1 *1527:I0 0
14 *1482:A1 *1810:I 1.0603e-05
15 *1482:A1 *460:8 0.000103788
16 *458:12 *1364:A2 0
17 *458:20 *1523:A1 3.20057e-06
18 *458:35 *1523:A1 2.78468e-05
19 *1292:A2 *458:20 0.000789406
20 *1295:A1 *1482:A1 0.000194511
21 *1297:A3 *1482:A1 3.81056e-05
22 *1303:A2 *1482:A1 0.000215549
23 *1303:A2 *458:35 0.000497696
24 *1488:C2 *1482:A1 0.00034108
25 *1641:A2 *458:12 0.000582349
26 *1641:A2 *458:20 0.000280581
27 *1697:D *458:12 0.000161139
28 *1697:D *458:20 0.000171885
29 *1704:D *458:12 0.000166051
30 *11:16 *458:12 0.000865228
31 *112:16 *458:20 8.07741e-05
32 *142:14 *458:20 7.43413e-05
33 *142:25 *458:20 0
34 *142:99 *458:12 9.35542e-06
35 *158:36 *458:35 1.26446e-05
36 *161:25 *458:35 0.000113027
37 *161:29 *1482:A1 0.0008261
38 *161:29 *458:35 8.89695e-05
39 *328:14 *1482:A1 0.000826484
*RES
1 *1704:Q *458:12 13.056 
2 *458:12 *458:20 4.368 
3 *458:20 *1290:A2 9 
4 *458:20 *458:35 6.892 
5 *458:35 *1483:A1 4.5 
6 *458:35 *1482:A1 22.34 
7 *458:12 *1354:A2 9 
*END

*D_NET *459 0.0146771
*CONN
*I *1359:A2 I *D gf180mcu_fd_sc_mcu7t5v0__nor2_1
*I *1484:A1 I *D gf180mcu_fd_sc_mcu7t5v0__or2_1
*I *1485:A1 I *D gf180mcu_fd_sc_mcu7t5v0__nand2_1
*I *1293:A1 I *D gf180mcu_fd_sc_mcu7t5v0__oai21_1
*I *1705:Q O *D gf180mcu_fd_sc_mcu7t5v0__dffq_1
*CAP
1 *1359:A2 0.000613672
2 *1484:A1 9.27845e-05
3 *1485:A1 0.000110839
4 *1293:A1 3.39778e-05
5 *1705:Q 0
6 *459:33 0.00104435
7 *459:12 0.00119102
8 *459:4 0.000929988
9 *1359:A2 *1364:A2 0.000918301
10 *1359:A2 *461:10 0.000800584
11 *1359:A2 *461:12 0.000427051
12 *1484:A1 *1295:A2 1.13316e-05
13 *1485:A1 *1296:A1 5.71865e-05
14 *1485:A1 *1482:A2 0.000185538
15 *1485:A1 *1484:A2 2.21891e-05
16 *1485:A1 *1485:A2 0.000186465
17 *1485:A1 *1486:A1 4.07478e-05
18 *1485:A1 *1486:A2 2.17376e-05
19 *1485:A1 *1487:A1 0.000137793
20 *1485:A1 *462:18 6.41072e-05
21 *459:12 *461:12 0.000184904
22 *459:12 *504:46 0.000225822
23 *459:12 *557:42 7.05729e-05
24 *459:33 *1483:A2 9.26914e-05
25 *459:33 *1523:A1 0.000603632
26 *459:33 *461:12 9.09544e-05
27 *459:33 *462:12 6.85302e-05
28 *459:33 *558:14 0.000237086
29 *1293:B *1293:A1 2.38656e-05
30 *1294:A1 *459:12 0.00037297
31 *1294:A1 *459:33 1.23748e-05
32 *1294:A2 *459:33 8.10026e-05
33 *1294:B *459:33 8.58618e-05
34 *1296:A2 *1485:A1 0.000808601
35 *1296:A2 *459:33 0.000297254
36 *1297:A2 *459:33 0.000596433
37 *1297:A3 *1485:A1 0.00057698
38 *1297:A3 *459:33 0.000331109
39 *1298:A2 *1359:A2 0.000268824
40 *1300:A1 *459:12 7.87395e-06
41 *1303:A3 *1359:A2 0
42 *1312:A1 *1359:A2 7.14128e-05
43 *1349:A1 *1359:A2 0.000743891
44 *1359:A1 *1359:A2 4.39457e-05
45 *1363:S *1359:A2 0.000100457
46 *1364:A1 *1359:A2 3.42651e-05
47 *1365:A3 *1359:A2 0.000145381
48 *1366:C *1359:A2 0.000105623
49 *1505:A1 *459:33 0.000228173
50 *1695:D *459:12 2.19312e-06
51 *1705:D *459:33 0.000441953
52 *142:33 *1359:A2 3.37878e-06
53 *142:50 *1359:A2 0.000147017
54 *142:99 *1359:A2 0
55 *160:25 *1293:A1 1.07369e-05
56 *160:34 *1293:A1 4.18157e-05
57 *161:25 *459:12 0.000406983
58 *161:29 *459:33 4.97842e-05
59 *175:44 *1359:A2 0.00012524
60 *328:14 *1484:A1 4.78801e-05
*RES
1 *1705:Q *459:4 4.5 
2 *459:4 *459:12 8.972 
3 *459:12 *1293:A1 9.312 
4 *459:12 *459:33 19.192 
5 *459:33 *1485:A1 12.328 
6 *459:33 *1484:A1 9.52 
7 *459:4 *1359:A2 22.652 
*END

*D_NET *460 0.0187789
*CONN
*I *1364:A2 I *D gf180mcu_fd_sc_mcu7t5v0__nand2_1
*I *1295:A2 I *D gf180mcu_fd_sc_mcu7t5v0__nand2_1
*I *1489:A1 I *D gf180mcu_fd_sc_mcu7t5v0__or2_1
*I *1490:A1 I *D gf180mcu_fd_sc_mcu7t5v0__nand2_1
*I *1706:Q O *D gf180mcu_fd_sc_mcu7t5v0__dffq_1
*CAP
1 *1364:A2 0.000839394
2 *1295:A2 0.000464884
3 *1489:A1 0.000174647
4 *1490:A1 0.000160094
5 *1706:Q 2.84331e-05
6 *460:14 0.000562102
7 *460:10 0.000895857
8 *460:8 0.00107144
9 *1364:A2 *462:12 0.00250759
10 *1364:A2 *556:69 0.000456976
11 *1364:A2 *560:20 0.00181699
12 *1489:A1 *1604:I0 4.67771e-06
13 *1489:A1 *1605:I1 2.41106e-05
14 *1490:A1 *1482:A2 5.04245e-05
15 *1490:A1 *1483:A2 0.000658946
16 *1490:A1 *1489:A2 0.000211714
17 *1490:A1 *1490:A2 4.18157e-05
18 *1490:A1 *1604:I0 2.24654e-05
19 *460:10 *1483:A2 0.000539696
20 *460:10 *462:12 0.000259996
21 *460:10 *462:18 8.58879e-05
22 *460:10 *558:14 2.47495e-05
23 *460:14 *1483:A2 0.00146483
24 *460:14 *1486:A2 4.22744e-05
25 DAT_O[6] *1364:A2 9.3131e-05
26 *1297:A2 *1295:A2 0
27 *1297:A2 *1364:A2 0.0002261
28 *1297:A2 *460:10 7.99333e-05
29 *1303:A2 *460:8 3.22108e-05
30 *1303:A3 *1364:A2 0.000548831
31 *1312:A3 *1364:A2 0.00139288
32 *1359:A1 *1364:A2 1.29135e-05
33 *1359:A2 *1364:A2 0.000918301
34 *1363:I0 *1364:A2 2.98915e-05
35 *1363:S *1364:A2 6.47535e-05
36 *1364:A1 *1364:A2 7.84197e-05
37 *1482:A1 *460:8 0.000103788
38 *1484:A1 *1295:A2 1.13316e-05
39 *1488:B2 *460:10 4.58772e-05
40 *1488:B2 *460:14 2.06237e-05
41 *1488:C2 *1295:A2 2.92501e-05
42 *1494:A2 *1489:A1 2.04597e-06
43 *1502:A1 *1295:A2 9.75661e-05
44 *1502:B1 *1295:A2 0.000194511
45 *1647:A2 *1364:A2 0.000123777
46 *1704:D *1364:A2 2.9802e-06
47 *11:16 *1364:A2 0
48 *328:14 *1295:A2 0.000164976
49 *330:6 *1295:A2 0.000376466
50 *331:8 *460:14 8.08025e-05
51 *336:12 *1490:A1 0.000970477
52 *336:12 *460:14 0.000667085
53 *458:12 *1364:A2 0
*RES
1 *1706:Q *460:8 9.312 
2 *460:8 *460:10 2.808 
3 *460:10 *460:14 4.368 
4 *460:14 *1490:A1 12.848 
5 *460:14 *1489:A1 9.728 
6 *460:10 *1295:A2 12.848 
7 *460:8 *1364:A2 23.768 
*END

*D_NET *461 0.0134729
*CONN
*I *1370:A2 I *D gf180mcu_fd_sc_mcu7t5v0__nor2_1
*I *1298:A1 I *D gf180mcu_fd_sc_mcu7t5v0__oai21_1
*I *1492:A1 I *D gf180mcu_fd_sc_mcu7t5v0__nand2_1
*I *1491:A1 I *D gf180mcu_fd_sc_mcu7t5v0__or2_1
*I *1707:Q O *D gf180mcu_fd_sc_mcu7t5v0__dffq_1
*CAP
1 *1370:A2 0.000450816
2 *1298:A1 5.51609e-05
3 *1492:A1 0.000392804
4 *1491:A1 0.00011663
5 *1707:Q 5.07013e-05
6 *461:12 0.00150464
7 *461:10 0.00160264
8 *461:8 0.0010538
9 *1370:A2 *1478:I3 0.000437384
10 *1370:A2 *1636:A1 0.00110014
11 *1370:A2 *1636:B2 0.000270931
12 *1370:A2 *1768:I 0.000286309
13 *1370:A2 *1774:I 0.00023882
14 *1370:A2 *478:12 4.54605e-05
15 *1370:A2 *478:14 7.60765e-05
16 *1492:A1 *1491:A2 0.000807103
17 *1492:A1 *469:6 0.000194522
18 *1492:A1 *469:28 2.73715e-06
19 *461:8 *491:30 0.000337769
20 *461:10 *1707:CLK 0.000158397
21 *461:10 *478:14 4.04794e-05
22 *461:12 *1707:CLK 5.54907e-05
23 *461:12 *557:42 5.57549e-06
24 DAT_O[7] *1370:A2 0.000339318
25 *1294:A2 *461:12 0.000184061
26 *1294:B *461:12 3.41371e-05
27 *1298:A2 *461:12 0.000517182
28 *1312:A2 *461:8 0.00012524
29 *1359:A2 *461:10 0.000800584
30 *1359:A2 *461:12 0.000427051
31 *1494:A1 *1492:A1 3.63429e-05
32 *1498:A1 *1491:A1 0.000143493
33 *1498:A1 *461:12 0.000427527
34 *1500:A4 *1491:A1 5.76352e-05
35 *1500:A4 *461:12 7.68443e-05
36 *1501:A1 *1492:A1 3.18325e-05
37 *1505:A1 *461:12 2.17484e-05
38 *1506:A2 *1492:A1 0
39 *1705:D *461:12 7.89266e-05
40 *1707:D *1298:A1 0.000182219
41 *1713:D *1370:A2 0
42 *1713:D *461:10 0
43 *142:50 *1298:A1 2.33885e-05
44 *337:10 *1492:A1 0.000129884
45 *338:8 *1492:A1 0.000166161
46 *351:10 *1492:A1 0
47 *457:12 *461:12 0.000109096
48 *459:12 *461:12 0.000184904
49 *459:33 *461:12 9.09544e-05
*RES
1 *1707:Q *461:8 9.936 
2 *461:8 *461:10 4.472 
3 *461:10 *461:12 11.544 
4 *461:12 *1491:A1 10.248 
5 *461:12 *1492:A1 14.2 
6 *461:10 *1298:A1 9.52 
7 *461:8 *1370:A2 16.384 
*END

*D_NET *462 0.0167122
*CONN
*I *1375:A2 I *D gf180mcu_fd_sc_mcu7t5v0__nor2_1
*I *1301:A2 I *D gf180mcu_fd_sc_mcu7t5v0__nand2_1
*I *1487:A1 I *D gf180mcu_fd_sc_mcu7t5v0__nand2_1
*I *1486:A1 I *D gf180mcu_fd_sc_mcu7t5v0__or2_1
*I *1708:Q O *D gf180mcu_fd_sc_mcu7t5v0__dffq_1
*CAP
1 *1375:A2 0.000400846
2 *1301:A2 5.54663e-05
3 *1487:A1 0.000285794
4 *1486:A1 0.000419263
5 *1708:Q 0
6 *462:18 0.000997063
7 *462:12 0.000832273
8 *462:4 0.000885646
9 *1301:A2 *1525:I0 3.4596e-05
10 *1301:A2 *558:14 0.000271022
11 *1375:A2 *1660:CLK 6.457e-05
12 *1486:A1 *1485:A2 2.46831e-05
13 *1486:A1 *1486:A2 0.000236849
14 *1487:A1 *1482:A2 0.000437177
15 *1487:A1 *1485:A2 6.5207e-05
16 *1487:A1 *1487:A2 0.000126399
17 *1487:A1 *470:8 2.24654e-05
18 *462:12 *1706:CLK 0.000542895
19 *462:12 *478:62 0.00137582
20 *462:12 *478:82 0.000621171
21 *462:12 *558:14 0.00101122
22 *462:12 *560:20 0.000788078
23 *462:18 *1486:A2 0.00019118
24 *462:18 *558:14 0.000107648
25 DAT_O[7] *1375:A2 0.000978179
26 *1296:A2 *1487:A1 3.75515e-05
27 *1296:A2 *462:18 0.00128702
28 *1364:A2 *462:12 0.00250759
29 *1375:A1 *1375:A2 1.43e-05
30 *1482:A1 *1487:A1 2.24654e-05
31 *1485:A1 *1486:A1 4.07478e-05
32 *1485:A1 *1487:A1 0.000137793
33 *1485:A1 *462:18 6.41072e-05
34 *1488:B2 *462:18 9.52686e-05
35 *1488:C2 *1486:A1 2.81522e-06
36 *1488:C2 *1487:A1 6.31135e-06
37 *1494:A2 *1486:A1 0
38 *1503:B2 *1486:A1 6.31509e-05
39 *1504:A1 *1486:A1 0.000135988
40 *1504:A2 *1486:A1 0.000291223
41 *1779:I *462:12 0.000103298
42 *161:29 *1301:A2 0.000314856
43 *161:29 *462:12 0.000254486
44 *331:8 *462:18 0.000110557
45 *336:12 *1486:A1 3.27153e-05
46 *459:33 *462:12 6.85302e-05
47 *460:10 *462:12 0.000259996
48 *460:10 *462:18 8.58879e-05
*RES
1 *1708:Q *462:4 4.5 
2 *462:4 *462:12 22.312 
3 *462:12 *462:18 12.848 
4 *462:18 *1486:A1 8.972 
5 *462:18 *1487:A1 7.828 
6 *462:12 *1301:A2 5.436 
7 *462:4 *1375:A2 8.244 
*END

*D_NET *463 0.0204822
*CONN
*I *1464:A2 I *D gf180mcu_fd_sc_mcu7t5v0__nand2_1
*I *1596:I0 I *D gf180mcu_fd_sc_mcu7t5v0__mux2_2
*I *1597:A1 I *D gf180mcu_fd_sc_mcu7t5v0__nand4_1
*I *1533:A3 I *D gf180mcu_fd_sc_mcu7t5v0__nor3_1
*I *1671:Q O *D gf180mcu_fd_sc_mcu7t5v0__dffq_1
*CAP
1 *1464:A2 0.000401924
2 *1596:I0 0
3 *1597:A1 0.00187918
4 *1533:A3 0
5 *1671:Q 8.75444e-05
6 *463:34 0.00252892
7 *463:16 0.00118074
8 *463:6 0.00102047
9 *1464:A2 *485:28 6.19563e-05
10 *1464:A2 *485:32 0.000488457
11 *1464:A2 *486:12 9.75546e-05
12 *1464:A2 *486:25 3.98026e-05
13 *1597:A1 *1448:A1 0.000113016
14 *1597:A1 *1534:A1 0.000480985
15 *1597:A1 *1534:A2 0.000178541
16 *1597:A1 *1587:A2 0.00070471
17 *1597:A1 *1747:I 4.97681e-05
18 *1597:A1 *472:26 4.93677e-05
19 *1597:A1 *483:57 0.000153764
20 *1597:A1 *483:63 0.00060259
21 *1597:A1 *486:52 4.18042e-05
22 *1597:A1 *486:117 1.64767e-05
23 *1597:A1 *488:43 0.000111169
24 *463:6 *1261:I 9.35542e-06
25 *463:6 *485:28 4.67771e-06
26 *463:16 *1596:I1 5.47338e-06
27 *463:16 *1607:A2 0.000515447
28 *463:16 *1758:I 0.00139095
29 *463:16 *485:28 5.68036e-05
30 *463:16 *486:12 0
31 *463:34 *472:26 1.33717e-05
32 *463:34 *485:20 0.000520556
33 *463:34 *486:52 0.000179772
34 *1463:A1 *463:34 8.52105e-06
35 *1511:A1 *1464:A2 0.000171397
36 *1515:A2 *463:16 0
37 *1529:A2 *1597:A1 0.000159682
38 *1563:A1 *463:34 4.17612e-05
39 *1563:B *463:34 4.26345e-05
40 *1565:A1 *463:6 0.000207576
41 *1565:A1 *463:16 0.000314403
42 *1565:A2 *1464:A2 0.000254486
43 *1565:B *463:16 0.000177525
44 *1568:B *463:34 0.00023706
45 *1569:A1 *463:16 7.80011e-05
46 *1569:A1 *463:34 0.000179413
47 *1570:A1 *463:34 3.51644e-05
48 *1590:A2 *1597:A1 0.000146896
49 *1590:C *1597:A1 0.000199544
50 *1591:A1 *1597:A1 6.61319e-05
51 *1595:A2 *463:34 5.89116e-05
52 *1671:D *1464:A2 0.000640301
53 *138:6 *463:6 2.81522e-06
54 *309:35 *1597:A1 0.00114333
55 *316:61 *1597:A1 0.00188572
56 *316:71 *1597:A1 0.000949832
57 *356:14 *1464:A2 5.61793e-05
58 *422:14 *463:16 0.000235806
59 *422:45 *1597:A1 0.000203955
*RES
1 *1671:Q *463:6 5.228 
2 *463:6 *463:16 15.552 
3 *463:16 *463:34 23.72 
4 *463:34 *1533:A3 4.5 
5 *463:34 *1597:A1 26.028 
6 *463:16 *1596:I0 4.5 
7 *463:6 *1464:A2 27.492 
*END

*D_NET *464 0.00255128
*CONN
*I *1495:A2 I *D gf180mcu_fd_sc_mcu7t5v0__nand2_1
*I *1259:I I *D gf180mcu_fd_sc_mcu7t5v0__clkinv_1
*I *1599:A1 I *D gf180mcu_fd_sc_mcu7t5v0__nand4_1
*I *1672:Q O *D gf180mcu_fd_sc_mcu7t5v0__dffq_1
*CAP
1 *1495:A2 0.000142976
2 *1259:I 0
3 *1599:A1 0.000292187
4 *1672:Q 0
5 *464:6 0.000581044
6 *464:4 0.000431833
7 *1599:A1 *489:8 0
8 *1495:A1 *1495:A2 0.000122244
9 *1495:A1 *464:6 5.47431e-06
10 *1501:A1 *1495:A2 0
11 *1506:A1 *464:6 0
12 *1506:B *1599:A1 6.03575e-05
13 *1506:B *464:6 1.19584e-05
14 *1600:B *1599:A1 0
15 *1600:B *464:6 0
16 *136:6 *1495:A2 5.47431e-06
17 *136:6 *464:6 0.000897733
18 *422:45 *1599:A1 0
*RES
1 *1672:Q *464:4 4.5 
2 *464:4 *464:6 3.016 
3 *464:6 *1599:A1 6.58 
4 *464:6 *1259:I 4.5 
5 *464:4 *1495:A2 5.956 
*END

*D_NET *465 0.00356457
*CONN
*I *1499:A2 I *D gf180mcu_fd_sc_mcu7t5v0__aoi22_1
*I *1260:I I *D gf180mcu_fd_sc_mcu7t5v0__clkinv_1
*I *1601:I1 I *D gf180mcu_fd_sc_mcu7t5v0__mux2_2
*I *1498:A2 I *D gf180mcu_fd_sc_mcu7t5v0__nand2_1
*I *1673:Q O *D gf180mcu_fd_sc_mcu7t5v0__dffq_1
*CAP
1 *1499:A2 0.000207321
2 *1260:I 9.61432e-05
3 *1601:I1 0.000208429
4 *1498:A2 0
5 *1673:Q 0
6 *465:28 0.000447608
7 *465:8 0.000377138
8 *465:4 0.000312853
9 *1601:I1 *1674:CLK 1.25923e-05
10 *1497:A1 *1601:I1 8.1598e-06
11 *1497:A1 *465:8 8.75081e-05
12 *1497:A1 *465:28 1.33438e-05
13 *1498:A1 *1601:I1 0.000113016
14 *1498:A1 *465:8 4.07478e-05
15 *1499:B1 *1499:A2 5.20034e-05
16 *1500:A4 *465:8 0.000103933
17 *1500:A4 *465:28 0.000122244
18 *1501:A2 *1499:A2 0
19 *1501:A3 *465:28 0.000135913
20 *1501:A4 *1260:I 0
21 *1501:A4 *1499:A2 0
22 *1598:A2 *1260:I 0
23 *1601:S *1260:I 0.000428914
24 *1601:S *1499:A2 0.000271774
25 *1601:S *1601:I1 1.85662e-05
26 *1791:I *1601:I1 5.13977e-05
27 *136:23 *1499:A2 4.36433e-05
28 *136:23 *465:28 0.000320012
29 *137:6 *465:28 1.61622e-06
30 *343:18 *1601:I1 3.1721e-05
31 *343:18 *465:28 5.13977e-05
32 *456:17 *1499:A2 6.57935e-06
*RES
1 *1673:Q *465:4 4.5 
2 *465:4 *465:8 1.872 
3 *465:8 *1498:A2 4.5 
4 *465:8 *1601:I1 6.476 
5 *465:4 *465:28 6.268 
6 *465:28 *1260:I 10.144 
7 *465:28 *1499:A2 11.184 
*END

*D_NET *466 0.0201151
*CONN
*I *1482:A2 I *D gf180mcu_fd_sc_mcu7t5v0__nand2_1
*I *1483:A2 I *D gf180mcu_fd_sc_mcu7t5v0__or2_1
*I *1601:I0 I *D gf180mcu_fd_sc_mcu7t5v0__mux2_2
*I *1602:I1 I *D gf180mcu_fd_sc_mcu7t5v0__mux2_2
*I *1674:Q O *D gf180mcu_fd_sc_mcu7t5v0__dffq_1
*CAP
1 *1482:A2 0.000693917
2 *1483:A2 0.000452924
3 *1601:I0 2.25399e-05
4 *1602:I1 0.000822546
5 *1674:Q 0.000441547
6 *466:34 0.00153437
7 *466:25 0.000620296
8 *466:12 0.00147432
9 *1482:A2 *1484:A2 8.58618e-05
10 *1482:A2 *1486:A2 1.90343e-05
11 *1482:A2 *1489:A2 1.18091e-06
12 *1482:A2 *1604:I0 0
13 *1482:A2 *1605:I0 7.24199e-05
14 *1482:A2 *1605:I1 3.95619e-06
15 *1482:A2 *1605:S 0
16 *1482:A2 *467:38 0.00141757
17 *1483:A2 *1489:A2 0.000844684
18 *1483:A2 *1523:A1 7.05729e-05
19 *1483:A2 *492:339 0.000962784
20 *1602:I1 *1602:I0 2.93608e-05
21 *1602:I1 *492:324 2.20593e-05
22 *1602:I1 *492:339 3.14958e-05
23 *466:12 *1608:A2 0
24 *466:12 *1756:I 0.000450565
25 *466:12 *474:122 6.35026e-05
26 *466:12 *483:24 2.26816e-05
27 *466:12 *492:324 0
28 *466:12 *522:14 0.000316249
29 *466:12 *563:34 2.73715e-06
30 *466:25 *1756:I 0.00105348
31 *466:25 *492:307 0.000242044
32 *466:34 *1489:A2 2.79802e-06
33 *466:34 *1604:I0 0
34 *466:34 *1605:I1 5.01349e-06
35 *466:34 *469:6 7.76855e-05
36 *1296:A2 *1482:A2 0.000113027
37 *1297:A2 *1483:A2 0.000259344
38 *1482:A1 *1482:A2 0.000497696
39 *1485:A1 *1482:A2 0.000185538
40 *1487:A1 *1482:A2 0.000437177
41 *1488:C2 *1482:A2 2.05998e-05
42 *1490:A1 *1482:A2 5.04245e-05
43 *1490:A1 *1483:A2 0.000658946
44 *1497:A1 *1601:I0 0.000276007
45 *1497:A1 *466:25 0
46 *1497:A1 *466:34 0.00049014
47 *1601:S *1601:I0 0.000122244
48 *1674:D *466:25 2.11353e-05
49 *1675:D *1602:I1 0.000114706
50 *1676:D *1602:I1 3.56211e-05
51 *1678:D *1482:A2 6.87156e-05
52 *1791:I *1601:I0 3.50983e-05
53 *1791:I *466:34 8.12098e-05
54 *142:14 *1602:I1 0.000176623
55 *142:14 *466:25 0.00216928
56 *161:29 *1483:A2 0.000309364
57 *336:12 *1482:A2 0
58 *343:18 *466:25 3.48225e-05
59 *459:33 *1483:A2 9.26914e-05
60 *460:10 *1483:A2 0.000539696
61 *460:14 *1483:A2 0.00146483
*RES
1 *1674:Q *466:12 13.056 
2 *466:12 *1602:I1 15.552 
3 *466:12 *466:25 10.636 
4 *466:25 *1601:I0 5.228 
5 *466:25 *466:34 3.224 
6 *466:34 *1483:A2 32.172 
7 *466:34 *1482:A2 22.236 
*END

*D_NET *467 0.0113091
*CONN
*I *1484:A2 I *D gf180mcu_fd_sc_mcu7t5v0__or2_1
*I *1485:A2 I *D gf180mcu_fd_sc_mcu7t5v0__nand2_1
*I *1603:I1 I *D gf180mcu_fd_sc_mcu7t5v0__mux2_2
*I *1602:I0 I *D gf180mcu_fd_sc_mcu7t5v0__mux2_2
*I *1675:Q O *D gf180mcu_fd_sc_mcu7t5v0__dffq_1
*CAP
1 *1484:A2 0.000149851
2 *1485:A2 8.37336e-05
3 *1603:I1 4.20703e-05
4 *1602:I0 0.000216668
5 *1675:Q 0.000485234
6 *467:38 0.000750793
7 *467:14 0.000321713
8 *467:12 0.00106542
9 *1484:A2 *1296:A1 0.000602924
10 *1485:A2 *470:8 0.000476175
11 *1602:I0 *1602:S 0.00070795
12 *1603:I1 *1602:S 0.000113027
13 *467:12 *474:161 8.79757e-05
14 *467:12 *492:339 0
15 *467:12 *518:10 8.0602e-05
16 *467:14 *1602:S 0.000274703
17 *467:38 *1602:S 0.000271764
18 *467:38 *1605:S 0.00145934
19 *467:38 *468:12 0
20 *467:38 *468:28 0
21 *467:38 *518:14 0.000310596
22 *1482:A1 *1484:A2 0.000602924
23 *1482:A2 *1484:A2 8.58618e-05
24 *1482:A2 *467:38 0.00141757
25 *1485:A1 *1484:A2 2.21891e-05
26 *1485:A1 *1485:A2 0.000186465
27 *1486:A1 *1485:A2 2.46831e-05
28 *1487:A1 *1485:A2 6.5207e-05
29 *1488:C2 *1484:A2 4.7605e-05
30 *1602:I1 *1602:I0 2.93608e-05
31 *1676:D *467:12 1.53331e-05
32 *1677:D *1603:I1 1.8858e-05
33 *1677:D *467:12 0.00108303
34 *1678:D *467:38 0.000209505
35 *336:12 *467:38 0
*RES
1 *1675:Q *467:12 14.096 
2 *467:12 *467:14 0.728 
3 *467:14 *1602:I0 11.496 
4 *467:14 *1603:I1 9.52 
5 *467:12 *467:38 7.696 
6 *467:38 *1485:A2 10.352 
7 *467:38 *1484:A2 11.6 
*END

*D_NET *468 0.00479295
*CONN
*I *1490:A2 I *D gf180mcu_fd_sc_mcu7t5v0__nand2_1
*I *1489:A2 I *D gf180mcu_fd_sc_mcu7t5v0__or2_1
*I *1604:I1 I *D gf180mcu_fd_sc_mcu7t5v0__mux2_2
*I *1603:I0 I *D gf180mcu_fd_sc_mcu7t5v0__mux2_2
*I *1676:Q O *D gf180mcu_fd_sc_mcu7t5v0__dffq_1
*CAP
1 *1490:A2 1.2628e-05
2 *1489:A2 0.000129053
3 *1604:I1 0.00013242
4 *1603:I0 0
5 *1676:Q 0
6 *468:28 0.000289301
7 *468:12 0.000336994
8 *468:6 0.000352195
9 *1489:A2 *1604:I0 0.000337769
10 *1489:A2 *492:339 0.00133112
11 *1490:A2 *1604:I0 7.84307e-05
12 *1604:I1 *1604:S 8.94348e-05
13 *1604:I1 *518:10 3.22108e-05
14 *468:12 *492:339 4.12549e-05
15 *468:12 *518:10 0.000218453
16 *468:28 *492:339 4.69205e-05
17 *1482:A2 *1489:A2 1.18091e-06
18 *1483:A2 *1489:A2 0.000844684
19 *1490:A1 *1489:A2 0.000211714
20 *1490:A1 *1490:A2 4.18157e-05
21 *1677:D *1604:I1 9.87902e-05
22 *1677:D *468:12 0.000139032
23 *336:12 *1489:A2 2.47495e-05
24 *466:34 *1489:A2 2.79802e-06
25 *467:38 *468:12 0
26 *467:38 *468:28 0
*RES
1 *1676:Q *468:6 9 
2 *468:6 *468:12 6.788 
3 *468:12 *1603:I0 4.5 
4 *468:12 *1604:I1 5.852 
5 *468:6 *468:28 5.644 
6 *468:28 *1489:A2 17.868 
7 *468:28 *1490:A2 4.812 
*END

*D_NET *469 0.00640961
*CONN
*I *1605:I1 I *D gf180mcu_fd_sc_mcu7t5v0__mux2_2
*I *1604:I0 I *D gf180mcu_fd_sc_mcu7t5v0__mux2_2
*I *1492:A2 I *D gf180mcu_fd_sc_mcu7t5v0__nand2_1
*I *1491:A2 I *D gf180mcu_fd_sc_mcu7t5v0__or2_1
*I *1677:Q O *D gf180mcu_fd_sc_mcu7t5v0__dffq_1
*CAP
1 *1605:I1 0.000212559
2 *1604:I0 0.000868244
3 *1492:A2 8.11714e-05
4 *1491:A2 0.000153804
5 *1677:Q 0
6 *469:28 0.00111591
7 *469:6 0.000400712
8 *469:4 0.000200848
9 *1492:A2 *492:339 0
10 *1604:I0 *1604:S 0.00010861
11 *1604:I0 *1678:CLK 0.000227524
12 *1604:I0 *492:339 0.000414596
13 *1604:I0 *518:10 1.01702e-05
14 *1482:A2 *1604:I0 0
15 *1482:A2 *1605:I1 3.95619e-06
16 *1489:A1 *1604:I0 4.67771e-06
17 *1489:A1 *1605:I1 2.41106e-05
18 *1489:A2 *1604:I0 0.000337769
19 *1490:A1 *1604:I0 2.24654e-05
20 *1490:A2 *1604:I0 7.84307e-05
21 *1492:A1 *1491:A2 0.000807103
22 *1492:A1 *469:6 0.000194522
23 *1492:A1 *469:28 2.73715e-06
24 *1494:A1 *469:6 0
25 *1494:A2 *1604:I0 0
26 *1494:A2 *469:6 0
27 *1497:A1 *469:6 2.24654e-05
28 *1497:A2 *1491:A2 0.000948895
29 *1501:A1 *1491:A2 5.89482e-05
30 *1678:D *1604:I0 0
31 *142:14 *1492:A2 2.66791e-05
32 *142:14 *1604:I0 0
33 *466:34 *1604:I0 0
34 *466:34 *1605:I1 5.01349e-06
35 *466:34 *469:6 7.76855e-05
*RES
1 *1677:Q *469:4 4.5 
2 *469:4 *469:6 1.768 
3 *469:6 *1491:A2 7.828 
4 *469:6 *1492:A2 14.02 
5 *469:4 *469:28 0.312 
6 *469:28 *1604:I0 21.508 
7 *469:28 *1605:I1 5.436 
*END

*D_NET *470 0.00381447
*CONN
*I *1487:A2 I *D gf180mcu_fd_sc_mcu7t5v0__nand2_1
*I *1486:A2 I *D gf180mcu_fd_sc_mcu7t5v0__or2_1
*I *1605:I0 I *D gf180mcu_fd_sc_mcu7t5v0__mux2_2
*I *1678:Q O *D gf180mcu_fd_sc_mcu7t5v0__dffq_1
*CAP
1 *1487:A2 0.000148478
2 *1486:A2 0.000350008
3 *1605:I0 4.93826e-05
4 *1678:Q 0
5 *470:8 0.000568215
6 *470:4 0.000317303
7 *470:8 *1605:S 0
8 *1482:A2 *1486:A2 1.90343e-05
9 *1482:A2 *1605:I0 7.24199e-05
10 *1485:A1 *1486:A2 2.17376e-05
11 *1485:A2 *470:8 0.000476175
12 *1486:A1 *1486:A2 0.000236849
13 *1487:A1 *1487:A2 0.000126399
14 *1487:A1 *470:8 2.24654e-05
15 *1488:C1 *1486:A2 4.67771e-06
16 *1503:A2 *1486:A2 0.000539592
17 *1504:A2 *1486:A2 0.000334265
18 *330:6 *1486:A2 3.57634e-06
19 *331:8 *1486:A2 0.000116466
20 *332:6 *1486:A2 7.16355e-05
21 *336:12 *1605:I0 0.000102337
22 *460:14 *1486:A2 4.22744e-05
23 *462:18 *1486:A2 0.00019118
*RES
1 *1678:Q *470:4 4.5 
2 *470:4 *470:8 6.06 
3 *470:8 *1605:I0 9.936 
4 *470:8 *1486:A2 13.368 
5 *470:4 *1487:A2 5.852 
*END

*D_NET *471 0.0246565
*CONN
*I *1743:I I *D gf180mcu_fd_sc_mcu7t5v0__clkbuf_16
*I *1741:I I *D gf180mcu_fd_sc_mcu7t5v0__clkbuf_16
*I *1745:I I *D gf180mcu_fd_sc_mcu7t5v0__clkbuf_16
*I *1746:I I *D gf180mcu_fd_sc_mcu7t5v0__clkbuf_16
*I *1744:I I *D gf180mcu_fd_sc_mcu7t5v0__clkbuf_16
*I *1742:I I *D gf180mcu_fd_sc_mcu7t5v0__clkbuf_16
*I *1739:I I *D gf180mcu_fd_sc_mcu7t5v0__clkbuf_16
*I *1740:I I *D gf180mcu_fd_sc_mcu7t5v0__clkbuf_16
*I *1738:Z O *D gf180mcu_fd_sc_mcu7t5v0__clkbuf_16
*CAP
1 *1743:I 0.000323478
2 *1741:I 0.000180198
3 *1745:I 0.00042245
4 *1746:I 0
5 *1744:I 0.00163515
6 *1742:I 0.00138196
7 *1739:I 0.000204099
8 *1740:I 0
9 *1738:Z 0.00163199
10 *471:86 0.00152108
11 *471:72 0.00346079
12 *471:19 0.00172696
13 *471:11 0.00330613
14 *1739:I *473:14 6.41721e-05
15 *1739:I *473:72 3.17907e-05
16 *1741:I *1654:CLK 1.52703e-05
17 *1741:I *1668:CLK 1.5954e-06
18 *1742:I *475:10 0.000138653
19 *1742:I *475:65 2.94337e-05
20 *1742:I *492:282 4.58667e-05
21 *1742:I *553:12 0.000137348
22 *1743:I *1346:A4 0
23 *1743:I *1420:A2 0.000417865
24 *1743:I *1750:I 0
25 *1744:I *1346:A4 0
26 *1744:I *1420:A2 0.000125956
27 *1744:I *1727:CLK 4.99977e-06
28 *1745:I *1353:I1 9.17624e-05
29 *1745:I *1478:S1 9.88019e-05
30 *1745:I *1770:I 0.000149146
31 *1745:I *558:54 0.000265775
32 *471:11 *1757:I 7.02774e-05
33 *471:11 *488:109 0.000363297
34 *471:11 *492:263 0
35 *471:19 *1541:I1 0
36 *471:19 *473:12 0.000269296
37 *471:19 *492:282 0
38 *471:19 *581:25 9.62727e-05
39 *471:19 *581:34 3.56106e-06
40 *471:72 *1628:B2 0.00125814
41 *471:72 *488:109 0.0004706
42 *471:72 *492:251 0
43 *471:72 *578:43 7.88836e-05
44 *471:72 *578:143 0.000120967
45 *471:86 *1353:I1 0.00100535
46 *471:86 *1420:A2 3.64336e-05
47 *471:86 *560:58 1.74409e-05
48 *471:86 *578:62 0.000126212
49 ADDR_O[7] *1743:I 0
50 DAT_O[3] *1745:I 0.00029051
51 DAT_O[5] *1745:I 0.000311307
52 *1355:B1 *471:72 0
53 *1376:A2 *471:86 0.000215256
54 *1395:B2 *471:19 7.83723e-05
55 *1428:A2 *471:86 6.27162e-05
56 *1518:A1 *471:11 0.000193323
57 *1524:B *1742:I 4.96738e-05
58 *1541:S *471:19 1.54384e-05
59 *1654:D *1741:I 6.69299e-05
60 *1654:D *1742:I 6.36674e-05
61 *1661:D *471:19 0.000154077
62 *1711:D *1745:I 4.07689e-05
63 *1711:D *471:86 6.90347e-05
64 *1725:D *471:19 0.000187253
65 *1728:D *1744:I 0.000121459
66 *1784:I *1744:I 3.69552e-05
67 *1786:I *1744:I 0.000183288
68 *1787:I *1744:I 1.90945e-05
69 *1788:I *1744:I 5.87804e-05
70 *1789:I *471:72 5.90946e-05
71 *120:27 *1741:I 5.17819e-05
72 *122:38 *471:11 8.32297e-05
73 *144:16 *471:19 2.59405e-05
74 *176:83 *471:86 4.18157e-05
75 *193:16 *1744:I 0.000226377
76 *193:16 *471:86 2.62902e-05
77 *316:115 *1742:I 1.01702e-05
78 *316:115 *471:19 0.000121043
79 *323:30 *1742:I 9.35066e-06
80 *351:10 *1741:I 0
81 *359:33 *471:19 5.20069e-05
82 *361:20 *1739:I 0.000215256
83 *361:20 *471:19 8.96031e-05
84 *361:28 *1742:I 9.71402e-05
85 *361:36 *1742:I 0
*RES
1 *1738:Z *471:11 18.804 
2 *471:11 *471:19 21.688 
3 *471:19 *1740:I 4.5 
4 *471:19 *1739:I 6.58 
5 *471:11 *1742:I 31.444 
6 *1738:Z *471:72 23.796 
7 *471:72 *1744:I 13.132 
8 *471:72 *471:86 9.464 
9 *471:86 *1746:I 4.5 
10 *471:86 *1745:I 18.596 
11 *1742:I *1741:I 10.56 
12 *1744:I *1743:I 12.016 
*END

*D_NET *472 0.0133881
*CONN
*I *1682:CLK I *D gf180mcu_fd_sc_mcu7t5v0__dffq_1
*I *1679:CLK I *D gf180mcu_fd_sc_mcu7t5v0__dffq_1
*I *1736:CLK I *D gf180mcu_fd_sc_mcu7t5v0__dffq_1
*I *1671:CLK I *D gf180mcu_fd_sc_mcu7t5v0__dffq_1
*I *1680:CLK I *D gf180mcu_fd_sc_mcu7t5v0__dffq_1
*I *1665:CLK I *D gf180mcu_fd_sc_mcu7t5v0__dffq_1
*I *1735:CLK I *D gf180mcu_fd_sc_mcu7t5v0__dffq_1
*I *1666:CLK I *D gf180mcu_fd_sc_mcu7t5v0__dffq_1
*I *1747:I I *D gf180mcu_fd_sc_mcu7t5v0__clkinv_8
*I *1739:Z O *D gf180mcu_fd_sc_mcu7t5v0__clkbuf_16
*CAP
1 *1682:CLK 0
2 *1679:CLK 0
3 *1736:CLK 0
4 *1671:CLK 0.00041655
5 *1680:CLK 0
6 *1665:CLK 0
7 *1735:CLK 0.000237773
8 *1666:CLK 0
9 *1747:I 0.00109848
10 *1739:Z 0.000132647
11 *472:63 0.000722505
12 *472:56 0.000471568
13 *472:47 0.000657171
14 *472:43 0.00102275
15 *472:41 0.00132691
16 *472:35 0.000738934
17 *472:26 0.00114682
18 *1735:CLK *1735:D 0
19 *472:26 *483:63 0
20 *472:26 *484:33 1.91479e-06
21 *472:26 *527:10 7.609e-05
22 *472:35 *527:10 0.000215256
23 *472:41 *1606:A2 0
24 *472:41 *1754:I 7.37913e-05
25 *472:41 *527:10 1.07369e-05
26 *472:43 *1606:A2 0
27 *472:43 *1736:D 0.000151199
28 *472:43 *1754:I 4.36319e-05
29 *1463:A1 *472:26 0.000367959
30 *1562:A1 *1671:CLK 0
31 *1563:C *472:26 0.00017298
32 *1564:C *472:26 0.000113027
33 *1566:A2 *1671:CLK 6.63337e-05
34 *1566:A2 *472:63 5.158e-05
35 *1569:A1 *472:26 0.000322056
36 *1569:B *472:26 0.000553768
37 *1569:B *472:35 0.000110023
38 *1569:B *472:41 4.67771e-06
39 *1595:A1 *472:26 0
40 *1597:A1 *1747:I 4.97681e-05
41 *1597:A1 *472:26 4.93677e-05
42 *1665:D *472:43 0
43 *1665:D *472:47 0
44 *1679:D *472:41 0
45 *1782:I *472:47 0.000116476
46 *1782:I *472:56 0.000500772
47 *1782:I *472:63 0.00067298
48 *127:16 *1671:CLK 0
49 *138:21 *472:26 0.00035117
50 *142:199 *472:43 0
51 *309:8 *1747:I 4.07489e-05
52 *309:8 *472:26 0.000419276
53 *309:35 *1747:I 0.000247762
54 *370:23 *1747:I 4.18157e-05
55 *396:6 *472:26 7.15269e-06
56 *422:14 *472:26 9.58004e-06
57 *422:45 *1747:I 1.02379e-05
58 *422:45 *472:26 0.000550441
59 *463:34 *472:26 1.33717e-05
*RES
1 *1739:Z *1747:I 10.352 
2 *1747:I *472:26 14.38 
3 *472:26 *1666:CLK 4.5 
4 *472:26 *472:35 2.08 
5 *472:35 *472:41 8.868 
6 *472:41 *472:43 6.136 
7 *472:43 *472:47 6.684 
8 *472:47 *1735:CLK 6.06 
9 *472:47 *472:56 1.56 
10 *472:56 *1665:CLK 4.5 
11 *472:56 *472:63 3.016 
12 *472:63 *1680:CLK 4.5 
13 *472:63 *1671:CLK 7.516 
14 *472:43 *1736:CLK 9 
15 *472:41 *1679:CLK 9 
16 *472:35 *1682:CLK 4.5 
*END

*D_NET *473 0.0161605
*CONN
*I *1729:CLK I *D gf180mcu_fd_sc_mcu7t5v0__dffq_1
*I *1726:CLK I *D gf180mcu_fd_sc_mcu7t5v0__dffq_1
*I *1725:CLK I *D gf180mcu_fd_sc_mcu7t5v0__dffq_1
*I *1748:I I *D gf180mcu_fd_sc_mcu7t5v0__inv_4
*I *1661:CLK I *D gf180mcu_fd_sc_mcu7t5v0__dffq_1
*I *1662:CLK I *D gf180mcu_fd_sc_mcu7t5v0__dffq_1
*I *1663:CLK I *D gf180mcu_fd_sc_mcu7t5v0__dffq_1
*I *1717:CLK I *D gf180mcu_fd_sc_mcu7t5v0__dffq_1
*I *1718:CLK I *D gf180mcu_fd_sc_mcu7t5v0__dffq_1
*I *1664:CLK I *D gf180mcu_fd_sc_mcu7t5v0__dffq_1
*I *1740:Z O *D gf180mcu_fd_sc_mcu7t5v0__clkbuf_16
*CAP
1 *1729:CLK 0.000200415
2 *1726:CLK 0.000217091
3 *1725:CLK 0
4 *1748:I 5.97296e-05
5 *1661:CLK 0
6 *1662:CLK 3.6366e-05
7 *1663:CLK 0
8 *1717:CLK 0.000303463
9 *1718:CLK 0
10 *1664:CLK 0.000402106
11 *1740:Z 0.000426609
12 *473:85 0.000376824
13 *473:72 0.000485348
14 *473:37 0.00064013
15 *473:24 0.00137447
16 *473:20 0.00088747
17 *473:16 0.000494889
18 *473:14 0.000392863
19 *473:12 0.000678198
20 *1729:CLK *1253:I 0.000855069
21 *1729:CLK *1267:I 0.000337309
22 *1729:CLK *1759:I 0.00057034
23 *473:12 *561:29 0
24 *473:14 *484:91 0.000926189
25 *473:16 *484:91 0.00107688
26 *473:20 *1545:A1 0.000591484
27 *473:20 *484:91 0.000311033
28 *473:24 *1545:A1 2.73309e-05
29 *473:24 *1547:C 2.39167e-05
30 *473:24 *484:91 2.4102e-05
31 *473:37 *1777:I 0.000292328
32 *473:72 *1517:A1 0.000121267
33 *473:72 *484:91 0.000690804
34 *1431:A1 *1729:CLK 1.32276e-05
35 *1434:A1 *1729:CLK 0.000521318
36 *1541:I0 *1748:I 2.9156e-05
37 *1541:I0 *473:72 0.000110334
38 *1541:I0 *473:85 1.99013e-05
39 *1545:A3 *473:20 0.000127799
40 *1545:A3 *473:24 7.34544e-05
41 *1547:A1 *1664:CLK 0
42 *1547:A1 *473:37 0
43 *1547:A2 *473:24 0.000273792
44 *1547:B *473:24 7.02352e-05
45 *1664:D *473:24 0.000100568
46 *1717:D *1717:CLK 0
47 *1725:D *473:12 0.000113027
48 *1739:I *473:14 6.41721e-05
49 *1739:I *473:72 3.17907e-05
50 *142:199 *1664:CLK 0
51 *154:22 *1729:CLK 4.4504e-06
52 *290:10 *473:24 0.000355122
53 *359:33 *1726:CLK 0.000276675
54 *359:33 *473:12 2.91117e-05
55 *359:33 *473:72 0.000131792
56 *361:20 *1726:CLK 0.000458125
57 *361:20 *473:12 1.60428e-05
58 *361:20 *473:14 4.4731e-05
59 *361:20 *473:16 0.000134864
60 *361:20 *473:20 6.03575e-05
61 *361:20 *473:72 7.18388e-06
62 *471:19 *473:12 0.000269296
*RES
1 *1740:Z *473:12 15.996 
2 *473:12 *473:14 2.6 
3 *473:14 *473:16 3.016 
4 *473:16 *473:20 3.328 
5 *473:20 *473:24 10.428 
6 *473:24 *1664:CLK 11.808 
7 *473:24 *473:37 7.724 
8 *473:37 *1718:CLK 4.5 
9 *473:37 *1717:CLK 6.58 
10 *473:20 *1663:CLK 4.5 
11 *473:16 *1662:CLK 4.812 
12 *473:14 *1661:CLK 4.5 
13 *473:12 *473:72 7.932 
14 *473:72 *1748:I 9.52 
15 *473:72 *473:85 5.644 
16 *473:85 *1725:CLK 4.5 
17 *473:85 *1726:CLK 7.828 
18 *1740:Z *1729:CLK 13.264 
*END

*D_NET *474 0.027095
*CONN
*I *1674:CLK I *D gf180mcu_fd_sc_mcu7t5v0__dffq_1
*I *1677:CLK I *D gf180mcu_fd_sc_mcu7t5v0__dffq_1
*I *1678:CLK I *D gf180mcu_fd_sc_mcu7t5v0__dffq_1
*I *1676:CLK I *D gf180mcu_fd_sc_mcu7t5v0__dffq_1
*I *1733:CLK I *D gf180mcu_fd_sc_mcu7t5v0__dffq_1
*I *1675:CLK I *D gf180mcu_fd_sc_mcu7t5v0__dffq_1
*I *1673:CLK I *D gf180mcu_fd_sc_mcu7t5v0__dffq_1
*I *1672:CLK I *D gf180mcu_fd_sc_mcu7t5v0__dffq_1
*I *1652:CLK I *D gf180mcu_fd_sc_mcu7t5v0__dffq_1
*I *1670:CLK I *D gf180mcu_fd_sc_mcu7t5v0__dffq_1
*I *1732:CLK I *D gf180mcu_fd_sc_mcu7t5v0__dffq_1
*I *1731:CLK I *D gf180mcu_fd_sc_mcu7t5v0__dffq_1
*I *1734:CLK I *D gf180mcu_fd_sc_mcu7t5v0__dffq_1
*I *1681:CLK I *D gf180mcu_fd_sc_mcu7t5v0__dffq_1
*I *1667:CLK I *D gf180mcu_fd_sc_mcu7t5v0__dffq_1
*I *1669:CLK I *D gf180mcu_fd_sc_mcu7t5v0__dffq_1
*I *1741:Z O *D gf180mcu_fd_sc_mcu7t5v0__clkbuf_16
*CAP
1 *1674:CLK 0.000335822
2 *1677:CLK 0
3 *1678:CLK 0.000529515
4 *1676:CLK 0.000129345
5 *1733:CLK 7.34882e-05
6 *1675:CLK 0
7 *1673:CLK 0
8 *1672:CLK 0
9 *1652:CLK 0
10 *1670:CLK 0.00172523
11 *1732:CLK 0.000408934
12 *1731:CLK 3.6366e-05
13 *1734:CLK 0.00047527
14 *1681:CLK 0
15 *1667:CLK 0
16 *1669:CLK 0.000443565
17 *1741:Z 0.000107843
18 *474:161 0.00102051
19 *474:153 0.000933651
20 *474:137 0.000518563
21 *474:130 0.00085071
22 *474:122 0.00102082
23 *474:111 0.000858187
24 *474:44 0.000678305
25 *474:40 0.000790804
26 *474:33 0.00110477
27 *474:27 0.00103756
28 *474:25 0.00209248
29 *474:23 0.000837153
30 *474:19 0.00121683
31 *474:6 0.000743895
32 *1669:CLK *480:14 0.00128535
33 *1669:CLK *483:57 3.928e-05
34 *1669:CLK *488:27 3.60723e-05
35 *1670:CLK *1812:I 0.00113299
36 *1670:CLK *1813:I 2.38656e-05
37 *1670:CLK *487:20 8.80775e-05
38 *1674:CLK *492:307 0.000134086
39 *1676:CLK *483:24 0
40 *1678:CLK *1604:S 3.4596e-05
41 *1678:CLK *492:339 0.000907641
42 *1678:CLK *518:10 0.00038985
43 *474:19 *480:14 0.000100656
44 *474:19 *483:57 2.93608e-05
45 *474:23 *487:20 1.61221e-05
46 *474:25 *1509:A2 0
47 *474:25 *487:20 5.14153e-05
48 *474:27 *1509:A2 0
49 *474:33 *1509:A2 0
50 *474:33 *517:10 0
51 *474:111 *480:14 0.00105151
52 *474:111 *483:57 8.27144e-06
53 *474:111 *563:34 0
54 *474:122 *1608:A2 1.25606e-05
55 *474:122 *563:34 0
56 *474:130 *1608:A2 0.000184453
57 *474:130 *1756:I 0.000190477
58 *474:130 *483:24 0.000259114
59 *474:137 *483:24 0.000436827
60 *474:153 *1608:A2 0.000111711
61 *474:153 *1756:I 0.000120736
62 *474:153 *492:307 0.000109974
63 *474:161 *1608:A2 2.86784e-05
64 *474:161 *1756:I 9.35066e-06
65 *474:161 *492:324 0.00014873
66 *474:161 *492:339 2.36218e-05
67 *1476:A1 *1670:CLK 0
68 *1497:A1 *1674:CLK 5.13977e-05
69 *1508:A1 *474:25 0
70 *1509:A1 *1670:CLK 0.000102989
71 *1510:A2 *474:23 3.0781e-05
72 *1510:A2 *474:25 3.91427e-05
73 *1573:A1 *1670:CLK 0
74 *1573:A2 *1670:CLK 0
75 *1577:B2 *1670:CLK 6.35093e-06
76 *1579:A2 *1670:CLK 2.06748e-05
77 *1580:B *1670:CLK 0
78 *1585:A1 *474:23 0
79 *1589:A1 *1669:CLK 0.000174813
80 *1589:B *1669:CLK 0.000176685
81 *1601:I1 *1674:CLK 1.25923e-05
82 *1604:I0 *1678:CLK 0.000227524
83 *1608:A1 *474:40 0.000122244
84 *1652:D *1732:CLK 8.21146e-06
85 *1667:D *1670:CLK 0
86 *1667:D *1732:CLK 6.03575e-05
87 *1667:D *474:33 2.62817e-05
88 *1674:D *1674:CLK 0.000540599
89 *1674:D *474:161 2.20148e-05
90 *1675:D *474:137 2.66236e-05
91 *1681:D *1734:CLK 4.07478e-05
92 *1681:D *474:40 0.000203364
93 *1681:D *474:44 0.000115166
94 *403:30 *1670:CLK 0
95 *466:12 *474:122 6.35026e-05
96 *467:12 *474:161 8.79757e-05
*RES
1 *1741:Z *474:6 5.436 
2 *474:6 *1669:CLK 9.492 
3 *474:6 *474:19 1.872 
4 *474:19 *474:23 7.516 
5 *474:23 *474:25 2.184 
6 *474:25 *474:27 0.52 
7 *474:27 *474:33 8.452 
8 *474:33 *1667:CLK 4.5 
9 *474:33 *474:40 4.472 
10 *474:40 *474:44 1.872 
11 *474:44 *1681:CLK 4.5 
12 *474:44 *1734:CLK 8.244 
13 *474:40 *1731:CLK 4.812 
14 *474:27 *1732:CLK 12.016 
15 *474:25 *1670:CLK 39.064 
16 *474:23 *1652:CLK 9 
17 *474:19 *1672:CLK 4.5 
18 *474:19 *474:111 4.472 
19 *474:111 *1673:CLK 4.5 
20 *474:111 *474:122 7.204 
21 *474:122 *474:130 8.972 
22 *474:130 *1675:CLK 4.5 
23 *474:130 *474:137 3.016 
24 *474:137 *1733:CLK 5.02 
25 *474:137 *1676:CLK 5.436 
26 *474:122 *474:153 1.768 
27 *474:153 *474:161 8.348 
28 *474:161 *1678:CLK 18.908 
29 *474:161 *1677:CLK 4.5 
30 *474:153 *1674:CLK 12.328 
*END

*D_NET *475 0.0216121
*CONN
*I *1654:CLK I *D gf180mcu_fd_sc_mcu7t5v0__dffq_1
*I *1730:CLK I *D gf180mcu_fd_sc_mcu7t5v0__dffq_1
*I *1702:CLK I *D gf180mcu_fd_sc_mcu7t5v0__dffq_1
*I *1705:CLK I *D gf180mcu_fd_sc_mcu7t5v0__dffq_1
*I *1703:CLK I *D gf180mcu_fd_sc_mcu7t5v0__dffq_1
*I *1657:CLK I *D gf180mcu_fd_sc_mcu7t5v0__dffq_1
*I *1749:I I *D gf180mcu_fd_sc_mcu7t5v0__inv_4
*I *1668:CLK I *D gf180mcu_fd_sc_mcu7t5v0__dffq_1
*I *1653:CLK I *D gf180mcu_fd_sc_mcu7t5v0__dffq_1
*I *1701:CLK I *D gf180mcu_fd_sc_mcu7t5v0__dffq_1
*I *1742:Z O *D gf180mcu_fd_sc_mcu7t5v0__clkbuf_16
*CAP
1 *1654:CLK 0.000306418
2 *1730:CLK 0.000761652
3 *1702:CLK 0
4 *1705:CLK 0.00065099
5 *1703:CLK 0.000553638
6 *1657:CLK 0
7 *1749:I 0.000306418
8 *1668:CLK 0.000914194
9 *1653:CLK 0.000254075
10 *1701:CLK 4.39973e-05
11 *1742:Z 0.000761652
12 *475:76 0.000705506
13 *475:72 0.00117461
14 *475:65 0.000676357
15 *475:39 0.00169555
16 *475:10 0.000862853
17 *475:4 0.000596183
18 *1653:CLK *1454:A2 4.18042e-05
19 *1653:CLK *487:175 0.000305781
20 *1703:CLK *1650:A1 0
21 *1705:CLK *1523:A1 0
22 *1730:CLK *504:26 4.50135e-05
23 *475:10 *1523:A1 0.000490213
24 *475:10 *492:282 0.000195671
25 *475:39 *1245:I 3.30734e-06
26 *475:39 *487:175 0.000448568
27 *475:39 *492:282 5.66022e-05
28 *475:65 *1523:A1 0.000568633
29 *475:72 *1523:A1 0
30 *1294:A2 *1705:CLK 0.000125945
31 *1435:A1 *1730:CLK 0.000908515
32 *1436:B3 *1730:CLK 0.000194511
33 *1479:A2 *1668:CLK 9.16022e-05
34 *1524:A2 *1730:CLK 0.000435576
35 *1524:B *475:65 0
36 *1648:A2 *1730:CLK 0.000400689
37 *1649:A2 *475:10 0.000101944
38 *1654:D *1654:CLK 0.000126399
39 *1654:D *1668:CLK 0
40 *1654:D *475:39 0
41 *1654:D *475:65 2.36218e-05
42 *1654:D *475:72 7.96342e-05
43 *1702:D *475:72 5.36275e-05
44 *1702:D *475:76 0.000113781
45 *1703:D *1703:CLK 3.45552e-05
46 *1741:I *1654:CLK 1.52703e-05
47 *1741:I *1668:CLK 1.5954e-06
48 *1742:I *475:10 0.000138653
49 *1742:I *475:65 2.94337e-05
50 *120:27 *1654:CLK 1.8311e-05
51 *121:10 *1730:CLK 0
52 *122:28 *475:39 0.000381743
53 *131:12 *1703:CLK 0.000116101
54 *132:21 *1703:CLK 0
55 *132:21 *475:76 0
56 *142:147 *1730:CLK 0.00199944
57 *158:10 *1703:CLK 1.18566e-06
58 *158:25 *1703:CLK 0.000465422
59 *160:12 *1730:CLK 0.000151892
60 *323:30 *475:39 0.000757023
61 *351:10 *1653:CLK 4.53928e-05
62 *351:10 *1668:CLK 0.000150295
63 *352:8 *1668:CLK 0.00135462
64 *359:40 *1653:CLK 0.000184718
65 *359:40 *1668:CLK 2.81522e-06
66 *359:51 *1668:CLK 2.70393e-05
67 *359:62 *1668:CLK 2.39156e-06
68 *361:36 *1730:CLK 0.000569975
69 *457:12 *1705:CLK 8.86703e-05
*RES
1 *1742:Z *475:4 4.5 
2 *475:4 *475:10 3.224 
3 *475:10 *1701:CLK 4.93829 
4 *475:10 *475:39 22.992 
5 *475:39 *1653:CLK 7.516 
6 *475:39 *1668:CLK 21.612 
7 *475:4 *475:65 3.224 
8 *475:65 *1749:I 4.5 
9 *475:65 *475:72 3.016 
10 *475:72 *475:76 5.852 
11 *475:76 *1657:CLK 9 
12 *475:76 *1703:CLK 13.368 
13 *475:72 *1705:CLK 9.284 
14 *475:72 *1702:CLK 4.5 
15 *1742:Z *1730:CLK 19.92 
16 *1749:I *1654:CLK 11.808 
*END

*D_NET *476 0.0260358
*CONN
*I *1728:CLK I *D gf180mcu_fd_sc_mcu7t5v0__dffq_1
*I *1722:CLK I *D gf180mcu_fd_sc_mcu7t5v0__dffq_1
*I *1721:CLK I *D gf180mcu_fd_sc_mcu7t5v0__dffq_1
*I *1719:CLK I *D gf180mcu_fd_sc_mcu7t5v0__dffq_1
*I *1720:CLK I *D gf180mcu_fd_sc_mcu7t5v0__dffq_1
*I *1724:CLK I *D gf180mcu_fd_sc_mcu7t5v0__dffq_1
*I *1723:CLK I *D gf180mcu_fd_sc_mcu7t5v0__dffq_1
*I *1699:CLK I *D gf180mcu_fd_sc_mcu7t5v0__dffq_1
*I *1750:I I *D gf180mcu_fd_sc_mcu7t5v0__clkinv_8
*I *1743:Z O *D gf180mcu_fd_sc_mcu7t5v0__clkbuf_16
*CAP
1 *1728:CLK 0.000458235
2 *1722:CLK 5.07726e-05
3 *1721:CLK 5.60757e-05
4 *1719:CLK 7.72747e-05
5 *1720:CLK 0.00046555
6 *1724:CLK 0
7 *1723:CLK 0.000362737
8 *1699:CLK 0.000331636
9 *1750:I 0.000336804
10 *1743:Z 0.00104509
11 *476:80 0.000515563
12 *476:67 0.00164336
13 *476:61 0.00163918
14 *476:57 0.00125104
15 *476:38 0.000739392
16 *1699:CLK *1691:CLK 0.000424796
17 *1699:CLK *477:31 0.000619939
18 *1699:CLK *477:33 0.000487064
19 *1720:CLK *492:10 0
20 *1721:CLK *492:145 0.000582256
21 *1723:CLK *477:35 0.000548432
22 *1723:CLK *477:41 0.000466663
23 *1723:CLK *500:12 0
24 *1728:CLK *1351:A4 0.000113016
25 *1728:CLK *1439:A3 9.73927e-05
26 *1728:CLK *560:58 0.00258599
27 *1750:I *1341:A4 4.78732e-05
28 *1750:I *1751:I 0
29 *1750:I *580:21 5.92054e-05
30 *476:38 *477:33 0.000146529
31 *476:38 *477:35 0.00018294
32 *476:61 *1420:A2 0.000191025
33 *476:61 *1797:I 0.00145798
34 *476:61 *1799:I 1.40761e-05
35 *476:61 *560:58 0.000560736
36 ADDR_O[7] *1750:I 0.000447112
37 *1357:A2 *1728:CLK 0.00140115
38 *1357:B *1728:CLK 2.39167e-05
39 *1404:C *476:67 0.000103788
40 *1407:B *476:67 6.8199e-07
41 *1407:C *1720:CLK 2.81522e-06
42 *1407:C *476:67 4.67199e-05
43 *1410:A1 *476:67 0.000135744
44 *1410:A2 *476:67 7.37285e-06
45 *1411:A2 *1720:CLK 4.18042e-05
46 *1411:A2 *476:67 0.000609774
47 *1412:B2 *476:80 0.000314039
48 *1417:A2 *476:61 0.000396363
49 *1418:A2 *476:67 5.71503e-06
50 *1421:A2 *1722:CLK 0.000275447
51 *1610:A1 *1750:I 2.32859e-05
52 *1618:A2 *1721:CLK 0.000228035
53 *1622:A2 *1723:CLK 2.90389e-05
54 *1686:D *476:80 0
55 *1689:D *1723:CLK 7.15269e-06
56 *1689:D *476:38 6.22361e-05
57 *1690:D *476:38 3.32065e-05
58 *1720:D *1720:CLK 0.000161207
59 *1722:D *1722:CLK 0.000476422
60 *1722:D *476:67 0.0001105
61 *1723:D *1723:CLK 1.97706e-05
62 *1743:I *1750:I 0
63 *1783:I *476:38 0
64 *250:18 *476:61 1.40249e-05
65 *250:40 *1719:CLK 4.07904e-05
66 *250:40 *476:80 0.000105326
67 *251:27 *476:61 7.38424e-05
68 *262:20 *476:61 0.000391981
69 *269:14 *1722:CLK 0.000217711
70 *269:14 *476:61 2.73715e-06
71 *269:14 *476:67 0.000574419
72 *273:10 *476:61 0.0015501
73 *425:53 *1699:CLK 0.000223904
74 *448:82 *476:67 2.20308e-05
75 *449:89 *476:67 0.000201474
76 *450:64 *476:67 4.99626e-05
77 *451:10 *1720:CLK 0
78 *452:14 *476:61 4.55849e-05
*RES
1 *1743:Z *1750:I 20.808 
2 *1743:Z *1699:CLK 13.264 
3 *1743:Z *476:38 7.308 
4 *476:38 *1723:CLK 7.828 
5 *476:38 *1724:CLK 4.5 
6 *1750:I *476:57 4.5 
7 *476:57 *476:61 14.796 
8 *476:61 *476:67 11.156 
9 *476:67 *1720:CLK 7.828 
10 *476:67 *476:80 7.932 
11 *476:80 *1719:CLK 9.52 
12 *476:80 *1721:CLK 10.56 
13 *476:61 *1722:CLK 10.352 
14 *476:57 *1728:CLK 11.884 
*END

*D_NET *477 0.0195556
*CONN
*I *1691:CLK I *D gf180mcu_fd_sc_mcu7t5v0__dffq_1
*I *1690:CLK I *D gf180mcu_fd_sc_mcu7t5v0__dffq_1
*I *1689:CLK I *D gf180mcu_fd_sc_mcu7t5v0__dffq_1
*I *1688:CLK I *D gf180mcu_fd_sc_mcu7t5v0__dffq_1
*I *1687:CLK I *D gf180mcu_fd_sc_mcu7t5v0__dffq_1
*I *1684:CLK I *D gf180mcu_fd_sc_mcu7t5v0__dffq_1
*I *1683:CLK I *D gf180mcu_fd_sc_mcu7t5v0__dffq_1
*I *1686:CLK I *D gf180mcu_fd_sc_mcu7t5v0__dffq_1
*I *1685:CLK I *D gf180mcu_fd_sc_mcu7t5v0__dffq_1
*I *1727:CLK I *D gf180mcu_fd_sc_mcu7t5v0__dffq_1
*I *1751:I I *D gf180mcu_fd_sc_mcu7t5v0__inv_4
*I *1744:Z O *D gf180mcu_fd_sc_mcu7t5v0__clkbuf_16
*CAP
1 *1691:CLK 0.00116201
2 *1690:CLK 0
3 *1689:CLK 0
4 *1688:CLK 0
5 *1687:CLK 0
6 *1684:CLK 0
7 *1683:CLK 0
8 *1686:CLK 0
9 *1685:CLK 0.000279508
10 *1727:CLK 0.000335282
11 *1751:I 0.000176224
12 *1744:Z 0
13 *477:55 0.000619766
14 *477:49 0.000702243
15 *477:43 0.00083628
16 *477:41 0.000762709
17 *477:35 0.000613576
18 *477:33 0.000674903
19 *477:31 0.000484585
20 *477:29 0.00129686
21 *477:4 0.000511506
22 *1691:CLK *1325:A1 1.26329e-05
23 *1691:CLK *1367:A4 0
24 *1691:CLK *1377:A4 0.00156031
25 *1691:CLK *1763:I 0.00018195
26 *1691:CLK *1769:I 2.81522e-06
27 *1691:CLK *1803:I 0.000628608
28 *1691:CLK *577:98 7.69838e-05
29 *1727:CLK *1341:A4 0
30 *1727:CLK *1346:A4 0.000909318
31 *1727:CLK *1351:A4 0.000589022
32 *1727:CLK *580:10 0
33 *1727:CLK *580:21 0
34 *1751:I *1341:A4 0.000639156
35 *1751:I *1346:A4 2.04597e-06
36 *477:35 *1623:B2 5.36452e-06
37 *477:41 *1341:A4 0.00012632
38 *477:41 *1798:I 0
39 *477:43 *1341:A4 0.000143405
40 *477:43 *1798:I 0
41 ADDR_O[0] *1685:CLK 2.12695e-05
42 *1342:C *1727:CLK 0
43 *1421:A1 *477:43 0.000107654
44 *1421:A2 *477:43 0
45 *1422:A1 *477:35 3.01514e-05
46 *1616:A2 *477:55 0.000109357
47 *1620:A2 *477:49 1.74162e-05
48 *1620:A2 *477:55 1.78817e-06
49 *1628:B1 *1691:CLK 0
50 *1683:D *477:55 0
51 *1685:D *1685:CLK 6.05423e-06
52 *1686:D *1685:CLK 0.000283521
53 *1686:D *477:55 0.000501134
54 *1687:D *477:43 0
55 *1690:D *477:33 2.9741e-05
56 *1699:D *1691:CLK 1.33114e-05
57 *1699:D *477:31 3.07284e-05
58 *1699:CLK *1691:CLK 0.000424796
59 *1699:CLK *477:31 0.000619939
60 *1699:CLK *477:33 0.000487064
61 *1723:CLK *477:35 0.000548432
62 *1723:CLK *477:41 0.000466663
63 *1744:I *1727:CLK 4.99977e-06
64 *1750:I *1751:I 0
65 *1780:I *1685:CLK 0.000118797
66 *1780:I *477:55 0.000410466
67 *10:18 *477:55 3.20057e-05
68 *193:16 *1727:CLK 0.000763905
69 *230:26 *1691:CLK 4.53894e-05
70 *279:67 *477:41 6.45566e-05
71 *279:67 *477:43 1.07369e-05
72 *425:29 *477:33 4.1048e-06
73 *425:29 *477:35 1.67624e-05
74 *425:38 *477:33 1.05507e-05
75 *425:53 *1691:CLK 3.29065e-05
76 *425:53 *477:33 3.19583e-05
77 *425:172 *477:35 8.42233e-05
78 *425:172 *477:41 0.000562319
79 *476:38 *477:33 0.000146529
80 *476:38 *477:35 0.00018294
*RES
1 *1744:Z *477:4 4.5 
2 *477:4 *1751:I 6.268 
3 *477:4 *1727:CLK 17.868 
4 *1744:Z *477:29 4.5 
5 *477:29 *477:31 1.768 
6 *477:31 *477:33 3.016 
7 *477:33 *477:35 3.016 
8 *477:35 *477:41 3.432 
9 *477:41 *477:43 3.016 
10 *477:43 *477:49 2.392 
11 *477:49 *477:55 8.452 
12 *477:55 *1685:CLK 11.288 
13 *477:55 *1686:CLK 9 
14 *477:49 *1683:CLK 4.5 
15 *477:43 *1684:CLK 4.5 
16 *477:41 *1687:CLK 4.5 
17 *477:35 *1688:CLK 4.5 
18 *477:33 *1689:CLK 4.5 
19 *477:31 *1690:CLK 4.5 
20 *477:29 *1691:CLK 14.588 
*END

*D_NET *478 0.0374145
*CONN
*I *1752:I I *D gf180mcu_fd_sc_mcu7t5v0__inv_3
*I *1712:CLK I *D gf180mcu_fd_sc_mcu7t5v0__dffq_1
*I *1710:CLK I *D gf180mcu_fd_sc_mcu7t5v0__dffq_1
*I *1709:CLK I *D gf180mcu_fd_sc_mcu7t5v0__dffq_1
*I *1711:CLK I *D gf180mcu_fd_sc_mcu7t5v0__dffq_1
*I *1660:CLK I *D gf180mcu_fd_sc_mcu7t5v0__dffq_1
*I *1658:CLK I *D gf180mcu_fd_sc_mcu7t5v0__dffq_1
*I *1708:CLK I *D gf180mcu_fd_sc_mcu7t5v0__dffq_1
*I *1706:CLK I *D gf180mcu_fd_sc_mcu7t5v0__dffq_1
*I *1704:CLK I *D gf180mcu_fd_sc_mcu7t5v0__dffq_1
*I *1713:CLK I *D gf180mcu_fd_sc_mcu7t5v0__dffq_1
*I *1714:CLK I *D gf180mcu_fd_sc_mcu7t5v0__dffq_1
*I *1707:CLK I *D gf180mcu_fd_sc_mcu7t5v0__dffq_1
*I *1745:Z O *D gf180mcu_fd_sc_mcu7t5v0__clkbuf_16
*CAP
1 *1752:I 0
2 *1712:CLK 0.000134977
3 *1710:CLK 0.000479909
4 *1709:CLK 8.84819e-05
5 *1711:CLK 6.06099e-05
6 *1660:CLK 0.000234637
7 *1658:CLK 0
8 *1708:CLK 0
9 *1706:CLK 1.9697e-07
10 *1704:CLK 0
11 *1713:CLK 0
12 *1714:CLK 0.000207891
13 *1707:CLK 0.000501696
14 *1745:Z 0.000469305
15 *478:121 0.000912531
16 *478:117 0.000959134
17 *478:106 0.00133829
18 *478:102 0.000797664
19 *478:82 0.00030903
20 *478:62 3.14775e-05
21 *478:60 0.000279502
22 *478:51 0.000584359
23 *478:40 0.000558385
24 *478:14 0.000866251
25 *478:12 0.000497405
26 *478:10 0.000662193
27 *1660:CLK *1640:A1 0.000352357
28 *1660:CLK *559:83 2.76472e-05
29 *1706:CLK *558:14 0.000542895
30 *1707:CLK *1805:I 0.000179413
31 *1707:CLK *557:42 0.00052233
32 *1709:CLK *491:30 0.000386149
33 *1710:CLK *491:30 0.000880071
34 *1712:CLK *1271:I 0.000291077
35 *1712:CLK *1762:I 1.11474e-05
36 *478:10 *1478:I0 7.27776e-05
37 *478:10 *1805:I 0.0013362
38 *478:10 *560:58 0.000198449
39 *478:12 *1636:B2 0.000164897
40 *478:12 *1805:I 0.00163938
41 *478:14 *1805:I 0.000868809
42 *478:40 *1810:I 0.000215267
43 *478:40 *491:30 5.47431e-06
44 *478:51 *1764:I 0.000603928
45 *478:51 *1768:I 4.02892e-05
46 *478:51 *1810:I 0.00131294
47 *478:51 *491:30 2.73715e-06
48 *478:60 *1810:I 0.000543293
49 *478:60 *491:30 0
50 *478:62 *558:14 0.00142933
51 *478:82 *558:14 0.000979396
52 *478:82 *560:20 7.577e-05
53 *478:106 *1478:I3 0.000544501
54 *478:106 *1478:S0 3.96185e-05
55 *478:106 *1807:I 0.00085777
56 *478:117 *1371:A1 1.35124e-05
57 *478:117 *1477:I3 0.000192882
58 *478:121 *1271:I 0.000686436
59 DAT_O[3] *478:40 6.98206e-05
60 DAT_O[6] *1707:CLK 1.73875e-05
61 STB_O *478:10 0.00137208
62 STB_O *478:12 0.000654093
63 *1312:A1 *1707:CLK 5.81652e-05
64 *1312:A1 *1714:CLK 0.000306834
65 *1312:A2 *1714:CLK 0.00070599
66 *1315:A2 *478:121 0.000664447
67 *1315:C *478:121 3.56321e-05
68 *1343:B1 *1709:CLK 0.000113016
69 *1343:B1 *478:121 6.05423e-05
70 *1347:A2 *478:117 2.46831e-05
71 *1348:I0 *478:106 8.1598e-06
72 *1348:I0 *478:117 0.000522156
73 *1352:A2 *1712:CLK 0.000206678
74 *1352:A2 *478:121 0.000292162
75 *1359:A1 *1714:CLK 0.000308707
76 *1362:A1 *478:106 0.000326467
77 *1370:A2 *478:12 4.54605e-05
78 *1370:A2 *478:14 7.60765e-05
79 *1373:A2 *478:106 0.000190771
80 *1373:A2 *478:117 8.40102e-05
81 *1373:B *478:106 2.84355e-05
82 *1373:B *478:117 1.18448e-05
83 *1375:A1 *1660:CLK 0.000177432
84 *1375:A2 *1660:CLK 6.457e-05
85 *1376:A2 *478:10 0
86 *1479:A2 *1710:CLK 6.18331e-05
87 *1479:A2 *478:106 0.000129988
88 *1660:D *1660:CLK 0.000427072
89 *1695:D *1707:CLK 3.97039e-05
90 *1710:D *1710:CLK 3.61986e-05
91 *1779:I *478:62 0.000118265
92 *140:16 *478:117 0.000263437
93 *141:25 *478:121 0.000408794
94 *152:44 *1710:CLK 8.56628e-05
95 *179:90 *1710:CLK 0.000194522
96 *179:107 *1714:CLK 0.000547029
97 *208:27 *1709:CLK 0.000202476
98 *208:27 *1710:CLK 0.000319289
99 *323:30 *1710:CLK 0.000123477
100 *439:22 *1707:CLK 0.000131841
101 *439:22 *478:10 0.000114392
102 *461:10 *1707:CLK 0.000158397
103 *461:10 *478:14 4.04794e-05
104 *461:12 *1707:CLK 5.54907e-05
105 *462:12 *1706:CLK 0.000542895
106 *462:12 *478:62 0.00137582
107 *462:12 *478:82 0.000621171
*RES
1 *1745:Z *478:10 15.448 
2 *478:10 *478:12 4.472 
3 *478:12 *478:14 2.392 
4 *478:14 *1707:CLK 13.472 
5 *478:14 *1714:CLK 12.432 
6 *478:12 *478:40 6.06 
7 *478:40 *1713:CLK 4.5 
8 *478:40 *478:51 4.888 
9 *478:51 *1704:CLK 4.5 
10 *478:51 *478:60 6.06 
11 *478:60 *478:62 3.64 
12 *478:62 *1706:CLK 10.352 
13 *478:62 *1708:CLK 9 
14 *478:60 *478:82 7.1 
15 *478:82 *1658:CLK 4.5 
16 *478:82 *1660:CLK 16.204 
17 *478:10 *478:102 4.5 
18 *478:102 *478:106 7.696 
19 *478:106 *1711:CLK 5.02 
20 *478:106 *478:117 8.972 
21 *478:117 *478:121 9.388 
22 *478:121 *1709:CLK 6.06 
23 *478:121 *1710:CLK 18.596 
24 *478:117 *1712:CLK 10.56 
25 *478:102 *1752:I 4.5 
*END

*D_NET *479 0.0341135
*CONN
*I *1693:CLK I *D gf180mcu_fd_sc_mcu7t5v0__dffq_1
*I *1692:CLK I *D gf180mcu_fd_sc_mcu7t5v0__dffq_1
*I *1655:CLK I *D gf180mcu_fd_sc_mcu7t5v0__dffq_1
*I *1694:CLK I *D gf180mcu_fd_sc_mcu7t5v0__dffq_1
*I *1659:CLK I *D gf180mcu_fd_sc_mcu7t5v0__dffq_1
*I *1715:CLK I *D gf180mcu_fd_sc_mcu7t5v0__dffq_1
*I *1697:CLK I *D gf180mcu_fd_sc_mcu7t5v0__dffq_1
*I *1696:CLK I *D gf180mcu_fd_sc_mcu7t5v0__dffq_1
*I *1695:CLK I *D gf180mcu_fd_sc_mcu7t5v0__dffq_1
*I *1698:CLK I *D gf180mcu_fd_sc_mcu7t5v0__dffq_1
*I *1700:CLK I *D gf180mcu_fd_sc_mcu7t5v0__dffq_1
*I *1656:CLK I *D gf180mcu_fd_sc_mcu7t5v0__dffq_1
*I *1716:CLK I *D gf180mcu_fd_sc_mcu7t5v0__dffq_1
*I *1753:I I *D gf180mcu_fd_sc_mcu7t5v0__inv_2
*I *1746:Z O *D gf180mcu_fd_sc_mcu7t5v0__clkbuf_16
*CAP
1 *1693:CLK 0
2 *1692:CLK 0.000108756
3 *1655:CLK 0.00037731
4 *1694:CLK 0
5 *1659:CLK 0
6 *1715:CLK 0.000690686
7 *1697:CLK 0
8 *1696:CLK 0
9 *1695:CLK 0.000197614
10 *1698:CLK 0
11 *1700:CLK 0
12 *1656:CLK 0
13 *1716:CLK 0
14 *1753:I 0.000286915
15 *1746:Z 0.00122978
16 *479:151 0.000498993
17 *479:105 0.000932224
18 *479:80 0.000576869
19 *479:72 0.000565699
20 *479:63 0.000643765
21 *479:50 0.000613171
22 *479:46 0.00051559
23 *479:39 0.000424864
24 *479:32 0.000844453
25 *479:24 0.000713109
26 *1655:CLK *1522:I1 4.77265e-05
27 *1655:CLK *1630:B2 0.000410048
28 *1655:CLK *1769:I 7.45139e-05
29 *1655:CLK *1803:I 0
30 *1655:CLK *507:12 7.92222e-05
31 *1692:CLK *1634:A1 0.000332323
32 *1715:CLK *1774:I 0
33 *1715:CLK *1776:I 0.000814306
34 *1715:CLK *512:10 7.87797e-05
35 *1715:CLK *560:10 0.000479861
36 *1715:CLK *560:14 0.000257625
37 *1753:I *1353:I1 2.05998e-05
38 *1753:I *1634:B2 0.000749404
39 *1753:I *569:10 0.00100406
40 *479:24 *1522:I1 0.000171397
41 *479:24 *507:12 1.90887e-05
42 *479:32 *1379:I1 0.000188435
43 *479:32 *1526:S 0.000271774
44 *479:32 *1635:A1 8.3098e-05
45 *479:32 *1805:I 0.0001154
46 *479:32 *508:8 0.000271764
47 *479:32 *559:12 0.000476827
48 *479:32 *559:28 0.000498816
49 *479:39 *1379:I1 0.000373654
50 *479:39 *511:14 0.0010158
51 *479:46 *511:14 0.000201185
52 *479:50 *1376:A1 3.63356e-05
53 *479:50 *1522:I1 0.000110557
54 *479:50 *558:38 0.000501776
55 *479:63 *1376:A1 0.000178778
56 *479:63 *1771:I 0.000500772
57 *479:63 *492:465 2.83369e-05
58 *479:72 *1376:B2 0.000360072
59 *479:72 *1771:I 1.63544e-05
60 *479:72 *492:465 2.46717e-05
61 *479:80 *1376:B2 0.000582256
62 *479:80 *1638:A1 0
63 *479:105 *1374:I1 2.13874e-05
64 *479:105 *1640:A1 0.00066881
65 *479:105 *511:14 0.000372423
66 *479:105 *512:10 1.26329e-05
67 *479:151 *1376:B2 0.000237104
68 *479:151 *1634:A1 0.000226086
69 *479:151 *1634:B2 0.000114373
70 *479:151 *507:12 0
71 CYC_O *479:80 0
72 DAT_O[2] *479:151 0.000205688
73 DAT_O[3] *1753:I 0.000302285
74 DAT_O[3] *479:32 5.57549e-06
75 DAT_O[3] *479:151 2.35045e-05
76 DAT_O[4] *479:32 6.46802e-05
77 DAT_O[7] *479:80 0.000351666
78 STB_O *1695:CLK 0.000479251
79 *1353:I0 *1753:I 8.14182e-05
80 *1353:I0 *479:32 0
81 *1374:I0 *1715:CLK 7.86494e-06
82 *1376:A2 *1715:CLK 8.65561e-05
83 *1376:A2 *1753:I 0.000393276
84 *1376:B1 *479:72 0.000476164
85 *1376:B1 *479:80 0.00057304
86 *1376:B1 *479:151 0.000257303
87 *1378:B *1692:CLK 8.08345e-05
88 *1428:A1 *1753:I 2.24654e-05
89 *1428:A2 *1753:I 0.00108556
90 *1627:A1 *1692:CLK 0.000568633
91 *1641:A2 *479:63 0.000229626
92 *1642:A2 *479:63 0.000152839
93 *1643:A2 *479:50 0.000399922
94 *1643:A2 *479:63 0.00012761
95 *1656:D *1715:CLK 4.09978e-05
96 *1659:D *1715:CLK 0
97 *1659:D *479:32 0.00141687
98 *1659:D *479:39 0.00205992
99 *1659:D *479:46 0.00050264
100 *1659:D *479:105 0.000423366
101 *208:96 *479:32 0.000104771
102 *425:96 *1692:CLK 0.000870766
103 *425:96 *479:151 0.000260682
104 *425:103 *1695:CLK 0.000580926
105 *425:118 *1695:CLK 0.000510075
106 *434:10 *479:151 0
107 *434:61 *1692:CLK 3.34058e-05
108 *434:61 *479:151 2.25032e-05
109 *434:108 *479:63 6.25872e-05
*RES
1 *1746:Z *1753:I 24.24 
2 *1746:Z *479:24 5.852 
3 *479:24 *479:32 16.072 
4 *479:32 *1716:CLK 4.5 
5 *479:32 *479:39 5.928 
6 *479:39 *1656:CLK 4.5 
7 *479:39 *479:46 1.56 
8 *479:46 *479:50 7.1 
9 *479:50 *1700:CLK 9 
10 *479:50 *479:63 9.908 
11 *479:63 *1698:CLK 4.5 
12 *479:63 *479:72 2.496 
13 *479:72 *479:80 12.952 
14 *479:80 *1695:CLK 7.516 
15 *479:80 *1696:CLK 4.5 
16 *479:72 *1697:CLK 4.5 
17 *479:46 *479:105 12.328 
18 *479:105 *1715:CLK 10.428 
19 *479:105 *1659:CLK 4.5 
20 *479:24 *1694:CLK 4.5 
21 *1746:Z *1655:CLK 12.328 
22 *1746:Z *479:151 17.556 
23 *479:151 *1692:CLK 7.516 
24 *479:151 *1693:CLK 4.5 
*END

*D_NET *480 0.0267624
*CONN
*I *1459:A4 I *D gf180mcu_fd_sc_mcu7t5v0__nand4_1
*I *1466:A2 I *D gf180mcu_fd_sc_mcu7t5v0__nand2_1
*I *1575:A1 I *D gf180mcu_fd_sc_mcu7t5v0__nand4_1
*I *1258:I I *D gf180mcu_fd_sc_mcu7t5v0__clkinv_1
*I *1457:A2 I *D gf180mcu_fd_sc_mcu7t5v0__nand3_1
*I *1461:A3 I *D gf180mcu_fd_sc_mcu7t5v0__nand4_1
*I *1451:A3 I *D gf180mcu_fd_sc_mcu7t5v0__nand4_1
*I *1467:A2 I *D gf180mcu_fd_sc_mcu7t5v0__aoi21_1
*I *1554:A2 I *D gf180mcu_fd_sc_mcu7t5v0__nand4_1
*I *1556:A1 I *D gf180mcu_fd_sc_mcu7t5v0__nand4_1
*I *1732:Q O *D gf180mcu_fd_sc_mcu7t5v0__dffq_1
*CAP
1 *1459:A4 9.11669e-05
2 *1466:A2 0
3 *1575:A1 0.000173679
4 *1258:I 7.32396e-05
5 *1457:A2 0.000373339
6 *1461:A3 0.000121611
7 *1451:A3 0.000151726
8 *1467:A2 5.62293e-05
9 *1554:A2 5.93265e-05
10 *1556:A1 0.000202035
11 *1732:Q 0.0012027
12 *480:113 0.000298215
13 *480:104 0.000861712
14 *480:89 0.00103727
15 *480:38 0.000492232
16 *480:32 0.000470471
17 *480:24 0.000574834
18 *480:18 0.000477387
19 *480:16 0.000261135
20 *480:14 0.00143896
21 *1451:A3 *1469:A3 0.000194903
22 *1457:A2 *485:73 8.0905e-06
23 *1457:A2 *486:109 7.01914e-05
24 *1457:A2 *490:75 2.73939e-05
25 *1461:A3 *483:57 0.000116476
26 *1461:A3 *490:46 7.60927e-05
27 *1461:A3 *490:50 5.16573e-05
28 *1575:A1 *488:94 8.078e-05
29 *480:14 *1584:A1 0.000557671
30 *480:14 *563:34 0
31 *480:24 *490:133 3.10787e-05
32 *480:32 *487:83 0.000296661
33 *480:38 *1554:A1 3.56211e-05
34 *480:38 *487:83 3.98614e-06
35 *480:104 *1468:A2 0.000565498
36 *480:104 *1468:A3 6.61941e-05
37 *480:104 *485:73 0.000186624
38 *480:104 *486:109 9.58034e-05
39 *480:104 *486:117 0.000314622
40 *1450:A1 *480:104 0.000147028
41 *1450:A2 *480:104 0.000487069
42 *1457:A1 *1457:A2 0.000226367
43 *1457:A1 *480:104 8.58618e-05
44 *1458:A2 *1461:A3 0.000654124
45 *1458:A2 *480:104 1.65067e-05
46 *1460:A2 *480:14 1.01129e-06
47 *1462:A1 *480:24 0.000366224
48 *1462:A1 *480:32 0.000113027
49 *1462:A3 *1457:A2 0
50 *1466:A1 *480:113 9.09864e-05
51 *1467:A1 *1467:A2 7.62531e-05
52 *1467:A1 *480:38 7.09795e-05
53 *1468:A1 *480:113 8.1598e-06
54 *1469:A1 *1457:A2 0.000114669
55 *1469:B2 *1556:A1 1.26446e-05
56 *1510:A1 *480:14 0
57 *1510:A2 *480:14 0
58 *1549:A1 *1556:A1 1.95612e-05
59 *1549:B *480:32 0.000302775
60 *1556:A2 *1556:A1 1.71326e-05
61 *1556:A4 *1556:A1 0.000381257
62 *1567:A1 *1258:I 0.000569953
63 *1567:A1 *480:113 0.000960784
64 *1584:A2 *480:14 1.91996e-05
65 *1588:A1 *480:14 0.000185295
66 *1588:B *480:14 0.000202464
67 *1589:A2 *480:14 0.000186095
68 *1589:B *480:14 0.000164193
69 *1592:B *480:14 0.000281653
70 *1592:B *480:16 3.4596e-05
71 *1669:CLK *480:14 0.00128535
72 *123:6 *480:16 0.000548443
73 *123:12 *480:16 0.000595343
74 *123:12 *480:18 0.000504619
75 *123:12 *480:24 0.000412756
76 *123:45 *1575:A1 4.54968e-05
77 *123:45 *480:104 0
78 *123:47 *1258:I 0.000215244
79 *123:47 *480:113 0.000241982
80 *124:33 *1459:A4 5.57504e-05
81 *124:33 *480:14 0.000144405
82 *124:37 *1459:A4 3.4596e-05
83 *297:10 *1451:A3 0.000188241
84 *297:14 *480:32 0.000166817
85 *299:22 *1451:A3 0.000113418
86 *299:22 *480:32 0.000438247
87 *300:59 *1459:A4 3.4596e-05
88 *300:59 *480:16 0.000756821
89 *300:59 *480:18 0.000180091
90 *300:59 *480:24 0.000378611
91 *316:71 *480:104 2.91951e-05
92 *316:98 *480:104 0.0005055
93 *375:8 *480:24 0.000397755
94 *375:8 *480:32 0.000236009
95 *375:18 *480:32 0.000169624
96 *387:8 *1554:A2 1.50424e-05
97 *403:26 *1467:A2 0.000220507
98 *403:26 *1556:A1 8.44565e-06
99 *403:26 *480:38 0.000694817
100 *474:19 *480:14 0.000100656
101 *474:111 *480:14 0.00105151
*RES
1 *1732:Q *480:14 18.124 
2 *480:14 *480:16 3.224 
3 *480:16 *480:18 1.56 
4 *480:18 *480:24 3.64 
5 *480:24 *480:32 11.912 
6 *480:32 *480:38 2.392 
7 *480:38 *1556:A1 14.956 
8 *480:38 *1554:A2 5.02 
9 *480:32 *1467:A2 5.228 
10 *480:24 *1451:A3 15.06 
11 *480:18 *1461:A3 15.268 
12 *480:16 *480:89 4.5 
13 *480:89 *1457:A2 11.704 
14 *480:89 *480:104 12.3 
15 *480:104 *1258:I 6.06 
16 *480:104 *480:113 2.6 
17 *480:113 *1575:A1 14.644 
18 *480:113 *1466:A2 4.5 
19 *480:14 *1459:A4 5.54 
*END

*D_NET *481 0.00177897
*CONN
*I *1760:I I *D gf180mcu_fd_sc_mcu7t5v0__dlyc_1
*I *1666:Q O *D gf180mcu_fd_sc_mcu7t5v0__dffq_1
*CAP
1 *1760:I 0.000555531
2 *1666:Q 0.000555531
3 *1760:I *1250:I 8.35955e-06
4 *1760:I *484:14 0.000576421
5 *127:16 *1760:I 8.31292e-05
*RES
1 *1666:Q *1760:I 21.744 
*END

*D_NET *482 0.00484337
*CONN
*I *1758:I I *D gf180mcu_fd_sc_mcu7t5v0__dlyc_1
*I *1665:Q O *D gf180mcu_fd_sc_mcu7t5v0__dffq_1
*CAP
1 *1758:I 0.000771294
2 *1665:Q 0.000771294
3 *1758:I *1250:I 0.00084219
4 *1758:I *1607:A2 4.64946e-05
5 *1758:I *484:14 4.08012e-05
6 *1758:I *484:27 0.000148835
7 *1758:I *485:20 8.52285e-05
8 *1758:I *485:28 0.000116476
9 *1758:I *486:12 0
10 *1565:B *1758:I 3.82231e-05
11 *1566:A1 *1758:I 9.59851e-05
12 *1665:D *1758:I 0
13 *127:16 *1758:I 0.0004162
14 *422:14 *1758:I 7.93961e-05
15 *463:16 *1758:I 0.00139095
*RES
1 *1665:Q *1758:I 27.36 
*END

*D_NET *483 0.0233423
*CONN
*I *1441:A1 I *D gf180mcu_fd_sc_mcu7t5v0__nand2_1
*I *1443:A1 I *D gf180mcu_fd_sc_mcu7t5v0__nand2_1
*I *1256:I I *D gf180mcu_fd_sc_mcu7t5v0__clkinv_1
*I *1734:Q O *D gf180mcu_fd_sc_mcu7t5v0__dffq_1
*CAP
1 *1441:A1 0
2 *1443:A1 8.24152e-05
3 *1256:I 0.000154544
4 *1734:Q 0.000855827
5 *483:63 0.00173781
6 *483:57 0.00450189
7 *483:24 0.00385686
8 *1256:I *522:14 0
9 *1443:A1 *1441:A2 0.000119964
10 *483:24 *522:14 1.22614e-05
11 *483:24 *563:34 0.000582267
12 *483:57 *1608:A2 0
13 *483:57 *487:30 0.000835465
14 *483:57 *487:36 0.00057359
15 *483:57 *488:27 0.000715092
16 *483:57 *488:33 0.000153054
17 *483:57 *490:34 0.000372729
18 *483:57 *490:38 0.000156446
19 *483:57 *490:46 0.000105611
20 *483:57 *522:14 0
21 *483:63 *1441:A2 0.000176437
22 *483:63 *1534:A1 0.000173376
23 *483:63 *1595:A3 0.000370853
24 *483:63 *484:33 0.000123661
25 *483:63 *485:20 1.01881e-05
26 *483:63 *486:52 0.000537812
27 *483:63 *527:10 6.25766e-05
28 *1458:A2 *483:57 0.00017609
29 *1461:A2 *483:57 0.000374809
30 *1461:A3 *483:57 0.000116476
31 *1529:A2 *483:57 2.73715e-05
32 *1533:A1 *483:63 0.000146631
33 *1537:A3 *483:63 4.06228e-05
34 *1537:A4 *483:63 0.000113027
35 *1538:A3 *483:57 2.38656e-05
36 *1552:A1 *483:63 0.000146042
37 *1563:B *483:63 1.71324e-06
38 *1570:A1 *483:63 8.79431e-05
39 *1570:A2 *1443:A1 8.35178e-06
40 *1590:A2 *483:57 5.77431e-06
41 *1590:A2 *483:63 0.000118519
42 *1595:A1 *483:63 8.72353e-05
43 *1595:A2 *483:63 0.000783746
44 *1597:A1 *483:57 0.000153764
45 *1597:A1 *483:63 0.00060259
46 *1597:A3 *483:57 2.46717e-05
47 *1598:B *483:57 0.000288497
48 *1600:A2 *483:57 2.63674e-05
49 *1601:S *483:57 5.47431e-06
50 *1666:D *1443:A1 0.000188231
51 *1666:D *483:63 2.92004e-05
52 *1669:D *483:57 0.000305617
53 *1669:CLK *483:57 3.928e-05
54 *1673:D *483:57 3.68715e-05
55 *1675:D *483:24 6.7612e-05
56 *1676:CLK *483:24 0
57 *124:41 *483:57 2.81522e-06
58 *125:28 *483:57 0.000639166
59 *138:40 *483:63 3.22108e-05
60 *287:8 *1443:A1 9.76261e-05
61 *295:6 *483:63 0.000172541
62 *295:12 *483:63 0.000115572
63 *309:35 *483:57 0.000179413
64 *356:113 *483:57 6.50337e-05
65 *359:72 *483:57 0.000396425
66 *366:10 *483:57 1.12327e-05
67 *366:10 *483:63 9.71816e-05
68 *370:10 *483:63 0.000289109
69 *372:20 *483:63 8.85997e-05
70 *422:45 *483:57 5.89755e-05
71 *422:52 *483:57 4.30466e-05
72 *466:12 *483:24 2.26816e-05
73 *472:26 *483:63 0
74 *474:19 *483:57 2.93608e-05
75 *474:111 *483:57 8.27144e-06
76 *474:130 *483:24 0.000259114
77 *474:137 *483:24 0.000436827
*RES
1 *1734:Q *483:24 17.008 
2 *483:24 *1256:I 9.728 
3 *483:24 *483:57 40.124 
4 *483:57 *483:63 17.264 
5 *483:63 *1443:A1 14.644 
6 *483:63 *1441:A1 4.5 
*END

*D_NET *484 0.02553
*CONN
*I *1563:A2 I *D gf180mcu_fd_sc_mcu7t5v0__aoi211_1
*I *1517:A1 I *D gf180mcu_fd_sc_mcu7t5v0__nand4_1
*I *1540:A1 I *D gf180mcu_fd_sc_mcu7t5v0__oai31_1
*I *1442:A2 I *D gf180mcu_fd_sc_mcu7t5v0__nor2_1
*I *1445:A1 I *D gf180mcu_fd_sc_mcu7t5v0__oai22_1
*I *1609:A2 I *D gf180mcu_fd_sc_mcu7t5v0__and2_1
*I *1443:A2 I *D gf180mcu_fd_sc_mcu7t5v0__nand2_1
*I *1596:I1 I *D gf180mcu_fd_sc_mcu7t5v0__mux2_2
*I *1736:Q O *D gf180mcu_fd_sc_mcu7t5v0__dffq_1
*CAP
1 *1563:A2 3.08527e-05
2 *1517:A1 0.000505406
3 *1540:A1 6.63844e-05
4 *1442:A2 0
5 *1445:A1 0.000179845
6 *1609:A2 0.000638163
7 *1443:A2 0.000214048
8 *1596:I1 8.79368e-05
9 *1736:Q 0.000799694
10 *484:91 0.00138164
11 *484:78 0.000881022
12 *484:65 0.0003746
13 *484:52 0.000825515
14 *484:33 0.000675987
15 *484:27 0.00053799
16 *484:14 0.000996603
17 *1443:A2 *485:20 0.000383574
18 *1609:A2 *1513:A2 0.000104974
19 *1609:A2 *485:20 0.000143655
20 *484:14 *1250:I 6.58235e-06
21 *484:14 *485:20 0.000179413
22 *484:14 *485:28 0
23 *484:27 *1607:A2 5.56781e-06
24 *484:27 *485:20 0.00142553
25 *484:33 *1607:A2 0.000200109
26 *484:52 *1607:A2 0.000123598
27 *484:65 *1607:A2 0.000194744
28 *484:78 *1607:A2 9.99253e-06
29 *484:78 *492:87 0.000122308
30 *484:91 *1544:B 0.00111762
31 *484:91 *561:29 0.000113016
32 *1442:A1 *1445:A1 2.64466e-05
33 *1445:B1 *1445:A1 3.4596e-05
34 *1446:I *1445:A1 3.22108e-05
35 *1513:A1 *1609:A2 2.07916e-05
36 *1515:A2 *1596:I1 0.000248324
37 *1515:A2 *484:14 0.00172934
38 *1540:B *1540:A1 0.000125283
39 *1541:I0 *1540:A1 0.000143493
40 *1541:S *1540:A1 3.66431e-05
41 *1545:A3 *484:91 0.00073371
42 *1545:A4 *484:91 0.000381202
43 *1546:A2 *484:91 0.000167428
44 *1547:A2 *1445:A1 1.09116e-05
45 *1547:A2 *484:91 0.000592559
46 *1547:B *484:65 0.00019118
47 *1547:B *484:78 0.000391189
48 *1565:B *484:14 0
49 *1569:B *484:33 0.000191953
50 *1570:B *1443:A2 0.000191039
51 *1595:A1 *1563:A2 0.000136293
52 *1595:A1 *484:33 0.000341532
53 *1595:A2 *1563:A2 0.000166817
54 *1595:A2 *484:33 0.000341532
55 *1609:A1 *1609:A2 0.000175302
56 *1679:D *484:14 0
57 *1682:D *1609:A2 7.61518e-05
58 *1758:I *484:14 4.08012e-05
59 *1758:I *484:27 0.000148835
60 *1760:I *484:14 0.000576421
61 *142:184 *1609:A2 8.80979e-05
62 *288:10 *1445:A1 3.22108e-05
63 *288:10 *484:33 4.99626e-05
64 *288:10 *484:52 0.000113605
65 *288:10 *484:65 0.000134835
66 *288:34 *1445:A1 2.14739e-05
67 *291:10 *1445:A1 0.000405998
68 *291:10 *1609:A2 1.09116e-05
69 *300:6 *1517:A1 0.000829711
70 *300:6 *484:91 5.3062e-05
71 *358:10 *1609:A2 0.000113016
72 *359:33 *1517:A1 8.67129e-05
73 *422:14 *1596:I1 0
74 *422:14 *484:27 0.000730711
75 *463:16 *1596:I1 5.47338e-06
76 *472:26 *484:33 1.91479e-06
77 *473:14 *484:91 0.000926189
78 *473:16 *484:91 0.00107688
79 *473:20 *484:91 0.000311033
80 *473:24 *484:91 2.4102e-05
81 *473:72 *1517:A1 0.000121267
82 *473:72 *484:91 0.000690804
83 *483:63 *484:33 0.000123661
*RES
1 *1736:Q *484:14 16.904 
2 *484:14 *1596:I1 9.728 
3 *484:14 *484:27 8.348 
4 *484:27 *484:33 8.452 
5 *484:33 *1443:A2 11.808 
6 *484:33 *484:52 0.936 
7 *484:52 *1609:A2 15.24 
8 *484:52 *484:65 1.56 
9 *484:65 *1445:A1 10.56 
10 *484:65 *484:78 5.644 
11 *484:78 *1442:A2 4.5 
12 *484:78 *484:91 12.688 
13 *484:91 *1540:A1 14.436 
14 *484:91 *1517:A1 10.22 
15 *484:27 *1563:A2 5.02 
*END

*D_NET *485 0.0266283
*CONN
*I *1261:I I *D gf180mcu_fd_sc_mcu7t5v0__clkinv_1
*I *1511:A2 I *D gf180mcu_fd_sc_mcu7t5v0__nor2_1
*I *1468:A3 I *D gf180mcu_fd_sc_mcu7t5v0__nand3_1
*I *1453:A1 I *D gf180mcu_fd_sc_mcu7t5v0__nand2_1
*I *1574:A1 I *D gf180mcu_fd_sc_mcu7t5v0__aoi211_1
*I *1472:A1 I *D gf180mcu_fd_sc_mcu7t5v0__nor2_1
*I *1464:A1 I *D gf180mcu_fd_sc_mcu7t5v0__nand2_1
*I *1679:Q O *D gf180mcu_fd_sc_mcu7t5v0__dffq_1
*CAP
1 *1261:I 5.14556e-05
2 *1511:A2 2.02177e-05
3 *1468:A3 0.000142984
4 *1453:A1 0
5 *1574:A1 4.66499e-05
6 *1472:A1 0
7 *1464:A1 0
8 *1679:Q 0.00101074
9 *485:73 0.00106954
10 *485:62 0.00202494
11 *485:47 0.00184056
12 *485:32 0.00116547
13 *485:28 0.000902805
14 *485:20 0.00156814
15 *1574:A1 *486:94 3.22108e-05
16 *485:20 *527:10 0
17 *485:28 *1607:A2 1.58308e-05
18 *485:32 *486:31 1.09486e-05
19 *485:47 *486:25 1.76416e-05
20 *485:47 *486:31 0.000163415
21 *485:47 *486:35 6.9711e-06
22 *485:47 *486:79 0.000390429
23 *485:62 *1536:B1 0.000355296
24 *485:62 *1812:I 0.00143924
25 *485:62 *486:79 2.24654e-05
26 *485:62 *486:94 2.66236e-05
27 *485:62 *490:79 0.000230002
28 *485:73 *488:43 0.000626336
29 *485:73 *490:75 0.000194576
30 *485:73 *490:77 0.000365207
31 *485:73 *490:79 0.00053639
32 i2c_sda_out_pin_ctrl *485:62 0.000159517
33 *1443:A2 *485:20 0.000383574
34 *1450:A1 *485:73 0.000833548
35 *1457:A1 *485:73 0.000855229
36 *1457:A2 *485:73 8.0905e-06
37 *1458:A2 *1468:A3 5.9854e-05
38 *1458:A2 *485:73 0.000515827
39 *1464:A2 *485:28 6.19563e-05
40 *1464:A2 *485:32 0.000488457
41 *1468:A1 *1468:A3 7.87395e-06
42 *1473:A1 *485:47 0.000140313
43 *1473:A2 *485:32 1.85523e-05
44 *1473:A2 *485:47 3.6383e-06
45 *1511:A1 *1511:A2 3.4596e-05
46 *1511:A1 *485:32 0.00010019
47 *1515:A2 *485:28 0
48 *1516:A4 *485:20 0.000921609
49 *1530:A1 *1468:A3 1.78817e-06
50 *1536:A2 *485:62 0.000248498
51 *1551:B *485:62 0.000234299
52 *1556:A2 *1468:A3 0.000113027
53 *1562:A1 *1511:A2 1.23682e-05
54 *1562:A1 *485:32 1.12327e-05
55 *1562:A2 *485:28 0.000322862
56 *1563:A1 *485:20 0.000630589
57 *1565:B *485:20 6.8763e-06
58 *1565:B *485:28 0.000209557
59 *1569:A1 *485:20 0.000283451
60 *1570:A1 *485:20 0.000921609
61 *1609:A2 *485:20 0.000143655
62 *1666:D *485:20 0.000312966
63 *1671:D *485:20 0.000556749
64 *1671:D *485:28 8.96662e-05
65 *1682:D *485:20 0.000591484
66 *1758:I *485:20 8.52285e-05
67 *1758:I *485:28 0.000116476
68 *123:47 *1468:A3 0
69 *127:16 *1511:A2 6.18411e-06
70 *138:71 *485:32 4.07478e-05
71 *138:71 *485:47 0.000106908
72 *139:19 *485:47 0.000155247
73 *139:30 *485:32 7.9669e-06
74 *303:39 *1574:A1 1.40331e-05
75 *303:39 *485:73 5.64378e-05
76 *356:14 *1511:A2 1.91879e-05
77 *463:6 *1261:I 9.35542e-06
78 *463:6 *485:28 4.67771e-06
79 *463:16 *485:28 5.68036e-05
80 *463:34 *485:20 0.000520556
81 *480:104 *1468:A3 6.61941e-05
82 *480:104 *485:73 0.000186624
83 *483:63 *485:20 1.01881e-05
84 *484:14 *485:20 0.000179413
85 *484:14 *485:28 0
86 *484:27 *485:20 0.00142553
*RES
1 *1679:Q *485:20 29.1 
2 *485:20 *485:28 12.952 
3 *485:28 *485:32 3.536 
4 *485:32 *1464:A1 4.5 
5 *485:32 *485:47 16.384 
6 *485:47 *1472:A1 4.5 
7 *485:47 *485:62 15.108 
8 *485:62 *1574:A1 9.312 
9 *485:62 *485:73 10.088 
10 *485:73 *1453:A1 9 
11 *485:73 *1468:A3 10.248 
12 *485:28 *1511:A2 4.812 
13 *485:20 *1261:I 4.812 
*END

*D_NET *486 0.0290841
*CONN
*I *1262:I I *D gf180mcu_fd_sc_mcu7t5v0__clkinv_1
*I *1590:B2 I *D gf180mcu_fd_sc_mcu7t5v0__oai221_1
*I *1468:A2 I *D gf180mcu_fd_sc_mcu7t5v0__nand3_1
*I *1453:A2 I *D gf180mcu_fd_sc_mcu7t5v0__nand2_1
*I *1574:A2 I *D gf180mcu_fd_sc_mcu7t5v0__aoi211_1
*I *1472:A2 I *D gf180mcu_fd_sc_mcu7t5v0__nor2_1
*I *1533:A2 I *D gf180mcu_fd_sc_mcu7t5v0__nor3_1
*I *1595:A3 I *D gf180mcu_fd_sc_mcu7t5v0__nor4_1
*I *1512:A2 I *D gf180mcu_fd_sc_mcu7t5v0__nand2_1
*I *1463:A2 I *D gf180mcu_fd_sc_mcu7t5v0__nor2_1
*I *1465:A2 I *D gf180mcu_fd_sc_mcu7t5v0__nor2_1
*I *1680:Q O *D gf180mcu_fd_sc_mcu7t5v0__dffq_1
*CAP
1 *1262:I 0
2 *1590:B2 4.59395e-05
3 *1468:A2 0.000140383
4 *1453:A2 3.01464e-05
5 *1574:A2 0
6 *1472:A2 0
7 *1533:A2 0
8 *1595:A3 0.000328188
9 *1512:A2 0
10 *1463:A2 0
11 *1465:A2 0
12 *1680:Q 0.000676162
13 *486:117 0.000342675
14 *486:109 0.00146841
15 *486:94 0.00202601
16 *486:79 0.00106911
17 *486:52 0.0004407
18 *486:46 0.00015625
19 *486:35 0.000906719
20 *486:31 0.00134625
21 *486:25 0.00041304
22 *486:12 0.000899357
23 *1453:A2 *489:37 0.000191446
24 *486:12 *1607:A2 8.52913e-05
25 *486:94 *1470:A2 0.000113027
26 *486:94 *1549:A2 0.000599738
27 *486:94 *1812:I 4.63309e-05
28 *486:109 *1470:A2 0.000237084
29 *486:109 *490:79 0
30 *486:109 *563:34 8.69612e-05
31 *486:109 *563:44 2.82015e-06
32 *1455:A1 *486:109 4.55996e-05
33 *1457:A2 *486:109 7.01914e-05
34 *1464:A2 *486:12 9.75546e-05
35 *1464:A2 *486:25 3.98026e-05
36 *1465:A1 *486:25 0.000507644
37 *1468:A1 *1468:A2 6.32781e-05
38 *1470:A1 *486:109 0.000262946
39 *1473:A1 *486:35 0.000127087
40 *1473:A2 *486:31 0.000435067
41 *1475:A3 *486:94 5.00672e-05
42 *1511:A1 *486:25 8.1598e-06
43 *1516:A2 *1595:A3 2.38656e-05
44 *1533:A1 *1595:A3 3.4596e-05
45 *1550:A1 *486:79 0.000835971
46 *1550:A1 *486:94 0.000497696
47 *1551:B *486:79 4.07478e-05
48 *1551:B *486:94 0.000189969
49 *1552:B *486:94 3.42651e-05
50 *1553:A2 *486:94 8.44565e-06
51 *1553:C *486:94 2.6438e-06
52 *1556:A2 *1468:A2 3.3221e-05
53 *1559:A1 *486:31 1.23682e-05
54 *1559:A1 *486:79 7.9929e-05
55 *1559:A2 *486:79 3.60231e-05
56 *1559:A3 *486:35 1.5359e-05
57 *1560:A1 *486:94 2.24654e-05
58 *1560:A2 *486:35 0.000683353
59 *1561:A3 *486:35 0
60 *1565:A2 *486:12 0.000114274
61 *1565:A2 *486:25 1.40331e-05
62 *1566:A1 *486:12 4.46438e-05
63 *1568:A2 *1595:A3 0.000188231
64 *1568:A2 *486:52 0.000188241
65 *1570:A1 *1595:A3 0.000639156
66 *1574:A1 *486:94 3.22108e-05
67 *1581:A2 *486:109 0.000387312
68 *1582:A3 *486:109 0.0003995
69 *1593:A1 *486:109 0
70 *1597:A1 *486:52 4.18042e-05
71 *1597:A1 *486:117 1.64767e-05
72 *1671:D *486:25 0
73 *1758:I *486:12 0
74 *123:34 *486:109 0.000103983
75 *123:34 *486:117 1.78561e-06
76 *125:8 *486:109 0.000392879
77 *127:16 *486:12 0
78 *134:12 *486:94 0
79 *134:12 *486:109 0
80 *138:40 *1595:A3 0.000178492
81 *138:40 *486:52 0.000197059
82 *138:71 *486:25 6.52129e-05
83 *138:71 *486:35 7.5904e-06
84 *139:19 *486:25 7.29199e-05
85 *139:30 *486:31 0
86 *139:40 *486:35 0.00188289
87 *292:16 *1595:A3 9.80196e-06
88 *297:22 *486:35 0.00020333
89 *297:22 *486:46 0.000102675
90 *298:18 *486:79 0
91 *303:31 *486:109 3.38269e-05
92 *303:39 *486:94 1.76702e-05
93 *303:39 *486:109 6.18411e-06
94 *309:48 *1453:A2 6.32781e-05
95 *316:31 *486:109 1.72201e-05
96 *316:71 *1468:A2 0.000199976
97 *316:71 *1590:B2 0.000642242
98 *316:71 *486:117 0.000921918
99 *317:6 *1595:A3 0
100 *356:14 *486:12 0.000361257
101 *356:14 *486:25 0.00019118
102 *356:29 *486:35 0.000582359
103 *356:29 *486:46 0.000438808
104 *375:18 *486:94 8.14957e-05
105 *385:12 *486:94 0.00071626
106 *386:20 *486:94 4.63309e-05
107 *388:12 *486:35 0
108 *422:45 *1590:B2 0.000607646
109 *422:45 *486:117 0.000258741
110 *463:16 *486:12 0
111 *463:34 *486:52 0.000179772
112 *480:104 *1468:A2 0.000565498
113 *480:104 *486:109 9.58034e-05
114 *480:104 *486:117 0.000314622
115 *483:63 *1595:A3 0.000370853
116 *483:63 *486:52 0.000537812
117 *485:32 *486:31 1.09486e-05
118 *485:47 *486:25 1.76416e-05
119 *485:47 *486:31 0.000163415
120 *485:47 *486:35 6.9711e-06
121 *485:47 *486:79 0.000390429
122 *485:62 *486:79 2.24654e-05
123 *485:62 *486:94 2.66236e-05
*RES
1 *1680:Q *486:12 18.908 
2 *486:12 *1465:A2 4.5 
3 *486:12 *486:25 11.912 
4 *486:25 *486:31 2.6 
5 *486:31 *486:35 13.964 
6 *486:35 *1463:A2 9 
7 *486:35 *486:46 5.644 
8 *486:46 *486:52 6.58 
9 *486:52 *1512:A2 9 
10 *486:52 *1595:A3 13.056 
11 *486:46 *1533:A2 4.5 
12 *486:31 *486:79 4.472 
13 *486:79 *1472:A2 4.5 
14 *486:79 *486:94 8.632 
15 *486:94 *1574:A2 4.5 
16 *486:94 *486:109 18.672 
17 *486:109 *486:117 7.724 
18 *486:117 *1453:A2 9.52 
19 *486:117 *1468:A2 11.08 
20 *486:109 *1590:B2 6.268 
21 *486:25 *1262:I 4.5 
*END

*D_NET *487 0.0428628
*CONN
*I *1249:I I *D gf180mcu_fd_sc_mcu7t5v0__clkinv_1
*I *1587:A3 I *D gf180mcu_fd_sc_mcu7t5v0__nand3_1
*I *1478:S0 I *D gf180mcu_fd_sc_mcu7t5v0__mux4_1
*I *1477:S0 I *D gf180mcu_fd_sc_mcu7t5v0__mux4_1
*I *1454:A2 I *D gf180mcu_fd_sc_mcu7t5v0__nor2_1
*I *1450:A3 I *D gf180mcu_fd_sc_mcu7t5v0__nand4_1
*I *1451:A2 I *D gf180mcu_fd_sc_mcu7t5v0__nand4_1
*I *1532:A2 I *D gf180mcu_fd_sc_mcu7t5v0__nand4_1
*I *1539:A4 I *D gf180mcu_fd_sc_mcu7t5v0__nand4_1
*I *1534:A1 I *D gf180mcu_fd_sc_mcu7t5v0__nand4_1
*I *1531:A2 I *D gf180mcu_fd_sc_mcu7t5v0__and4_1
*I *1469:A2 I *D gf180mcu_fd_sc_mcu7t5v0__oai32_1
*I *1554:A1 I *D gf180mcu_fd_sc_mcu7t5v0__nand4_1
*I *1667:Q O *D gf180mcu_fd_sc_mcu7t5v0__dffq_1
*CAP
1 *1249:I 0
2 *1587:A3 0.000122467
3 *1478:S0 0.000932345
4 *1477:S0 0
5 *1454:A2 0.000335321
6 *1450:A3 0
7 *1451:A2 0
8 *1532:A2 0
9 *1539:A4 7.78266e-05
10 *1534:A1 8.22742e-05
11 *1531:A2 0.000195093
12 *1469:A2 9.26003e-05
13 *1554:A1 0.000196418
14 *1667:Q 0.00148606
15 *487:175 0.00303667
16 *487:142 0.00328478
17 *487:103 0.000354597
18 *487:83 0.000640214
19 *487:62 0.000803136
20 *487:56 0.000448693
21 *487:54 9.71381e-05
22 *487:52 0.000692078
23 *487:36 0.000850357
24 *487:30 0.00121919
25 *487:26 0.00121166
26 *487:20 0.0024566
27 *1454:A2 *1454:A1 0.000256508
28 *1478:S0 *1807:I 3.7126e-05
29 *1478:S0 *568:8 3.22108e-05
30 *1531:A2 *1469:A3 0.00017298
31 *1531:A2 *1531:A1 3.82231e-05
32 *1539:A4 *563:107 5.69697e-05
33 *487:20 *563:34 0.000116667
34 *487:36 *490:34 0.00103175
35 *487:36 *490:38 6.91919e-05
36 *487:52 *490:38 0.000235806
37 *487:52 *490:129 0
38 *487:52 *563:86 0.000251178
39 *487:54 *1532:A1 3.34073e-05
40 *487:103 *563:96 0.000120258
41 *487:103 *563:107 3.17547e-05
42 *487:142 *1587:A1 7.11788e-05
43 *487:142 *488:94 0.000198947
44 *487:142 *488:109 1.93776e-05
45 *487:175 *1519:A1 0.000259344
46 *487:175 *1648:A1 0
47 *1315:C *487:175 0
48 *1347:A1 *1478:S0 0.000246849
49 *1347:A1 *487:175 0.000182219
50 *1347:A2 *1478:S0 0.000910177
51 *1347:A2 *487:175 0.000182219
52 *1348:I0 *1478:S0 9.00155e-05
53 *1348:S *1478:S0 0.000122269
54 *1352:A2 *487:175 0.00039776
55 *1362:A1 *1478:S0 6.31135e-06
56 *1362:A2 *1478:S0 0
57 *1373:A2 *1478:S0 0.000745259
58 *1378:A1 *1478:S0 0.000271894
59 *1460:A1 *1587:A3 5.6515e-05
60 *1460:A1 *487:26 0.000232863
61 *1467:A1 *487:83 6.93471e-05
62 *1469:A1 *1531:A2 3.26939e-05
63 *1469:B2 *1531:A2 0
64 *1476:A1 *487:20 1.23278e-05
65 *1476:A1 *487:26 4.67771e-06
66 *1507:A3 *487:26 6.72568e-05
67 *1518:B *1454:A2 9.168e-05
68 *1521:S *487:175 0.00052232
69 *1531:A4 *487:52 0.000322943
70 *1538:A3 *487:52 0.000103788
71 *1539:A2 *1539:A4 0.000107043
72 *1548:A3 *487:54 0.000182208
73 *1549:B *487:83 4.84704e-05
74 *1555:A1 *487:62 2.64279e-05
75 *1555:A1 *487:103 5.31855e-06
76 *1556:A2 *1539:A4 0.00058237
77 *1556:A2 *487:62 0.000198313
78 *1556:A2 *487:103 0.000864346
79 *1556:A4 *487:62 8.60793e-05
80 *1560:A1 *1554:A1 8.42801e-05
81 *1560:A1 *487:83 3.83946e-05
82 *1567:A1 *1454:A2 3.11096e-05
83 *1577:A1 *487:26 0.000285235
84 *1585:A3 *487:26 3.55539e-05
85 *1588:A2 *487:26 0.000102352
86 *1588:A3 *1587:A3 3.43535e-05
87 *1588:A3 *487:26 5.38485e-05
88 *1588:A3 *487:142 0
89 *1591:A2 *487:142 0.000985274
90 *1594:A1 *487:142 0.00020333
91 *1597:A1 *1534:A1 0.000480985
92 *1653:CLK *1454:A2 4.18042e-05
93 *1653:CLK *487:175 0.000305781
94 *1670:CLK *487:20 8.80775e-05
95 *1778:I *487:175 5.85121e-05
96 *122:28 *487:175 0.000496044
97 *123:12 *487:62 0.000344595
98 *126:8 *487:26 1.07369e-05
99 *126:30 *487:26 0.000193683
100 *176:58 *1478:S0 0.000125695
101 *294:8 *487:52 3.58826e-05
102 *300:6 *1454:A2 1.71326e-05
103 *300:21 *487:62 7.81001e-06
104 *300:21 *487:103 2.19671e-06
105 *300:42 *487:52 0.000212461
106 *300:42 *487:54 0.000399022
107 *300:59 *487:52 0.000263725
108 *307:12 *487:52 0.000150265
109 *307:12 *487:54 0.000685026
110 *316:61 *1587:A3 0.000406972
111 *323:30 *487:175 0.000183573
112 *351:10 *1454:A2 0
113 *351:10 *487:175 6.87156e-05
114 *356:82 *487:52 1.19219e-06
115 *356:113 *487:52 2.92452e-05
116 *359:40 *1454:A2 2.70039e-05
117 *359:74 *487:20 0.000106581
118 *359:74 *487:26 6.98665e-05
119 *361:36 *487:175 0.000264772
120 *361:42 *487:175 0.00117737
121 *375:18 *487:83 0.000431319
122 *403:26 *1469:A2 1.12327e-05
123 *403:26 *1531:A2 0.000499674
124 *403:26 *1554:A1 1.36398e-06
125 *403:26 *487:83 0.000105621
126 *403:30 *487:26 1.99254e-05
127 *422:45 *1587:A3 0.000406972
128 *422:45 *487:30 0.000323375
129 *422:45 *487:36 0.00140901
130 *422:45 *487:52 0.000235806
131 *455:12 *487:175 0.000415294
132 *474:23 *487:20 1.61221e-05
133 *474:25 *487:20 5.14153e-05
134 *475:39 *487:175 0.000448568
135 *478:106 *1478:S0 3.96185e-05
136 *480:32 *487:83 0.000296661
137 *480:38 *1554:A1 3.56211e-05
138 *480:38 *487:83 3.98614e-06
139 *483:57 *487:30 0.000835465
140 *483:57 *487:36 0.00057359
141 *483:63 *1534:A1 0.000173376
*RES
1 *1667:Q *487:20 31.652 
2 *487:20 *487:26 11.156 
3 *487:26 *487:30 6.892 
4 *487:30 *487:36 5.304 
5 *487:36 *487:52 22.992 
6 *487:52 *487:54 1.976 
7 *487:54 *487:56 4.5 
8 *487:56 *487:62 7.204 
9 *487:62 *1554:A1 5.956 
10 *487:62 *487:83 11.912 
11 *487:83 *1469:A2 5.228 
12 *487:83 *1531:A2 6.684 
13 *487:56 *487:103 2.392 
14 *487:103 *1534:A1 10.352 
15 *487:103 *1539:A4 10.56 
16 *487:54 *1532:A2 4.5 
17 *487:52 *1451:A2 4.5 
18 *487:36 *1450:A3 4.5 
19 *487:30 *487:142 16.384 
20 *487:142 *1454:A2 7.932 
21 *487:142 *487:175 40.3526 
22 *487:175 *1477:S0 4.5 
23 *487:175 *1478:S0 13.652 
24 *487:26 *1587:A3 10.872 
25 *487:20 *1249:I 4.5 
*END

*D_NET *488 0.035807
*CONN
*I *1478:S1 I *D gf180mcu_fd_sc_mcu7t5v0__mux4_1
*I *1477:S1 I *D gf180mcu_fd_sc_mcu7t5v0__mux4_1
*I *1454:A1 I *D gf180mcu_fd_sc_mcu7t5v0__nor2_1
*I *1587:A2 I *D gf180mcu_fd_sc_mcu7t5v0__nand3_1
*I *1248:I I *D gf180mcu_fd_sc_mcu7t5v0__clkinv_1
*I *1448:A2 I *D gf180mcu_fd_sc_mcu7t5v0__nor2_1
*I *1449:A3 I *D gf180mcu_fd_sc_mcu7t5v0__nor3_1
*I *1469:A3 I *D gf180mcu_fd_sc_mcu7t5v0__oai32_1
*I *1584:A1 I *D gf180mcu_fd_sc_mcu7t5v0__nor2_1
*I *1668:Q O *D gf180mcu_fd_sc_mcu7t5v0__dffq_1
*CAP
1 *1478:S1 0.000636521
2 *1477:S1 3.6366e-05
3 *1454:A1 0.000138735
4 *1587:A2 6.84656e-05
5 *1248:I 0
6 *1448:A2 0
7 *1449:A3 0.000297428
8 *1469:A3 0.000733323
9 *1584:A1 0.00011806
10 *1668:Q 9.06381e-05
11 *488:109 0.00361738
12 *488:94 0.00373152
13 *488:83 0.000856749
14 *488:47 0.00109858
15 *488:43 0.000487251
16 *488:33 0.000612242
17 *488:27 0.000970882
18 *488:10 0.000846762
19 *1449:A3 *1448:A1 8.77606e-06
20 *1449:A3 *1449:A2 4.58667e-05
21 *1449:A3 *489:50 8.59425e-06
22 *1478:S1 *1770:I 0.00150861
23 *1478:S1 *556:14 4.36934e-05
24 *488:109 *1271:I 0
25 *488:109 *1757:I 0
26 *488:109 *553:12 0.000211851
27 *488:109 *553:38 0.000646275
28 DAT_O[0] *488:109 0.00124314
29 DAT_O[5] *1478:S1 3.20587e-05
30 *1281:I *488:109 0
31 *1343:B1 *488:109 3.77438e-05
32 *1355:A2 *1478:S1 9.05853e-05
33 *1355:A2 *488:109 4.49307e-05
34 *1355:B1 *488:109 0.00016439
35 *1371:B1 *1478:S1 0.00069295
36 *1373:B *1478:S1 0.000894298
37 *1373:B *488:109 0.000519012
38 *1449:A1 *1449:A3 2.60017e-05
39 *1451:A3 *1469:A3 0.000194903
40 *1454:A2 *1454:A1 0.000256508
41 *1458:A2 *488:43 0.000240402
42 *1461:A2 *488:43 7.89589e-05
43 *1469:A1 *1469:A3 2.16732e-05
44 *1518:A1 *488:109 1.85359e-05
45 *1520:A1 *488:109 0
46 *1531:A2 *1469:A3 0.00017298
47 *1552:A1 *1449:A3 0.000189985
48 *1552:A1 *1469:A3 0.00030613
49 *1556:A2 *1449:A3 0.000185295
50 *1560:A1 *1469:A3 0.000744524
51 *1567:A1 *1454:A1 0.000108673
52 *1575:A1 *488:94 8.078e-05
53 *1575:A4 *488:94 0.000121411
54 *1584:A2 *1584:A1 0.000145815
55 *1584:A2 *488:10 0.00020084
56 *1585:A1 *488:10 5.12872e-06
57 *1589:B *488:27 7.20834e-05
58 *1590:A1 *488:83 0.000809422
59 *1590:A1 *488:94 0.000373533
60 *1590:A2 *1449:A3 5.22308e-05
61 *1590:C *1587:A2 0.00070471
62 *1594:A1 *488:83 0.00028269
63 *1594:A1 *488:94 0.000157235
64 *1597:A1 *1587:A2 0.00070471
65 *1597:A1 *488:43 0.000111169
66 *1668:D *488:10 9.68773e-05
67 *1668:D *488:27 0.000115377
68 *1669:D *488:27 0.000305617
69 *1669:CLK *488:27 3.60723e-05
70 *1745:I *1478:S1 9.88019e-05
71 *123:45 *488:94 0
72 *124:33 *488:27 0.00102928
73 *124:33 *488:33 0.000256322
74 *124:37 *488:33 0.000343422
75 *124:37 *488:43 0.000711445
76 *124:41 *488:43 0.000174813
77 *125:28 *488:27 0
78 *125:28 *488:33 1.86109e-05
79 *125:28 *488:43 0.000219608
80 *154:35 *488:109 0
81 *176:66 *1478:S1 6.44216e-05
82 *186:12 *488:109 0.000367587
83 *297:10 *1469:A3 1.27019e-05
84 *299:16 *1449:A3 1.23478e-05
85 *299:22 *1449:A3 0.000124397
86 *299:22 *1469:A3 5.36524e-05
87 *309:35 *488:43 0.000238002
88 *309:35 *488:47 0.000112472
89 *352:8 *488:10 3.68491e-05
90 *352:8 *488:27 0.000118716
91 *361:28 *488:109 5.6515e-05
92 *422:45 *488:43 0.000873214
93 *422:45 *488:47 0.000325488
94 *471:11 *488:109 0.000363297
95 *471:72 *488:109 0.0004706
96 *480:14 *1584:A1 0.000557671
97 *483:57 *488:27 0.000715092
98 *483:57 *488:33 0.000153054
99 *485:73 *488:43 0.000626336
100 *487:142 *488:94 0.000198947
101 *487:142 *488:109 1.93776e-05
*RES
1 *1668:Q *488:10 10.248 
2 *488:10 *1584:A1 10.56 
3 *488:10 *488:27 12.508 
4 *488:27 *488:33 2.392 
5 *488:33 *488:43 15.76 
6 *488:43 *488:47 5.436 
7 *488:47 *1469:A3 14.616 
8 *488:47 *1449:A3 12.328 
9 *488:43 *1448:A2 4.5 
10 *488:33 *1248:I 4.5 
11 *488:27 *488:83 6.684 
12 *488:83 *1587:A2 10.976 
13 *488:83 *488:94 5.72 
14 *488:94 *1454:A1 10.768 
15 *488:94 *488:109 30.084 
16 *488:109 *1477:S1 4.812 
17 *488:109 *1478:S1 13.34 
*END

*D_NET *489 0.0119154
*CONN
*I *1480:A2 I *D gf180mcu_fd_sc_mcu7t5v0__aoi21_1
*I *1247:I I *D gf180mcu_fd_sc_mcu7t5v0__clkinv_1
*I *1447:A2 I *D gf180mcu_fd_sc_mcu7t5v0__nor2_1
*I *1458:A3 I *D gf180mcu_fd_sc_mcu7t5v0__nor4_1
*I *1456:A3 I *D gf180mcu_fd_sc_mcu7t5v0__nor3_1
*I *1449:A2 I *D gf180mcu_fd_sc_mcu7t5v0__nor3_1
*I *1448:A1 I *D gf180mcu_fd_sc_mcu7t5v0__nor2_1
*I *1587:A1 I *D gf180mcu_fd_sc_mcu7t5v0__nand3_1
*I *1669:Q O *D gf180mcu_fd_sc_mcu7t5v0__dffq_1
*CAP
1 *1480:A2 0.000157479
2 *1247:I 0
3 *1447:A2 0
4 *1458:A3 2.24072e-05
5 *1456:A3 8.72696e-05
6 *1449:A2 0.000120535
7 *1448:A1 0.000112556
8 *1587:A1 0.000134311
9 *1669:Q 0
10 *489:56 0.00026957
11 *489:50 0.00020804
12 *489:37 0.000709482
13 *489:25 0.000828937
14 *489:12 0.00057089
15 *489:8 0.000177003
16 *489:4 0.00025378
17 *1480:A2 *492:282 6.22117e-05
18 *1449:A1 *1449:A2 0.000155002
19 *1449:A1 *1456:A3 8.2459e-05
20 *1449:A3 *1448:A1 8.77606e-06
21 *1449:A3 *1449:A2 4.58667e-05
22 *1449:A3 *489:50 8.59425e-06
23 *1453:A2 *489:37 0.000191446
24 *1456:A2 *1456:A3 0
25 *1456:A2 *1458:A3 0.000116476
26 *1456:A2 *489:56 0.000113016
27 *1460:A1 *1480:A2 0.000260006
28 *1460:A1 *1587:A1 0
29 *1529:B *489:37 0.000103788
30 *1535:B *489:56 3.3698e-05
31 *1537:A1 *489:56 0.000122357
32 *1552:A1 *1448:A1 0.000127762
33 *1590:A1 *489:25 3.65102e-05
34 *1590:A2 *489:25 7.67119e-05
35 *1590:A2 *489:37 0.00106755
36 *1590:C *489:25 0
37 *1591:A1 *489:25 4.84242e-05
38 *1591:A2 *1587:A1 1.94951e-05
39 *1591:A2 *489:12 2.36792e-05
40 *1591:B *489:25 8.52456e-06
41 *1594:A1 *489:25 5.13977e-05
42 *1597:A1 *1448:A1 0.000113016
43 *1599:A1 *489:8 0
44 *124:10 *1480:A2 0.000113016
45 *124:10 *489:8 0.000125575
46 *299:16 *1449:A2 2.50554e-05
47 *299:16 *489:37 0.000149818
48 *299:16 *489:50 2.92312e-05
49 *299:16 *489:56 0.000332316
50 *299:104 *489:8 5.75753e-05
51 *304:12 *489:56 0.000419276
52 *309:35 *1448:A1 0.000122244
53 *309:48 *1480:A2 3.42651e-05
54 *309:48 *489:8 0.000582267
55 *309:48 *489:25 0.00170548
56 *309:48 *489:37 0.000311562
57 *356:113 *1448:A1 0.000645296
58 *356:113 *1458:A3 0.000180228
59 *356:113 *489:50 0.000481976
60 *487:142 *1587:A1 7.11788e-05
*RES
1 *1669:Q *489:4 4.5 
2 *489:4 *489:8 1.872 
3 *489:8 *489:12 5.02 
4 *489:12 *1587:A1 10.352 
5 *489:12 *489:25 9.18 
6 *489:25 *489:37 9.596 
7 *489:37 *1448:A1 11.08 
8 *489:37 *489:50 1.352 
9 *489:50 *489:56 10.768 
10 *489:56 *1449:A2 10.144 
11 *489:56 *1456:A3 9.728 
12 *489:50 *1458:A3 9.52 
13 *489:25 *1447:A2 4.5 
14 *489:8 *1247:I 4.5 
15 *489:4 *1480:A2 15.164 
*END

*D_NET *490 0.0188312
*CONN
*I *1582:A1 I *D gf180mcu_fd_sc_mcu7t5v0__nor4_1
*I *1450:A4 I *D gf180mcu_fd_sc_mcu7t5v0__nand4_1
*I *1461:A4 I *D gf180mcu_fd_sc_mcu7t5v0__nand4_1
*I *1538:A1 I *D gf180mcu_fd_sc_mcu7t5v0__nand4_1
*I *1451:A1 I *D gf180mcu_fd_sc_mcu7t5v0__nand4_1
*I *1532:A1 I *D gf180mcu_fd_sc_mcu7t5v0__nand4_1
*I *1457:A3 I *D gf180mcu_fd_sc_mcu7t5v0__nand3_1
*I *1553:B1 I *D gf180mcu_fd_sc_mcu7t5v0__oai221_1
*I *1470:A2 I *D gf180mcu_fd_sc_mcu7t5v0__nor2_1
*I *1536:B1 I *D gf180mcu_fd_sc_mcu7t5v0__oai22_1
*I *1531:A1 I *D gf180mcu_fd_sc_mcu7t5v0__and4_1
*I *1459:A1 I *D gf180mcu_fd_sc_mcu7t5v0__nand4_1
*I *1246:I I *D gf180mcu_fd_sc_mcu7t5v0__clkinv_1
*I *1670:Q O *D gf180mcu_fd_sc_mcu7t5v0__dffq_1
*CAP
1 *1582:A1 0
2 *1450:A4 0
3 *1461:A4 0
4 *1538:A1 0
5 *1451:A1 0
6 *1532:A1 0.000117269
7 *1457:A3 0
8 *1553:B1 0.000236058
9 *1470:A2 0.000109818
10 *1536:B1 0.000271901
11 *1531:A1 0.000245641
12 *1459:A1 0
13 *1246:I 0
14 *1670:Q 0.000199688
15 *490:133 0.000235332
16 *490:129 0.000289994
17 *490:79 0.000554944
18 *490:77 0.000490139
19 *490:75 0.00044082
20 *490:50 0.00100976
21 *490:46 0.000788169
22 *490:38 0.000406817
23 *490:34 0.000370741
24 *490:25 0.000363629
25 *490:14 0.000438399
26 *490:8 0.000450464
27 *1470:A2 *563:44 1.18091e-06
28 *1536:B1 *1812:I 5.81596e-05
29 *490:8 *563:34 6.31717e-05
30 *490:46 *563:86 5.12047e-06
31 *490:50 *563:86 0.00021232
32 *1455:A1 *490:14 6.39739e-06
33 *1457:A1 *490:75 0.000103788
34 *1457:A2 *490:75 2.73939e-05
35 *1458:A2 *490:50 2.13255e-05
36 *1461:A3 *490:46 7.60927e-05
37 *1461:A3 *490:50 5.16573e-05
38 *1462:A3 *1531:A1 1.84386e-05
39 *1462:A3 *490:8 0
40 *1462:A3 *490:75 2.17229e-05
41 *1469:A1 *1531:A1 3.27312e-05
42 *1469:A1 *1553:B1 6.52292e-06
43 *1469:A1 *490:75 0.000215853
44 *1475:A1 *490:50 8.10302e-05
45 *1475:A2 *1553:B1 6.32895e-05
46 *1531:A2 *1531:A1 3.82231e-05
47 *1531:A4 *1531:A1 0.00016068
48 *1538:A3 *490:46 5.47431e-06
49 *1548:A3 *1532:A1 0.000182208
50 *1552:A1 *1531:A1 0.000176388
51 *1575:A4 *490:25 0.000155298
52 *1577:A1 *1553:B1 0.000121719
53 *1582:A4 *490:14 0.000688959
54 *1582:A4 *490:25 0.000250112
55 *1583:A3 *490:8 0.000316249
56 *123:34 *490:25 0.000114204
57 *125:8 *490:14 5.76031e-05
58 *125:8 *490:25 2.48961e-06
59 *134:12 *1553:B1 0.000108449
60 *292:33 *490:129 5.17988e-05
61 *300:42 *1532:A1 0.00064369
62 *300:42 *490:133 9.53277e-05
63 *300:59 *490:133 3.10787e-05
64 *300:70 *490:25 0.000391189
65 *301:10 *490:77 0.000190103
66 *301:10 *490:79 0.000394645
67 *303:31 *490:75 1.09921e-05
68 *303:31 *490:77 3.07228e-05
69 *307:12 *490:38 1.71326e-05
70 *316:10 *1470:A2 1.8056e-05
71 *356:82 *490:129 0.000188643
72 *356:113 *490:46 0.000171431
73 *356:113 *490:129 0.000151425
74 *375:8 *1532:A1 7.91532e-05
75 *375:8 *490:133 0.000325477
76 *385:12 *1470:A2 0.000500772
77 *385:12 *1536:B1 7.72481e-05
78 *403:26 *1531:A1 0.000480688
79 *411:10 *490:8 0.000160696
80 *411:10 *490:14 0.000109233
81 *422:45 *490:38 6.72756e-05
82 *422:45 *490:46 0.000113016
83 *480:24 *490:133 3.10787e-05
84 *483:57 *490:34 0.000372729
85 *483:57 *490:38 0.000156446
86 *483:57 *490:46 0.000105611
87 *485:62 *1536:B1 0.000355296
88 *485:62 *490:79 0.000230002
89 *485:73 *490:75 0.000194576
90 *485:73 *490:77 0.000365207
91 *485:73 *490:79 0.00053639
92 *486:94 *1470:A2 0.000113027
93 *486:109 *1470:A2 0.000237084
94 *486:109 *490:79 0
95 *487:36 *490:34 0.00103175
96 *487:36 *490:38 6.91919e-05
97 *487:52 *490:38 0.000235806
98 *487:52 *490:129 0
99 *487:54 *1532:A1 3.34073e-05
*RES
1 *1670:Q *490:8 6.372 
2 *490:8 *490:14 6.788 
3 *490:14 *1246:I 9 
4 *490:14 *490:25 6.684 
5 *490:25 *1459:A1 4.5 
6 *490:25 *490:34 3.12 
7 *490:34 *490:38 1.872 
8 *490:38 *490:46 6.684 
9 *490:46 *490:50 7.1 
10 *490:50 *1531:A1 15.684 
11 *490:50 *490:75 7.412 
12 *490:75 *490:77 1.144 
13 *490:77 *490:79 2.184 
14 *490:79 *1536:B1 11.288 
15 *490:79 *1470:A2 10.664 
16 *490:77 *1553:B1 10.768 
17 *490:75 *1457:A3 9 
18 *490:46 *490:129 14.852 
19 *490:129 *490:133 1.456 
20 *490:133 *1532:A1 6.268 
21 *490:133 *1451:A1 4.5 
22 *490:129 *1538:A1 4.5 
23 *490:38 *1461:A4 4.5 
24 *490:34 *1450:A4 4.5 
25 *490:8 *1582:A1 4.5 
*END

*D_NET *491 0.0316482
*CONN
*I *1356:A3 I *D gf180mcu_fd_sc_mcu7t5v0__nand4_1
*I *1377:A3 I *D gf180mcu_fd_sc_mcu7t5v0__nand4_1
*I *1361:A3 I *D gf180mcu_fd_sc_mcu7t5v0__nand4_1
*I *1351:A3 I *D gf180mcu_fd_sc_mcu7t5v0__nand4_1
*I *1346:A3 I *D gf180mcu_fd_sc_mcu7t5v0__nand4_1
*I *1367:A3 I *D gf180mcu_fd_sc_mcu7t5v0__and4_1
*I *1341:A3 I *D gf180mcu_fd_sc_mcu7t5v0__and4_1
*I *1372:A3 I *D gf180mcu_fd_sc_mcu7t5v0__nand4_1
*I *1779:Z O *D gf180mcu_fd_sc_mcu7t5v0__dlyb_1
*CAP
1 *1356:A3 0
2 *1377:A3 0.000274892
3 *1361:A3 0
4 *1351:A3 0
5 *1346:A3 0.000258025
6 *1367:A3 0.000122289
7 *1341:A3 0.000182631
8 *1372:A3 5.7038e-05
9 *1779:Z 0.0030667
10 *491:99 0.000539139
11 *491:85 0.000317221
12 *491:83 0.000420462
13 *491:70 0.000560597
14 *491:55 0.00115435
15 *491:49 0.000899968
16 *491:34 0.000682224
17 *491:30 0.00342235
18 *1341:A3 *1341:A2 7.32629e-05
19 *1341:A3 *580:10 0.000267182
20 *1346:A3 *1346:A2 0.00034363
21 *1346:A3 *1351:A4 0.000259355
22 *1346:A3 *1644:A2 4.44654e-05
23 *1346:A3 *577:133 5.57504e-05
24 *1367:A3 *1367:A2 4.67771e-06
25 *1367:A3 *1367:A4 3.3221e-05
26 *1367:A3 *1644:A2 0
27 *1372:A3 *1372:A4 4.97811e-05
28 *1377:A3 *1627:A3 0.000157375
29 *1377:A3 *1634:A1 1.02177e-06
30 *1377:A3 *577:140 8.56628e-05
31 *1377:A3 *577:147 0.000346903
32 *491:30 *1270:I 7.84162e-05
33 *491:30 *1315:B2 0.000407688
34 *491:30 *1415:A2 9.37307e-05
35 *491:30 *1628:B2 0.000694775
36 *491:30 *1764:I 1.91441e-05
37 *491:30 *1768:I 0.000419265
38 *491:30 *1773:I 0.000103788
39 *491:30 *1810:I 0
40 *491:34 *1628:B2 0.00214975
41 *491:34 *1802:I 4.44448e-05
42 *491:34 *492:251 6.50266e-05
43 *491:49 *1372:A2 0.000137143
44 *491:49 *1628:B2 0.00031493
45 *491:49 *1802:I 9.83209e-05
46 *491:55 *1372:A2 3.22108e-05
47 *491:55 *1439:A3 0.000123552
48 *491:55 *577:61 4.18042e-05
49 *491:55 *577:63 0.00011246
50 *491:55 *579:12 9.06381e-05
51 *491:70 *1644:A2 0.000605853
52 *491:70 *579:12 0.000335939
53 *491:83 *1644:A2 0.000656432
54 *491:85 *1644:A2 9.35542e-06
55 *491:85 *577:133 1.07369e-05
56 *491:85 *577:140 5.57504e-05
57 *491:99 *577:140 0.000298703
58 DAT_O[0] *491:49 0.000113236
59 DAT_O[3] *491:30 0.000450162
60 DAT_O[6] *491:30 0
61 *1312:A1 *491:30 1.32276e-05
62 *1312:A2 *491:30 0.000443953
63 *1318:A2 *491:30 5.64031e-06
64 *1341:A1 *1341:A3 1.57479e-05
65 *1343:A1 *491:34 8.35178e-06
66 *1343:B1 *491:30 0.000928053
67 *1347:B *1346:A3 0.000106908
68 *1347:B *1372:A3 0.000167974
69 *1357:B *491:49 0.000185295
70 *1357:B *491:55 0.000501487
71 *1359:A1 *491:30 1.23682e-05
72 *1363:S *491:30 0.000183157
73 *1366:C *491:30 0.000176038
74 *1369:B2 *491:30 0.000311611
75 *1428:A1 *491:55 0.00156716
76 *1708:D *491:30 2.04848e-05
77 *1709:D *491:34 0.000338455
78 *1709:CLK *491:30 0.000386149
79 *1710:D *491:30 4.18042e-05
80 *1710:CLK *491:30 0.000880071
81 *1786:I *491:70 0.000196333
82 *1786:I *491:83 0.000150852
83 *1789:I *491:49 2.76356e-05
84 *140:22 *491:49 0.00031757
85 *140:101 *1341:A3 4.25523e-05
86 *140:101 *491:55 0.000880688
87 *140:101 *491:70 0.000134488
88 *140:125 *491:83 9.76261e-05
89 *176:20 *491:30 0.00026679
90 *176:41 *491:30 0.000968489
91 *180:27 *491:30 1.83435e-05
92 *208:27 *491:30 0.000196087
93 *222:28 *491:55 0.000206534
94 *230:26 *491:34 0.000260884
95 *461:8 *491:30 0.000337769
96 *478:40 *491:30 5.47431e-06
97 *478:51 *491:30 2.73715e-06
98 *478:60 *491:30 0
*RES
1 *1779:Z *491:30 49.852 
2 *491:30 *491:34 10.428 
3 *491:34 *1372:A3 9.52 
4 *491:34 *491:49 7.62 
5 *491:49 *491:55 13.444 
6 *491:55 *1341:A3 10.976 
7 *491:55 *491:70 4.888 
8 *491:70 *1367:A3 9.728 
9 *491:70 *491:83 6.892 
10 *491:83 *491:85 0.52 
11 *491:85 *1346:A3 7.516 
12 *491:85 *1351:A3 4.5 
13 *491:83 *491:99 2.184 
14 *491:99 *1361:A3 4.5 
15 *491:99 *1377:A3 7.516 
16 *491:49 *1356:A3 4.5 
*END

*D_NET *492 0.135077
*CONN
*I *1438:C I *D gf180mcu_fd_sc_mcu7t5v0__aoi211_1
*I *1635:A1 I *D gf180mcu_fd_sc_mcu7t5v0__nor2_1
*I *1639:A1 I *D gf180mcu_fd_sc_mcu7t5v0__nor2_1
*I *1643:A1 I *D gf180mcu_fd_sc_mcu7t5v0__nor2_1
*I *1631:A1 I *D gf180mcu_fd_sc_mcu7t5v0__nor2_1
*I *1633:A1 I *D gf180mcu_fd_sc_mcu7t5v0__nor2_1
*I *1629:A1 I *D gf180mcu_fd_sc_mcu7t5v0__nor2_1
*I *1436:B2 I *D gf180mcu_fd_sc_mcu7t5v0__oai33_1
*I *1435:A2 I *D gf180mcu_fd_sc_mcu7t5v0__nor2_1
*I *1647:A1 I *D gf180mcu_fd_sc_mcu7t5v0__nor2_1
*I *1641:A1 I *D gf180mcu_fd_sc_mcu7t5v0__nor2_1
*I *1637:A1 I *D gf180mcu_fd_sc_mcu7t5v0__nor2_1
*I *1265:I I *D gf180mcu_fd_sc_mcu7t5v0__clkinv_1
*I *1608:A2 I *D gf180mcu_fd_sc_mcu7t5v0__nor2_1
*I *1476:B I *D gf180mcu_fd_sc_mcu7t5v0__aoi21_1
*I *1431:A2 I *D gf180mcu_fd_sc_mcu7t5v0__nor2_1
*I *1440:B I *D gf180mcu_fd_sc_mcu7t5v0__aoi21_1
*I *1622:A1 I *D gf180mcu_fd_sc_mcu7t5v0__nor2_1
*I *1624:A1 I *D gf180mcu_fd_sc_mcu7t5v0__nor2_1
*I *1616:A1 I *D gf180mcu_fd_sc_mcu7t5v0__nor2_1
*I *1618:A1 I *D gf180mcu_fd_sc_mcu7t5v0__nor2_1
*I *1614:A1 I *D gf180mcu_fd_sc_mcu7t5v0__nor2_1
*I *1434:A3 I *D gf180mcu_fd_sc_mcu7t5v0__oai32_1
*I *1545:A1 I *D gf180mcu_fd_sc_mcu7t5v0__nor4_1
*I *1514:A1 I *D gf180mcu_fd_sc_mcu7t5v0__nor3_1
*I *1607:A2 I *D gf180mcu_fd_sc_mcu7t5v0__nor2_1
*I *1547:C I *D gf180mcu_fd_sc_mcu7t5v0__aoi211_1
*I *1645:B I *D gf180mcu_fd_sc_mcu7t5v0__aoi21_1
*I *1626:A1 I *D gf180mcu_fd_sc_mcu7t5v0__nor2_1
*I *1612:A1 I *D gf180mcu_fd_sc_mcu7t5v0__nor2_1
*I *1620:A1 I *D gf180mcu_fd_sc_mcu7t5v0__nor2_1
*I *1780:Z O *D gf180mcu_fd_sc_mcu7t5v0__dlyb_1
*CAP
1 *1438:C 0.000214356
2 *1635:A1 0.00108526
3 *1639:A1 3.43991e-05
4 *1643:A1 0.000590142
5 *1631:A1 2.44118e-05
6 *1633:A1 0
7 *1629:A1 0
8 *1436:B2 0.000244862
9 *1435:A2 0.000213983
10 *1647:A1 0
11 *1641:A1 8.43973e-05
12 *1637:A1 0.000185393
13 *1265:I 0
14 *1608:A2 0.00109875
15 *1476:B 0.000837885
16 *1431:A2 0
17 *1440:B 6.92441e-05
18 *1622:A1 0.000101106
19 *1624:A1 0
20 *1616:A1 0
21 *1618:A1 0
22 *1614:A1 0.000208369
23 *1434:A3 0.00237253
24 *1545:A1 0.00018792
25 *1514:A1 3.81846e-05
26 *1607:A2 0.0019307
27 *1547:C 0.000133642
28 *1645:B 0.000556842
29 *1626:A1 0.000140027
30 *1612:A1 7.78588e-05
31 *1620:A1 0
32 *1780:Z 0
33 *492:465 0.0019772
34 *492:446 0.00155009
35 *492:442 0.0013426
36 *492:435 0.000803342
37 *492:412 0.00134528
38 *492:362 0.000202921
39 *492:339 0.00137337
40 *492:324 0.0013196
41 *492:307 0.00286826
42 *492:282 0.00425348
43 *492:263 0.00217785
44 *492:257 0.000740094
45 *492:251 0.00156761
46 *492:249 0.00186296
47 *492:232 0.00033391
48 *492:228 0.0013994
49 *492:205 0.00121058
50 *492:198 0.00108349
51 *492:171 0.00127261
52 *492:145 0.000564623
53 *492:87 0.00220608
54 *492:83 0.000761818
55 *492:72 0.00126846
56 *492:64 0.0035839
57 *492:62 0.000818273
58 *492:60 0.000702967
59 *492:32 0.000997934
60 *492:23 0.00127407
61 *492:10 0.00114274
62 *492:4 0.000682044
63 *1434:A3 *1279:A2 0.000155257
64 *1434:A3 *1383:A4 1.41697e-05
65 *1434:A3 *552:36 0.000178346
66 *1434:A3 *561:21 0
67 *1434:A3 *581:14 6.18411e-06
68 *1435:A2 *1757:I 0.000194522
69 *1436:B2 *504:26 0.00025706
70 *1438:C *1372:A4 0.000103788
71 *1438:C *578:18 0.000406476
72 *1440:B *578:18 2.76367e-05
73 *1608:A2 *1273:A2 0
74 *1608:A2 *1756:I 3.53699e-06
75 *1608:A2 *522:14 0.00141027
76 *1635:A1 *1526:S 2.17376e-05
77 *1635:A1 *1630:B2 0.000308288
78 *1635:A1 *1632:A1 8.43039e-05
79 *1635:A1 *1632:B2 2.57742e-05
80 *1635:A1 *554:34 0.00022194
81 *1635:A1 *555:49 0.000102348
82 *1635:A1 *559:28 0.000509916
83 *1637:A1 *1302:A1 0.000169863
84 *1639:A1 *1811:I 0
85 *1641:A1 *1302:A1 0.000324146
86 *1641:A1 *1525:I1 0.000257114
87 *1643:A1 *1640:A1 6.32931e-05
88 *492:32 *1613:B2 0.00049943
89 *492:32 *1794:I 0.000153764
90 *492:228 *1420:A2 2.46717e-05
91 *492:251 *1628:B2 1.85702e-06
92 *492:251 *1757:I 7.28631e-05
93 *492:251 *577:59 3.20057e-06
94 *492:257 *1757:I 2.76472e-05
95 *492:282 *1245:I 0
96 *492:282 *1523:A1 0.000118427
97 *492:282 *553:12 0
98 *492:307 *1756:I 0.00076409
99 *492:339 *1523:A1 7.79968e-05
100 *492:339 *556:69 6.96644e-06
101 *492:362 *1302:A1 0.000151378
102 *492:362 *1525:I1 0.000263703
103 *492:362 *556:69 4.14216e-06
104 *492:412 *1367:A4 0.000534077
105 *492:435 *1477:I0 0.000445658
106 *492:435 *1632:B2 1.78817e-06
107 *492:435 *1772:I 0.000122486
108 *492:435 *1775:I 8.51312e-06
109 *492:442 *1632:B2 2.12509e-05
110 *492:442 *559:28 9.95226e-05
111 *492:465 *1376:A1 0.000714013
112 *492:465 *1376:B2 6.63657e-05
113 *492:465 *1634:A1 0.000462095
114 *492:465 *1640:A1 0
115 ADDR_O[0] *492:23 2.96915e-06
116 ADDR_O[3] *1612:A1 5.10196e-05
117 ADDR_O[3] *1645:B 0.000391582
118 ADDR_O[3] *492:32 0.000252407
119 DAT_O[1] *1631:A1 9.76253e-05
120 DAT_O[2] *492:465 0.000101836
121 DAT_O[4] *1635:A1 4.49307e-05
122 WE_O *1643:A1 2.62781e-05
123 WE_O *492:465 5.47431e-06
124 *1279:A1 *1434:A3 0.000188577
125 *1281:I *492:251 3.25001e-05
126 *1283:A1 *492:412 0.000514298
127 *1292:A3 *492:362 0.000259996
128 *1296:A2 *1637:A1 0.000110334
129 *1297:A2 *492:339 0.000952953
130 *1297:A2 *492:362 0.000159412
131 *1309:A1 *492:198 3.99118e-05
132 *1316:A1 *492:251 0.000379422
133 *1322:A1 *492:251 9.59778e-05
134 *1324:A1 *1438:C 0.000406476
135 *1331:A2 *1434:A3 6.59906e-06
136 *1342:C *492:251 4.04718e-05
137 *1342:C *492:412 9.95822e-05
138 *1343:A1 *492:251 0.000428914
139 *1347:B *1438:C 2.50972e-05
140 *1352:A1 *492:446 0.00219212
141 *1352:A1 *492:465 0.000251178
142 *1358:S *492:435 9.39621e-05
143 *1358:S *492:442 4.30827e-05
144 *1376:A2 *1635:A1 0.000887221
145 *1376:B1 *492:465 0.00382487
146 *1378:A1 *1635:A1 0.000363206
147 *1378:A2 *492:465 0.00164688
148 *1380:A2 *1622:A1 0.000140475
149 *1390:A3 *492:228 9.35119e-07
150 *1395:B1 *492:72 9.423e-05
151 *1395:B2 *492:263 0.000203739
152 *1395:B2 *492:282 0.000219289
153 *1398:A1 *1434:A3 0.00027784
154 *1398:A1 *1435:A2 0
155 *1398:A1 *492:263 6.53438e-05
156 *1398:A1 *492:282 0.00134631
157 *1399:A2 *492:64 0.00016503
158 *1406:A1 *492:228 0.000169331
159 *1407:B *492:198 0.000322586
160 *1407:B *492:205 1.91996e-05
161 *1407:B *492:228 7.50338e-05
162 *1411:A1 *492:10 5.61634e-05
163 *1411:A1 *492:60 5.97123e-05
164 *1411:A2 *492:60 4.42682e-06
165 *1412:A2 *492:171 0.000173963
166 *1412:A2 *492:198 0.000148844
167 *1412:B1 *492:171 2.81789e-05
168 *1412:B1 *492:198 3.06164e-05
169 *1424:A2 *492:228 3.12437e-05
170 *1425:A3 *492:228 0.000137856
171 *1428:A1 *492:412 0
172 *1430:A1 *1438:C 0.000180091
173 *1430:A2 *1440:B 0.000425993
174 *1431:A1 *1435:A2 5.13239e-06
175 *1434:B1 *1434:A3 3.35189e-05
176 *1435:A1 *1435:A2 8.1598e-06
177 *1436:B3 *1436:B2 0.000256311
178 *1437:A1 *1438:C 0.000194511
179 *1446:I *1514:A1 3.38219e-05
180 *1460:A1 *492:282 0.000265804
181 *1479:A1 *492:282 0.000324227
182 *1479:A2 *492:282 0
183 *1480:A2 *492:282 6.22117e-05
184 *1483:A2 *492:339 0.000962784
185 *1489:A2 *492:339 0.00133112
186 *1492:A2 *492:339 0
187 *1503:B1 *492:339 3.44395e-05
188 *1504:A1 *492:339 0.00102472
189 *1507:A1 *1476:B 1.89164e-05
190 *1508:A1 *1476:B 8.4278e-05
191 *1510:A1 *1476:B 0.000204826
192 *1514:A3 *492:87 0.000251289
193 *1521:S *1635:A1 5.19976e-05
194 *1521:S *492:446 0.000168226
195 *1547:A1 *492:72 0.000136616
196 *1547:B *1547:C 0.000265501
197 *1547:B *492:83 0.000768675
198 *1547:B *492:87 0.000115377
199 *1562:A2 *1607:A2 0.000370537
200 *1569:B *1607:A2 4.66799e-05
201 *1570:A2 *1607:A2 9.89533e-06
202 *1577:A2 *1476:B 5.12047e-06
203 *1585:A1 *1476:B 0.000141529
204 *1595:A4 *1607:A2 0.000388746
205 *1602:I1 *492:324 2.20593e-05
206 *1602:I1 *492:339 3.14958e-05
207 *1604:I0 *492:339 0.000414596
208 *1608:A1 *1608:A2 0
209 *1610:A1 *492:228 4.11484e-05
210 *1612:A2 *492:198 0
211 *1613:A1 *492:10 0
212 *1613:A1 *492:23 0.000246059
213 *1613:A1 *492:32 4.63309e-05
214 *1613:B1 *492:23 0.000241241
215 *1615:A2 *1612:A1 7.28333e-07
216 *1615:A2 *492:32 1.92369e-05
217 *1616:A2 *492:23 0.000168457
218 *1618:A2 *492:60 0.000513371
219 *1618:A2 *492:62 6.8763e-06
220 *1618:A2 *492:145 6.62609e-05
221 *1620:A2 *492:23 0.000504068
222 *1624:A2 *492:228 5.89482e-05
223 *1626:A2 *1645:B 0.000589979
224 *1628:B1 *492:435 0
225 *1633:A2 *492:435 3.22786e-06
226 *1639:A2 *492:465 1.23682e-05
227 *1640:A2 *492:465 4.11062e-06
228 *1649:A2 *492:282 0.000776202
229 *1655:D *1635:A1 6.30323e-05
230 *1663:D *1545:A1 7.44974e-05
231 *1674:D *1608:A2 0
232 *1674:D *492:307 0.000763013
233 *1674:CLK *492:307 0.000134086
234 *1676:D *492:339 0
235 *1678:CLK *492:339 0.000907641
236 *1681:D *1608:A2 0.000591484
237 *1683:D *1612:A1 9.7618e-05
238 *1683:D *492:23 0.00266062
239 *1685:D *492:171 0.000486586
240 *1686:D *492:10 0.000173585
241 *1686:D *492:23 6.40609e-05
242 *1686:D *492:145 0.000159517
243 *1689:D *492:228 0.000254943
244 *1691:D *492:412 0.000182695
245 *1691:D *492:435 0.000445032
246 *1692:D *1631:A1 9.76253e-05
247 *1693:D *492:446 1.02907e-05
248 *1693:D *492:465 0.000691626
249 *1694:D *1635:A1 0.00159871
250 *1695:D *492:465 4.18042e-05
251 *1696:D *492:465 5.00828e-05
252 *1698:D *1643:A1 1.71326e-05
253 *1700:D *492:362 0.000116466
254 *1701:D *492:282 2.71548e-05
255 *1709:D *492:251 9.67916e-05
256 *1712:D *492:435 0.000108453
257 *1720:CLK *492:10 0
258 *1721:D *1614:A1 0
259 *1721:CLK *492:145 0.000582256
260 *1725:D *1434:A3 0.000143493
261 *1726:D *1436:B2 2.76472e-05
262 *1729:D *492:263 3.4596e-05
263 *1730:D *1435:A2 0.000117701
264 *1730:D *492:251 5.35424e-05
265 *1730:D *492:257 0.000311706
266 *1731:D *1608:A2 4.22072e-05
267 *1738:I *492:251 0.000203533
268 *1742:I *492:282 4.58667e-05
269 *1758:I *1607:A2 4.64946e-05
270 *1780:I *492:23 0.000819201
271 *1790:I *492:435 2.24654e-05
272 *10:18 *492:145 0.000162588
273 *122:28 *492:282 7.41397e-05
274 *122:38 *1435:A2 0
275 *122:38 *492:263 1.41447e-05
276 *124:14 *492:282 0.000496345
277 *128:29 *1547:C 0
278 *128:29 *492:83 0
279 *129:10 *492:257 5.93571e-05
280 *129:10 *492:263 6.17457e-05
281 *131:31 *1434:A3 0
282 *131:31 *492:62 4.85342e-05
283 *131:31 *492:64 0.000425046
284 *133:10 *1608:A2 0
285 *140:22 *492:412 0.000221466
286 *140:66 *492:228 0.000739625
287 *140:72 *492:228 0.000103788
288 *141:37 *1440:B 0.000179413
289 *141:37 *492:232 9.7618e-05
290 *141:37 *492:249 0.000641985
291 *142:14 *492:324 0.000729296
292 *142:147 *1436:B2 0.000366914
293 *142:180 *492:72 0
294 *143:46 *1434:A3 1.57245e-05
295 *149:10 *1622:A1 0.000605863
296 *150:59 *492:251 0.000438808
297 *154:31 *1436:B2 0.000707775
298 *154:35 *492:251 8.35178e-06
299 *157:8 *492:228 0.00183151
300 *157:8 *492:232 7.46298e-05
301 *157:8 *492:249 0.000222291
302 *157:16 *492:228 0.000123111
303 *158:36 *1637:A1 0.00021475
304 *179:49 *492:251 1.16405e-05
305 *190:10 *492:251 8.86098e-05
306 *204:12 *492:228 0.000334595
307 *207:12 *1440:B 0.00016681
308 *207:12 *492:228 8.2643e-05
309 *207:12 *492:232 4.29477e-05
310 *208:96 *1635:A1 0.000141715
311 *222:28 *492:412 0.000251886
312 *222:28 *492:435 0.00106225
313 *225:10 *492:412 0.000585091
314 *230:26 *492:251 0.000143482
315 *230:26 *492:412 0.000742306
316 *241:12 *492:228 0.000113027
317 *241:23 *492:228 0.000194511
318 *242:8 *492:198 3.57638e-05
319 *242:8 *492:205 3.57634e-06
320 *242:8 *492:228 8.05889e-05
321 *242:12 *492:198 0.000107437
322 *242:32 *492:198 3.03313e-06
323 *249:10 *492:64 5.16082e-05
324 *249:10 *492:72 0.000112058
325 *250:18 *492:228 0.000176056
326 *250:38 *492:10 0
327 *250:38 *492:60 9.96348e-05
328 *250:40 *492:60 0.0013346
329 *250:40 *492:62 0.000231614
330 *250:40 *492:64 0.00279562
331 *250:40 *492:72 0.000353103
332 *257:10 *492:198 0.000373503
333 *279:67 *1626:A1 0.000118494
334 *279:67 *1645:B 2.30577e-05
335 *279:67 *492:32 6.89962e-05
336 *280:18 *492:435 0
337 *282:12 *1436:B2 0.000206375
338 *282:12 *492:251 0
339 *288:34 *1514:A1 3.38219e-05
340 *290:10 *1545:A1 9.76253e-05
341 *290:10 *492:83 6.32525e-05
342 *290:10 *492:87 0.00029102
343 *322:10 *1476:B 0.000260432
344 *323:30 *492:282 0.000784291
345 *329:10 *492:339 0.000427061
346 *352:8 *1476:B 0.00260157
347 *359:62 *492:282 0.000182068
348 *361:36 *492:282 0
349 *422:14 *1607:A2 5.64714e-05
350 *425:79 *492:446 0.000962298
351 *425:96 *492:446 0.000505222
352 *425:96 *492:465 0.000223462
353 *425:144 *1643:A1 0
354 *425:144 *492:465 0.000103651
355 *434:20 *492:435 0
356 *434:61 *492:465 0.000157936
357 *434:74 *492:465 4.50321e-05
358 *434:108 *1643:A1 0
359 *434:108 *492:465 0.000846571
360 *448:27 *1434:A3 0.000100724
361 *448:82 *492:198 1.72208e-05
362 *449:89 *492:198 5.38485e-05
363 *450:64 *492:198 4.0521e-05
364 *451:10 *492:10 0.000192488
365 *451:10 *492:60 0.000209225
366 *463:16 *1607:A2 0.000515447
367 *466:12 *1608:A2 0
368 *466:12 *492:324 0
369 *466:25 *492:307 0.000242044
370 *467:12 *492:339 0
371 *468:12 *492:339 4.12549e-05
372 *468:28 *492:339 4.69205e-05
373 *471:11 *492:263 0
374 *471:19 *492:282 0
375 *471:72 *492:251 0
376 *473:20 *1545:A1 0.000591484
377 *473:24 *1545:A1 2.73309e-05
378 *473:24 *1547:C 2.39167e-05
379 *474:122 *1608:A2 1.25606e-05
380 *474:130 *1608:A2 0.000184453
381 *474:153 *1608:A2 0.000111711
382 *474:153 *492:307 0.000109974
383 *474:161 *1608:A2 2.86784e-05
384 *474:161 *492:324 0.00014873
385 *474:161 *492:339 2.36218e-05
386 *475:10 *492:282 0.000195671
387 *475:39 *492:282 5.66022e-05
388 *479:32 *1635:A1 8.3098e-05
389 *479:63 *492:465 2.83369e-05
390 *479:72 *492:465 2.46717e-05
391 *483:57 *1608:A2 0
392 *484:27 *1607:A2 5.56781e-06
393 *484:33 *1607:A2 0.000200109
394 *484:52 *1607:A2 0.000123598
395 *484:65 *1607:A2 0.000194744
396 *484:78 *1607:A2 9.99253e-06
397 *484:78 *492:87 0.000122308
398 *485:28 *1607:A2 1.58308e-05
399 *486:12 *1607:A2 8.52913e-05
400 *491:34 *492:251 6.50266e-05
*RES
1 *1780:Z *492:4 4.5 
2 *492:4 *492:10 7.412 
3 *492:10 *1620:A1 9 
4 *492:10 *492:23 18.228 
5 *492:23 *1612:A1 5.02 
6 *492:23 *492:32 3.64 
7 *492:32 *1626:A1 6.06 
8 *492:32 *1645:B 10.22 
9 *492:4 *492:60 9.908 
10 *492:60 *492:62 0.728 
11 *492:62 *492:64 7.592 
12 *492:64 *492:72 11.468 
13 *492:72 *1547:C 5.644 
14 *492:72 *492:83 3.12 
15 *492:83 *492:87 6.892 
16 *492:87 *1607:A2 23.248 
17 *492:87 *1514:A1 9.312 
18 *492:83 *1545:A1 7.1 
19 *492:64 *1434:A3 32.872 
20 *492:62 *492:145 8.348 
21 *492:145 *1614:A1 6.476 
22 *492:145 *1618:A1 4.5 
23 *492:60 *492:171 15.372 
24 *492:171 *1616:A1 4.5 
25 *492:171 *492:198 25.592 
26 *492:198 *1624:A1 4.5 
27 *492:198 *492:205 0.312 
28 *492:205 *1622:A1 15.06 
29 *492:205 *492:228 12.688 
30 *492:228 *492:232 1.04 
31 *492:232 *1440:B 14.748 
32 *492:232 *492:249 6.476 
33 *492:249 *492:251 9.672 
34 *492:251 *492:257 2.392 
35 *492:257 *492:263 6.996 
36 *492:263 *1431:A2 4.5 
37 *492:263 *492:282 28.24 
38 *492:282 *1476:B 22.444 
39 *492:282 *492:307 22.312 
40 *492:307 *1608:A2 24.42 
41 *492:307 *492:324 2.808 
42 *492:324 *1265:I 4.5 
43 *492:324 *492:339 20.308 
44 *492:339 *1637:A1 11.184 
45 *492:339 *492:362 6.58 
46 *492:362 *1641:A1 5.748 
47 *492:362 *1647:A1 4.5 
48 *492:257 *1435:A2 10.872 
49 *492:251 *1436:B2 21.952 
50 *492:249 *492:412 13.652 
51 *492:412 *1629:A1 4.5 
52 *492:412 *492:435 24.76 
53 *492:435 *1633:A1 4.5 
54 *492:435 *492:442 0.728 
55 *492:442 *492:446 10.428 
56 *492:446 *1631:A1 9.312 
57 *492:446 *492:465 24.052 
58 *492:465 *1643:A1 17.764 
59 *492:465 *1639:A1 4.812 
60 *492:442 *1635:A1 34.564 
61 *492:228 *1438:C 16.204 
*END

*D_NET *493 0.00117665
*CONN
*I *1733:D I *D gf180mcu_fd_sc_mcu7t5v0__dffq_1
*I *1781:Z O *D gf180mcu_fd_sc_mcu7t5v0__dlyb_1
*CAP
1 *1733:D 0.000545275
2 *1781:Z 0.000545275
3 *1733:D *1734:D 8.6099e-05
*RES
1 *1781:Z *1733:D 21.952 
*END

*D_NET *494 0.00153901
*CONN
*I *1735:D I *D gf180mcu_fd_sc_mcu7t5v0__dffq_1
*I *1782:Z O *D gf180mcu_fd_sc_mcu7t5v0__dlyb_1
*CAP
1 *1735:D 0.000743054
2 *1782:Z 0.000743054
3 *1735:D *1736:D 0
4 *1665:D *1735:D 0
5 *1680:D *1735:D 0
6 *1735:CLK *1735:D 0
7 *1782:I *1735:D 5.29054e-05
*RES
1 *1782:Z *1735:D 14.096 
*END

*D_NET *495 0.00504425
*CONN
*I *1611:B2 I *D gf180mcu_fd_sc_mcu7t5v0__aoi22_1
*I *1793:I I *D gf180mcu_fd_sc_mcu7t5v0__dlyb_1
*I *1683:Q O *D gf180mcu_fd_sc_mcu7t5v0__dffq_1
*CAP
1 *1611:B2 0.00068736
2 *1793:I 0.000238398
3 *1683:Q 0
4 *495:4 0.000925758
5 *1611:B2 *1794:I 0.000199988
6 *1409:A4 *1611:B2 0.000403153
7 *1414:A2 *1611:B2 0
8 *1620:A2 *1793:I 1.4887e-05
9 *1687:D *1611:B2 0.000130774
10 *1687:D *1793:I 5.47431e-06
11 *1780:I *1793:I 0.000113146
12 *250:32 *1611:B2 7.05624e-05
13 *262:20 *1611:B2 2.55666e-05
14 *269:14 *1611:B2 7.58199e-05
15 *448:82 *1611:B2 0.000669032
16 *449:89 *1611:B2 3.86911e-05
17 *450:8 *1611:B2 0.00046386
18 *450:8 *1793:I 9.87922e-05
19 *450:10 *1611:B2 0.000201728
20 *450:21 *1611:B2 0.000494463
21 *451:21 *1611:B2 0.000154581
22 *451:36 *1611:B2 3.22108e-05
*RES
1 *1683:Q *495:4 4.5 
2 *495:4 *1793:I 6.58 
3 *495:4 *1611:B2 21.404 
*END

*D_NET *496 0.00738801
*CONN
*I *1794:I I *D gf180mcu_fd_sc_mcu7t5v0__dlyb_1
*I *1613:B2 I *D gf180mcu_fd_sc_mcu7t5v0__aoi22_1
*I *1684:Q O *D gf180mcu_fd_sc_mcu7t5v0__dffq_1
*CAP
1 *1794:I 0.000556267
2 *1613:B2 3.08135e-05
3 *1684:Q 0
4 *496:4 0.00058708
5 *1794:I *1617:B2 0.00165639
6 ADDR_O[0] *1794:I 7.13956e-05
7 ADDR_O[1] *1794:I 0.00102442
8 ADDR_O[3] *1613:B2 0.00049943
9 ADDR_O[3] *1794:I 0.000194511
10 *1611:B2 *1794:I 0.000199988
11 *1615:A1 *1794:I 0.000186951
12 *1617:A1 *1794:I 0.00127404
13 *1618:A2 *1794:I 3.646e-05
14 *1687:D *1794:I 0.000145317
15 *450:10 *1794:I 0.000271753
16 *492:32 *1613:B2 0.00049943
17 *492:32 *1794:I 0.000153764
*RES
1 *1684:Q *496:4 4.5 
2 *496:4 *1613:B2 5.852 
3 *496:4 *1794:I 25.98 
*END

*D_NET *497 0.0110839
*CONN
*I *1795:I I *D gf180mcu_fd_sc_mcu7t5v0__dlyb_1
*I *1615:B2 I *D gf180mcu_fd_sc_mcu7t5v0__aoi22_1
*I *1685:Q O *D gf180mcu_fd_sc_mcu7t5v0__dffq_1
*CAP
1 *1795:I 0.000666256
2 *1615:B2 0
3 *1685:Q 0.000318504
4 *497:12 0.00098476
5 *1795:I *1617:B2 0.00018039
6 *1795:I *1797:I 0.00226161
7 *1795:I *1798:I 4.88414e-05
8 *1795:I *499:10 3.55503e-05
9 *497:12 *1617:B2 3.07551e-05
10 *497:12 *1796:I 8.8776e-05
11 ADDR_O[5] *1795:I 0.00157658
12 *1418:A3 *1795:I 0.000292328
13 *1423:A1 *1795:I 0.000523382
14 *1426:A1 *1795:I 0.00052233
15 *1615:A2 *1795:I 1.36398e-06
16 *1615:B1 *1795:I 0.00010357
17 *1617:B1 *1795:I 3.646e-05
18 *1780:I *497:12 0.000513523
19 *1783:I *1795:I 0.000699415
20 *10:18 *497:12 0
21 *279:18 *1795:I 9.36285e-06
22 *279:67 *1795:I 0.00128999
23 *425:174 *1795:I 0.000122322
24 *425:196 *1795:I 0.000311108
25 *425:204 *1795:I 0.000466691
*RES
1 *1685:Q *497:12 16.412 
2 *497:12 *1615:B2 4.5 
3 *497:12 *1795:I 28.892 
*END

*D_NET *498 0.00487886
*CONN
*I *1617:B2 I *D gf180mcu_fd_sc_mcu7t5v0__aoi22_1
*I *1796:I I *D gf180mcu_fd_sc_mcu7t5v0__dlyb_1
*I *1686:Q O *D gf180mcu_fd_sc_mcu7t5v0__dffq_1
*CAP
1 *1617:B2 0.000506916
2 *1796:I 0.000295248
3 *1686:Q 0
4 *498:4 0.000802164
5 *1617:B2 *1798:I 0.000628535
6 *1615:A1 *1617:B2 0.000689686
7 *1615:A2 *1617:B2 0
8 *1794:I *1617:B2 0.00165639
9 *1795:I *1617:B2 0.00018039
10 *497:12 *1617:B2 3.07551e-05
11 *497:12 *1796:I 8.8776e-05
*RES
1 *1686:Q *498:4 4.5 
2 *498:4 *1796:I 6.788 
3 *498:4 *1617:B2 20.988 
*END

*D_NET *499 0.0110907
*CONN
*I *1619:B2 I *D gf180mcu_fd_sc_mcu7t5v0__aoi22_1
*I *1797:I I *D gf180mcu_fd_sc_mcu7t5v0__dlyb_1
*I *1687:Q O *D gf180mcu_fd_sc_mcu7t5v0__dffq_1
*CAP
1 *1619:B2 0
2 *1797:I 0.000645509
3 *1687:Q 0.000329619
4 *499:10 0.000975128
5 *1797:I *1799:I 7.11701e-05
6 ADDR_O[2] *1797:I 0.000454422
7 ADDR_O[2] *499:10 0.00224217
8 *1275:A1 *1797:I 0.000138384
9 *1418:A3 *1797:I 8.06159e-05
10 *1722:D *1797:I 1.606e-06
11 *1795:I *1797:I 0.00226161
12 *1795:I *499:10 3.55503e-05
13 *149:10 *1797:I 0.000158512
14 *262:20 *1797:I 6.8763e-06
15 *279:67 *499:10 0.00173154
16 *452:14 *1797:I 0.00049821
17 *454:14 *1797:I 1.78817e-06
18 *476:61 *1797:I 0.00145798
*RES
1 *1687:Q *499:10 15.656 
2 *499:10 *1797:I 19.608 
3 *499:10 *1619:B2 9 
*END

*D_NET *500 0.00552181
*CONN
*I *1621:B2 I *D gf180mcu_fd_sc_mcu7t5v0__aoi22_1
*I *1798:I I *D gf180mcu_fd_sc_mcu7t5v0__dlyb_1
*I *1688:Q O *D gf180mcu_fd_sc_mcu7t5v0__dffq_1
*CAP
1 *1621:B2 0
2 *1798:I 0.000850382
3 *1688:Q 0.000455814
4 *500:12 0.0013062
5 *500:12 *1644:B 0
6 ADDR_O[4] *500:12 0.00125178
7 *1422:B *1798:I 0.000284044
8 *1422:B *500:12 0.00019377
9 *1617:B2 *1798:I 0.000628535
10 *1621:A1 *1798:I 2.89188e-05
11 *1621:B1 *1798:I 0.000178559
12 *1622:A2 *500:12 2.90389e-05
13 *1644:A1 *500:12 2.64992e-05
14 *1687:D *1798:I 0.000119703
15 *1723:D *500:12 4.18157e-05
16 *1723:CLK *500:12 0
17 *1783:I *1798:I 7.79073e-05
18 *1795:I *1798:I 4.88414e-05
19 *477:41 *1798:I 0
20 *477:43 *1798:I 0
*RES
1 *1688:Q *500:12 18.284 
2 *500:12 *1798:I 11.572 
3 *500:12 *1621:B2 4.5 
*END

*D_NET *501 0.00760899
*CONN
*I *1623:B2 I *D gf180mcu_fd_sc_mcu7t5v0__aoi22_1
*I *1799:I I *D gf180mcu_fd_sc_mcu7t5v0__dlyb_1
*I *1689:Q O *D gf180mcu_fd_sc_mcu7t5v0__dffq_1
*CAP
1 *1623:B2 3.50669e-05
2 *1799:I 0.000703982
3 *1689:Q 0.000496978
4 *501:12 0.00123603
5 *1799:I *1420:A2 0.00033778
6 *1799:I *1800:I 0.000844142
7 *501:12 *1800:I 0.00234934
8 ADDR_O[5] *501:12 2.05709e-05
9 ADDR_O[6] *501:12 2.76367e-05
10 *1424:A3 *1799:I 0
11 *1625:A1 *1799:I 0.00020683
12 *1625:A1 *501:12 0.000317053
13 *1626:A2 *501:12 2.38656e-05
14 *1797:I *1799:I 7.11701e-05
15 *241:79 *1799:I 1.99013e-05
16 *279:10 *1799:I 0.000415294
17 *425:29 *1623:B2 0.000113027
18 *454:14 *1799:I 0.000370884
19 *476:61 *1799:I 1.40761e-05
20 *477:35 *1623:B2 5.36452e-06
*RES
1 *1689:Q *501:12 15.968 
2 *501:12 *1799:I 17.32 
3 *501:12 *1623:B2 9.312 
*END

*D_NET *502 0.00946033
*CONN
*I *1341:A4 I *D gf180mcu_fd_sc_mcu7t5v0__and4_1
*I *1783:Z O *D gf180mcu_fd_sc_mcu7t5v0__dlyb_1
*CAP
1 *1341:A4 0.00156047
2 *1783:Z 0.00156047
3 *1341:A4 *1346:A4 0
4 *1341:A4 *1427:A2 0.00108862
5 *1341:A4 *580:10 0.000960175
6 ADDR_O[6] *1341:A4 0
7 ADDR_O[7] *1341:A4 0
8 *1421:A1 *1341:A4 7.49136e-05
9 *1422:A1 *1341:A4 4.17589e-06
10 *1423:A2 *1341:A4 3.10673e-05
11 *1427:A1 *1341:A4 0.000456316
12 *1610:A1 *1341:A4 0.000338273
13 *1611:B1 *1341:A4 0.000742312
14 *1619:A1 *1341:A4 0.0002076
15 *1621:A1 *1341:A4 7.81148e-05
16 *1621:A2 *1341:A4 0.000122905
17 *1727:CLK *1341:A4 0
18 *1750:I *1341:A4 4.78732e-05
19 *1751:I *1341:A4 0.000639156
20 *279:12 *1341:A4 7.9669e-06
21 *279:16 *1341:A4 0.000100378
22 *279:18 *1341:A4 0.0002736
23 *279:40 *1341:A4 0.000187579
24 *279:53 *1341:A4 0.000482792
25 *425:25 *1341:A4 0.000106908
26 *425:174 *1341:A4 2.46957e-05
27 *425:196 *1341:A4 9.423e-05
28 *477:41 *1341:A4 0.00012632
29 *477:43 *1341:A4 0.000143405
*RES
1 *1783:Z *1341:A4 34.328 
*END

*D_NET *503 0.0075697
*CONN
*I *1625:B2 I *D gf180mcu_fd_sc_mcu7t5v0__aoi22_1
*I *1800:I I *D gf180mcu_fd_sc_mcu7t5v0__dlyb_1
*I *1690:Q O *D gf180mcu_fd_sc_mcu7t5v0__dffq_1
*CAP
1 *1625:B2 0
2 *1800:I 0.000641676
3 *1690:Q 0.000215797
4 *503:8 0.000857472
5 ADDR_O[6] *1800:I 0.00142511
6 *1346:A1 *503:8 0
7 *1424:A3 *1800:I 0.000128806
8 *1610:A1 *1800:I 0
9 *1625:B1 *1800:I 0.000106926
10 *1626:A2 *1800:I 6.56181e-05
11 *1690:D *1800:I 0.00085642
12 *1699:D *1800:I 2.25463e-05
13 *1699:D *503:8 5.58579e-05
14 *1799:I *1800:I 0.000844142
15 *501:12 *1800:I 0.00234934
*RES
1 *1690:Q *503:8 6.164 
2 *503:8 *1800:I 26.604 
3 *503:8 *1625:B2 4.5 
*END

*D_NET *504 0.041232
*CONN
*I *1644:B I *D gf180mcu_fd_sc_mcu7t5v0__oai21_1
*I *1801:I I *D gf180mcu_fd_sc_mcu7t5v0__dlyb_1
*I *1737:I I *D gf180mcu_fd_sc_mcu7t5v0__buf_1
*I *1699:Q O *D gf180mcu_fd_sc_mcu7t5v0__dffq_1
*CAP
1 *1644:B 0.000906621
2 *1801:I 0.000298335
3 *1737:I 7.59245e-05
4 *1699:Q 0.000221614
5 *504:46 0.00218296
6 *504:26 0.0044218
7 *504:10 0.00374133
8 *1644:B *1644:A2 0.0039831
9 *1737:I *1525:I1 6.99789e-05
10 *1737:I *1810:I 0.000835866
11 *1737:I *519:29 0.00019118
12 *1801:I *1299:A2 0.000182219
13 *1801:I *1525:S 7.1432e-05
14 *504:10 *1346:A2 0.000126027
15 *504:10 *577:124 0.000176112
16 *504:26 *1341:A2 0.000337234
17 *504:26 *1757:I 4.44673e-06
18 *504:26 *577:111 0.00066294
19 *504:26 *577:124 0.000124075
20 *504:26 *579:12 0.000144029
21 *504:26 *579:18 0.000104629
22 *504:46 *1299:A2 0.00195208
23 *504:46 *1525:I1 0.000168602
24 *504:46 *1525:S 3.22108e-05
25 *1284:A1 *504:46 0.000114515
26 *1297:A3 *1737:I 0.000341092
27 *1297:A3 *504:46 0.000887713
28 *1300:A1 *504:46 6.72202e-05
29 *1323:A2 *504:26 2.06237e-05
30 *1336:A2 *504:26 0.000262046
31 *1338:B *504:26 0.000334675
32 *1340:A1 *504:26 6.11661e-05
33 *1346:A1 *504:10 0.000339102
34 *1433:A2 *504:26 3.01933e-05
35 *1433:A3 *504:26 1.823e-05
36 *1436:B2 *504:26 0.00025706
37 *1524:A2 *504:26 0.000347955
38 *1644:A1 *1644:B 0.000355286
39 *1648:B *504:26 0.000351244
40 *1648:B *504:46 0.000185295
41 *1651:C *504:46 3.56338e-05
42 *1690:D *1644:B 0.00184071
43 *1707:D *504:46 3.02379e-05
44 *1727:D *504:26 0.000777959
45 *1730:CLK *504:26 4.50135e-05
46 *1783:I *1644:B 0.000121039
47 *1785:I *504:10 0.00013779
48 *1785:I *504:26 0.000965704
49 *11:16 *1801:I 0
50 *131:31 *504:46 0.000302564
51 *140:125 *504:10 2.25032e-05
52 *142:50 *504:46 0.000755098
53 *142:60 *504:46 0.000170708
54 *142:147 *504:26 0.00307059
55 *154:22 *504:26 0.000250221
56 *154:31 *504:26 6.03875e-05
57 *154:59 *504:26 0.000210119
58 *157:82 *504:26 0.000257295
59 *161:10 *504:46 0.000664942
60 *161:25 *504:46 0.000235468
61 *200:23 *504:26 6.51414e-06
62 *203:18 *504:26 0.000546405
63 *205:14 *504:26 0.000132753
64 *205:38 *504:26 0.000370404
65 *219:28 *504:26 0.00402237
66 *219:28 *504:46 2.81522e-06
67 *279:67 *1644:B 1.53518e-05
68 *282:12 *504:26 0.000384037
69 *361:36 *504:26 0.000560747
70 *447:131 *504:26 2.26025e-05
71 *459:12 *504:46 0.000225822
72 *500:12 *1644:B 0
*RES
1 *1699:Q *504:10 11.704 
2 *504:10 *504:26 46.648 
3 *504:26 *504:46 32.74 
4 *504:46 *1737:I 16.1 
5 *504:46 *1801:I 6.892 
6 *504:10 *1644:B 30.48 
*END

*D_NET *505 0.00977682
*CONN
*I *1765:I I *D gf180mcu_fd_sc_mcu7t5v0__dlyc_1
*I *1802:I I *D gf180mcu_fd_sc_mcu7t5v0__dlyb_1
*I *1691:Q O *D gf180mcu_fd_sc_mcu7t5v0__dffq_1
*CAP
1 *1765:I 0
2 *1802:I 0.000848781
3 *1691:Q 0.000309831
4 *505:12 0.00115861
5 *1802:I *1325:A2 0.000108433
6 *1802:I *1367:A4 0.000823197
7 *1802:I *1627:A3 0.000102292
8 *1802:I *1628:B2 0.000179799
9 *505:12 *1627:A3 0.000925629
10 *505:12 *1630:A1 0.00025405
11 *505:12 *1634:A1 0.00034363
12 *1788:I *1802:I 0.00243486
13 *1789:I *505:12 0.000131395
14 *230:26 *1802:I 0.00201354
15 *491:34 *1802:I 4.44448e-05
16 *491:49 *1802:I 9.83209e-05
*RES
1 *1691:Q *505:12 17.868 
2 *505:12 *1802:I 26.916 
3 *505:12 *1765:I 4.5 
*END

*D_NET *506 0.00429879
*CONN
*I *1763:I I *D gf180mcu_fd_sc_mcu7t5v0__dlyc_1
*I *1803:I I *D gf180mcu_fd_sc_mcu7t5v0__dlyb_1
*I *1692:Q O *D gf180mcu_fd_sc_mcu7t5v0__dffq_1
*CAP
1 *1763:I 0.000452752
2 *1803:I 0.00109836
3 *1692:Q 0.000645608
4 *1803:I *1376:B2 0.000203638
5 *1803:I *1769:I 8.8918e-05
6 *1655:CLK *1803:I 0
7 *1691:CLK *1763:I 0.00018195
8 *1691:CLK *1803:I 0.000628608
9 *230:26 *1763:I 0.00099896
*RES
1 *1692:Q *1803:I 14.304 
2 *1803:I *1763:I 13.056 
*END

*D_NET *507 0.00415885
*CONN
*I *1766:I I *D gf180mcu_fd_sc_mcu7t5v0__dlyc_1
*I *1804:I I *D gf180mcu_fd_sc_mcu7t5v0__dlyb_1
*I *1693:Q O *D gf180mcu_fd_sc_mcu7t5v0__dffq_1
*CAP
1 *1766:I 0.000548268
2 *1804:I 0
3 *1693:Q 0.000729979
4 *507:12 0.00127825
5 *1766:I *1376:B2 0.000215385
6 *1766:I *1771:I 0.000111449
7 *1766:I *559:12 3.68942e-05
8 *507:12 *1376:B2 0
9 *507:12 *1522:I1 0
10 *507:12 *1630:B2 0.000271753
11 *507:12 *559:12 0.000387113
12 *1376:B1 *507:12 7.75288e-05
13 *1378:A1 *1766:I 0.000209505
14 *1655:CLK *507:12 7.92222e-05
15 *1694:D *507:12 0.000176038
16 *434:10 *507:12 6.57935e-06
17 *434:20 *507:12 1.17984e-05
18 *479:24 *507:12 1.90887e-05
19 *479:151 *507:12 0
*RES
1 *1693:Q *507:12 19.324 
2 *507:12 *1804:I 4.5 
3 *507:12 *1766:I 8.66 
*END

*D_NET *508 0.0242979
*CONN
*I *1769:I I *D gf180mcu_fd_sc_mcu7t5v0__dlyc_1
*I *1805:I I *D gf180mcu_fd_sc_mcu7t5v0__dlyb_1
*I *1694:Q O *D gf180mcu_fd_sc_mcu7t5v0__dffq_1
*CAP
1 *1769:I 0.00147682
2 *1805:I 0.00170468
3 *1694:Q 0.000463714
4 *508:8 0.00364522
5 *1769:I *1376:B2 0
6 *1769:I *1522:I1 0.0008533
7 *1769:I *1627:A3 6.80166e-06
8 *1769:I *1628:A1 0.000113113
9 *1769:I *1632:A1 0.00040428
10 *1769:I *1775:I 0
11 *1769:I *555:66 0.000560747
12 *1769:I *580:10 1.77406e-05
13 *1805:I *1771:I 0.00183831
14 *1805:I *574:10 0.000812351
15 *508:8 *559:12 0.000179369
16 DAT_O[3] *1805:I 1.49202e-05
17 DAT_O[3] *508:8 0.000324952
18 DAT_O[4] *508:8 0.000423391
19 DAT_O[6] *1805:I 0.00202206
20 STB_O *1805:I 0.000828957
21 *1359:A1 *1805:I 0.000720662
22 *1628:B1 *1769:I 8.07896e-05
23 *1629:A2 *1769:I 4.07478e-05
24 *1633:A2 *1769:I 4.78801e-05
25 *1655:CLK *1769:I 7.45139e-05
26 *1691:D *1769:I 0.000185729
27 *1691:CLK *1769:I 2.81522e-06
28 *1707:CLK *1805:I 0.000179413
29 *1712:D *1769:I 0.000468609
30 *1790:I *1769:I 1.63784e-05
31 *1803:I *1769:I 8.8918e-05
32 *222:28 *1769:I 0
33 *425:53 *1769:I 0.000465544
34 *425:68 *1769:I 0.00110723
35 *425:79 *1769:I 0.000188403
36 *434:20 *1769:I 1.32185e-05
37 *439:22 *1805:I 0.000694763
38 *478:10 *1805:I 0.0013362
39 *478:12 *1805:I 0.00163938
40 *478:14 *1805:I 0.000868809
41 *479:32 *1805:I 0.0001154
42 *479:32 *508:8 0.000271764
*RES
1 *1694:Q *508:8 15.136 
2 *508:8 *1805:I 40.88 
3 *508:8 *1769:I 41.04 
*END

*D_NET *509 0.0117926
*CONN
*I *1806:I I *D gf180mcu_fd_sc_mcu7t5v0__dlyb_1
*I *1768:I I *D gf180mcu_fd_sc_mcu7t5v0__dlyc_1
*I *1695:Q O *D gf180mcu_fd_sc_mcu7t5v0__dffq_1
*CAP
1 *1806:I 0
2 *1768:I 0.000686312
3 *1695:Q 0.000569749
4 *509:14 0.00125606
5 *1768:I *1764:I 0.000150013
6 *1768:I *510:10 0.000268302
7 *509:14 *1522:I1 0.000279852
8 *509:14 *1636:B2 0.00250758
9 *509:14 *1774:I 2.33885e-05
10 *509:14 *559:12 7.65764e-05
11 *509:14 *560:58 0.000146537
12 DAT_O[7] *1768:I 0.00224383
13 STB_O *509:14 0.00250463
14 *1370:A2 *1768:I 0.000286309
15 *1376:A2 *509:14 0
16 *1713:D *1768:I 0.000125141
17 *439:22 *509:14 0.00020873
18 *478:51 *1768:I 4.02892e-05
19 *491:30 *1768:I 0.000419265
*RES
1 *1695:Q *509:14 23.588 
2 *509:14 *1768:I 23.484 
3 *509:14 *1806:I 4.5 
*END

*D_NET *510 0.0156122
*CONN
*I *1807:I I *D gf180mcu_fd_sc_mcu7t5v0__dlyb_1
*I *1764:I I *D gf180mcu_fd_sc_mcu7t5v0__dlyc_1
*I *1696:Q O *D gf180mcu_fd_sc_mcu7t5v0__dffq_1
*CAP
1 *1807:I 0.000426944
2 *1764:I 0.000598252
3 *1696:Q 0.000844838
4 *510:10 0.00187003
5 *1807:I *1526:S 8.87924e-05
6 *510:10 *1522:I1 0.00018099
7 *510:10 *1638:A1 0.000816731
8 *510:10 *559:12 5.15657e-05
9 CYC_O *1764:I 0.000815039
10 CYC_O *510:10 2.84264e-05
11 DAT_O[7] *510:10 0.000344177
12 *1362:A1 *1807:I 0.00234369
13 *1373:A2 *1807:I 0.000976696
14 *1378:A1 *1807:I 0.0020233
15 *1478:S0 *1807:I 3.7126e-05
16 *1713:D *1764:I 0.000478241
17 *1715:D *510:10 0.00178819
18 *1768:I *1764:I 0.000150013
19 *1768:I *510:10 0.000268302
20 *478:51 *1764:I 0.000603928
21 *478:106 *1807:I 0.00085777
22 *491:30 *1764:I 1.91441e-05
*RES
1 *1696:Q *510:10 20.856 
2 *510:10 *1764:I 15.24 
3 *510:10 *1807:I 27.672 
*END

*D_NET *511 0.0120234
*CONN
*I *1773:I I *D gf180mcu_fd_sc_mcu7t5v0__dlyc_1
*I *1808:I I *D gf180mcu_fd_sc_mcu7t5v0__dlyb_1
*I *1697:Q O *D gf180mcu_fd_sc_mcu7t5v0__dffq_1
*CAP
1 *1773:I 4.22279e-05
2 *1808:I 0.000177176
3 *1697:Q 0.0010472
4 *511:14 0.00126661
5 *1808:I *519:29 0.00149085
6 *1808:I *558:14 0.000307807
7 *511:14 *1374:I1 0.000303068
8 *511:14 *1379:I1 0.000870494
9 *511:14 *1640:A1 0.00056723
10 *511:14 *519:29 0.000847612
11 *511:14 *558:14 0.000684329
12 *511:14 *558:38 2.2404e-05
13 *1642:A2 *511:14 0.000114359
14 *1642:B1 *511:14 0.000937868
15 *1660:D *511:14 0.00133817
16 *1779:I *511:14 0.000288942
17 *11:16 *1808:I 2.38656e-05
18 *479:39 *511:14 0.0010158
19 *479:46 *511:14 0.000201185
20 *479:105 *511:14 0.000372423
21 *491:30 *1773:I 0.000103788
*RES
1 *1697:Q *511:14 27.928 
2 *511:14 *1808:I 13.16 
3 *511:14 *1773:I 9.312 
*END

*D_NET *512 0.00533095
*CONN
*I *1767:I I *D gf180mcu_fd_sc_mcu7t5v0__dlyc_1
*I *1809:I I *D gf180mcu_fd_sc_mcu7t5v0__dlyb_1
*I *1698:Q O *D gf180mcu_fd_sc_mcu7t5v0__dffq_1
*CAP
1 *1767:I 0
2 *1809:I 0.000415551
3 *1698:Q 0.00150478
4 *512:10 0.00192033
5 *1809:I *559:83 1.81996e-05
6 *512:10 *1374:I1 0
7 *512:10 *1776:I 0.00015704
8 *512:10 *559:83 0.00018736
9 *1656:D *512:10 4.04798e-05
10 *1658:D *1809:I 0.000450171
11 *1659:D *512:10 0.000545628
12 *1715:CLK *512:10 7.87797e-05
13 *479:105 *512:10 1.26329e-05
*RES
1 *1698:Q *512:10 21.896 
2 *512:10 *1809:I 13.888 
3 *512:10 *1767:I 9 
*END

*D_NET *513 0.00384702
*CONN
*I *1346:A4 I *D gf180mcu_fd_sc_mcu7t5v0__nand4_1
*I *1784:Z O *D gf180mcu_fd_sc_mcu7t5v0__dlyb_1
*CAP
1 *1346:A4 0.000795187
2 *1784:Z 0.000795187
3 *1346:A4 *1351:A4 0.00114264
4 *1346:A4 *580:21 4.33277e-05
5 *1341:A4 *1346:A4 0
6 *1699:D *1346:A4 3.43806e-05
7 *1727:CLK *1346:A4 0.000909318
8 *1743:I *1346:A4 0
9 *1744:I *1346:A4 0
10 *1751:I *1346:A4 2.04597e-06
11 *1783:I *1346:A4 0.000124934
*RES
1 *1784:Z *1346:A4 27.776 
*END

*D_NET *514 0.0122686
*CONN
*I *1810:I I *D gf180mcu_fd_sc_mcu7t5v0__dlyb_1
*I *1737:Z O *D gf180mcu_fd_sc_mcu7t5v0__buf_1
*CAP
1 *1810:I 0.0011725
2 *1737:Z 0.0011725
3 *1810:I *1525:I1 0.000529025
4 *1810:I *1525:S 6.11661e-05
5 *1810:I *1527:I0 1.12327e-05
6 *1810:I *519:29 0.000867244
7 *1810:I *559:83 0.00281547
8 DAT_O[3] *1810:I 1.36398e-06
9 DAT_O[7] *1810:I 2.72796e-06
10 *1482:A1 *1810:I 1.0603e-05
11 *1658:D *1810:I 3.01776e-05
12 *1660:D *1810:I 0.00257371
13 *1737:I *1810:I 0.000835866
14 *1779:I *1810:I 0.000113463
15 *478:40 *1810:I 0.000215267
16 *478:51 *1810:I 0.00131294
17 *478:60 *1810:I 0.000543293
18 *491:30 *1810:I 0
*RES
1 *1737:Z *1810:I 37.24 
*END

*D_NET *515 0.00335568
*CONN
*I *1811:I I *D gf180mcu_fd_sc_mcu7t5v0__dlyb_1
*I *1646:A1 I *D gf180mcu_fd_sc_mcu7t5v0__aoi21_1
*I *1700:Q O *D gf180mcu_fd_sc_mcu7t5v0__dffq_1
*CAP
1 *1811:I 0.000530963
2 *1646:A1 0.000202666
3 *1700:Q 0
4 *515:4 0.000733629
5 WE_O *1646:A1 0.000535742
6 WE_O *1811:I 0.00108918
7 *1639:A1 *1811:I 0
8 *1639:A2 *1646:A1 2.46831e-05
9 *1639:A2 *1811:I 0
10 *1646:B *1646:A1 0.000197059
11 *1779:I *1646:A1 0
12 *434:108 *1646:A1 4.17612e-05
*RES
1 *1700:Q *515:4 4.5 
2 *515:4 *1646:A1 15.58 
3 *515:4 *1811:I 9.908 
*END

*D_NET *516 0.00770098
*CONN
*I *1272:I I *D gf180mcu_fd_sc_mcu7t5v0__clkinv_1
*I *1812:I I *D gf180mcu_fd_sc_mcu7t5v0__dlyb_1
*I *1652:Q O *D gf180mcu_fd_sc_mcu7t5v0__dffq_1
*CAP
1 *1272:I 0
2 *1812:I 0.00166956
3 *1652:Q 0.000322122
4 *516:8 0.00199168
5 *516:8 *517:10 0.000428493
6 i2c_sda_out_pin_ctrl_n *516:8 0.000199966
7 *1536:B1 *1812:I 5.81596e-05
8 *1552:A3 *1812:I 0.000134833
9 *1580:B *1812:I 6.69436e-05
10 *1580:B *516:8 1.85523e-05
11 *1594:A2 *1812:I 0.000134752
12 *1667:D *516:8 0
13 *1670:CLK *1812:I 0.00113299
14 *385:12 *1812:I 0
15 *404:6 *1812:I 1.02007e-05
16 *404:30 *1812:I 4.71514e-05
17 *485:62 *1812:I 0.00143924
18 *486:94 *1812:I 4.63309e-05
*RES
1 *1652:Q *516:8 7.828 
2 *516:8 *1812:I 20.724 
3 *516:8 *1272:I 4.5 
*END

*D_NET *517 0.00179261
*CONN
*I *1509:A2 I *D gf180mcu_fd_sc_mcu7t5v0__or2_1
*I *1813:I I *D gf180mcu_fd_sc_mcu7t5v0__dlyb_1
*I *1272:ZN O *D gf180mcu_fd_sc_mcu7t5v0__clkinv_1
*CAP
1 *1509:A2 0.000227835
2 *1813:I 3.49467e-05
3 *1272:ZN 0.000388926
4 *517:10 0.000651708
5 *1577:A2 *1509:A2 0
6 *1584:A2 *1509:A2 0
7 *1584:A2 *517:10 0
8 *1667:D *1813:I 1.60338e-05
9 *1667:D *517:10 2.08037e-05
10 *1670:CLK *1813:I 2.38656e-05
11 *474:25 *1509:A2 0
12 *474:27 *1509:A2 0
13 *474:33 *1509:A2 0
14 *474:33 *517:10 0
15 *516:8 *517:10 0.000428493
*RES
1 *1272:ZN *517:10 12.328 
2 *517:10 *1813:I 9.312 
3 *517:10 *1509:A2 10.352 
*END

*D_NET *518 0.00722224
*CONN
*I *1604:S I *D gf180mcu_fd_sc_mcu7t5v0__mux2_2
*I *1605:S I *D gf180mcu_fd_sc_mcu7t5v0__mux2_2
*I *1603:S I *D gf180mcu_fd_sc_mcu7t5v0__mux2_2
*I *1602:S I *D gf180mcu_fd_sc_mcu7t5v0__mux2_2
*I *1791:Z O *D gf180mcu_fd_sc_mcu7t5v0__buf_2
*CAP
1 *1604:S 0.000161602
2 *1605:S 0.00050629
3 *1603:S 0
4 *1602:S 0.000224332
5 *1791:Z 0.00049714
6 *518:14 0.000343109
7 *518:12 0.000625067
8 *518:10 0.000658743
9 *1482:A2 *1605:S 0
10 *1602:I0 *1602:S 0.00070795
11 *1603:I1 *1602:S 0.000113027
12 *1604:I0 *1604:S 0.00010861
13 *1604:I0 *518:10 1.01702e-05
14 *1604:I1 *1604:S 8.94348e-05
15 *1604:I1 *518:10 3.22108e-05
16 *1677:D *1602:S 3.60231e-05
17 *1677:D *518:10 4.18052e-05
18 *1678:D *1605:S 2.68214e-05
19 *1678:CLK *1604:S 3.4596e-05
20 *1678:CLK *518:10 0.00038985
21 *467:12 *518:10 8.0602e-05
22 *467:14 *1602:S 0.000274703
23 *467:38 *1602:S 0.000271764
24 *467:38 *1605:S 0.00145934
25 *467:38 *518:14 0.000310596
26 *468:12 *518:10 0.000218453
27 *470:8 *1605:S 0
*RES
1 *1791:Z *518:10 9.388 
2 *518:10 *518:12 4.5 
3 *518:12 *518:14 0.936 
4 *518:14 *1602:S 12.12 
5 *518:14 *1603:S 9 
6 *518:12 *1605:S 14.2 
7 *518:10 *1604:S 6.268 
*END

*D_NET *519 0.0319021
*CONN
*I *1522:S I *D gf180mcu_fd_sc_mcu7t5v0__mux2_2
*I *1525:S I *D gf180mcu_fd_sc_mcu7t5v0__mux2_2
*I *1527:S I *D gf180mcu_fd_sc_mcu7t5v0__mux2_2
*I *1526:S I *D gf180mcu_fd_sc_mcu7t5v0__mux2_2
*I *1792:Z O *D gf180mcu_fd_sc_mcu7t5v0__buf_2
*CAP
1 *1522:S 0.000948543
2 *1525:S 0.00037599
3 *1527:S 0
4 *1526:S 0.00173132
5 *1792:Z 0.000421109
6 *519:29 0.00199
7 *519:6 0.0028179
8 *1522:S *1522:I0 0.000147775
9 *1522:S *1522:I1 0.00397647
10 *1522:S *1632:A1 0.000357684
11 *1522:S *558:38 0.000203655
12 *1522:S *558:48 0.000131001
13 *1525:S *1525:I1 0.000921209
14 *1526:S *558:54 0.000670559
15 *1526:S *559:28 0.000100567
16 *519:6 *1315:A1 0.000491544
17 *519:6 *1366:A1 1.40331e-05
18 *519:6 *578:87 0.00122563
19 *519:6 *578:102 7.23554e-05
20 *519:29 *1360:A1 0.00057304
21 *519:29 *1636:B2 0.00111016
22 *519:29 *558:14 0.000121613
23 DAT_O[3] *519:29 0.000106877
24 DAT_O[4] *1526:S 0.000853491
25 DAT_O[7] *519:29 0.00016315
26 *1295:A1 *1525:S 0.000161926
27 *1297:A3 *1525:S 2.63271e-05
28 *1297:A3 *519:29 0.000116466
29 *1362:A1 *1526:S 0.00126086
30 *1362:A2 *519:29 0.000358544
31 *1369:A1 *519:6 0.000112696
32 *1373:A2 *1526:S 3.57652e-06
33 *1373:B *519:29 2.9476e-05
34 *1378:A1 *1526:S 0.000231207
35 *1379:I0 *1522:S 0.000559416
36 *1635:A1 *1526:S 2.17376e-05
37 *1658:D *1525:S 0.00027022
38 *1660:D *519:29 0.00278903
39 *1694:D *1526:S 6.41072e-05
40 *1698:D *1522:S 0
41 *1710:D *519:6 0.000236426
42 *1713:D *519:29 0.000197519
43 *1715:D *1522:S 0.000325466
44 *1737:I *519:29 0.00019118
45 *1779:I *519:29 0.000159872
46 *1801:I *1525:S 7.1432e-05
47 *1807:I *1526:S 8.87924e-05
48 *1808:I *519:29 0.00149085
49 *1810:I *1525:S 6.11661e-05
50 *1810:I *519:29 0.000867244
51 *141:112 *519:6 5.43621e-05
52 *141:120 *519:6 0.000754043
53 *176:45 *1526:S 0.000270339
54 *176:58 *1526:S 0.000450555
55 *176:58 *519:6 0
56 *479:32 *1526:S 0.000271774
57 *504:46 *1525:S 3.22108e-05
58 *511:14 *519:29 0.000847612
*RES
1 *1792:Z *519:6 10.428 
2 *519:6 *1526:S 25.044 
3 *519:6 *519:29 30.632 
4 *519:29 *1527:S 4.5 
5 *519:29 *1525:S 18.388 
6 *1526:S *1522:S 21.376 
*END

*D_NET *520 0.00176476
*CONN
*I *1736:D I *D gf180mcu_fd_sc_mcu7t5v0__dffq_1
*I *1754:Z O *D gf180mcu_fd_sc_mcu7t5v0__dlyc_1
*CAP
1 *1736:D 0.000529847
2 *1754:Z 0.000529847
3 *1736:D *1754:I 0.000553864
4 *1735:D *1736:D 0
5 *472:43 *1736:D 0.000151199
*RES
1 *1754:Z *1736:D 22.368 
*END

*D_NET *521 0.00206832
*CONN
*I *1734:D I *D gf180mcu_fd_sc_mcu7t5v0__dffq_1
*I *1755:Z O *D gf180mcu_fd_sc_mcu7t5v0__dlyc_1
*CAP
1 *1734:D 0.00099111
2 *1755:Z 0.00099111
3 *1733:D *1734:D 8.6099e-05
*RES
1 *1755:Z *1734:D 25.072 
*END

*D_NET *522 0.00359006
*CONN
*I *1274:A2 I *D gf180mcu_fd_sc_mcu7t5v0__and2_1
*I *1273:A2 I *D gf180mcu_fd_sc_mcu7t5v0__nor2_1
*I *1756:Z O *D gf180mcu_fd_sc_mcu7t5v0__dlyc_1
*CAP
1 *1274:A2 0
2 *1273:A2 6.71443e-05
3 *1756:Z 0.00073991
4 *522:14 0.000807054
5 *1256:I *522:14 0
6 *1608:A2 *1273:A2 0
7 *1608:A2 *522:14 0.00141027
8 *1731:D *522:14 1.84122e-05
9 *133:8 *1273:A2 9.11499e-05
10 *133:8 *522:14 0
11 *133:10 *1273:A2 0.00012761
12 *466:12 *522:14 0.000316249
13 *483:24 *522:14 1.22614e-05
14 *483:57 *522:14 0
*RES
1 *1756:Z *522:14 19.636 
2 *522:14 *1273:A2 14.644 
3 *522:14 *1274:A2 4.5 
*END

*D_NET *523 0.00034409
*CONN
*I *1252:I I *D gf180mcu_fd_sc_mcu7t5v0__clkinv_1
*I *1757:Z O *D gf180mcu_fd_sc_mcu7t5v0__dlyc_1
*CAP
1 *1252:I 8.35247e-05
2 *1757:Z 8.35247e-05
3 *1252:I *1757:I 4.22072e-05
4 *1431:A1 *1252:I 0.000134833
*RES
1 *1757:Z *1252:I 9.936 
*END

*D_NET *524 0.00879855
*CONN
*I *1351:A4 I *D gf180mcu_fd_sc_mcu7t5v0__nand4_1
*I *1785:Z O *D gf180mcu_fd_sc_mcu7t5v0__dlyb_1
*CAP
1 *1351:A4 0.000614517
2 *1785:Z 0.000614517
3 *1351:A4 *1439:A2 0
4 *1351:A4 *1439:A3 3.3698e-05
5 *1351:A4 *1644:A2 0.000830449
6 *1351:A4 *580:21 0
7 *1346:A3 *1351:A4 0.000259355
8 *1346:A4 *1351:A4 0.00114264
9 *1347:B *1351:A4 0.00460134
10 *1727:CLK *1351:A4 0.000589022
11 *1728:CLK *1351:A4 0.000113016
*RES
1 *1785:Z *1351:A4 32.456 
*END

*D_NET *525 0.00214727
*CONN
*I *1250:I I *D gf180mcu_fd_sc_mcu7t5v0__clkinv_1
*I *1758:Z O *D gf180mcu_fd_sc_mcu7t5v0__dlyc_1
*CAP
1 *1250:I 0.000436969
2 *1758:Z 0.000436969
3 *1758:I *1250:I 0.00084219
4 *1760:I *1250:I 8.35955e-06
5 *127:16 *1250:I 0.0004162
6 *484:14 *1250:I 6.58235e-06
*RES
1 *1758:Z *1250:I 13.264 
*END

*D_NET *526 0.00154082
*CONN
*I *1253:I I *D gf180mcu_fd_sc_mcu7t5v0__clkinv_1
*I *1759:Z O *D gf180mcu_fd_sc_mcu7t5v0__dlyc_1
*CAP
1 *1253:I 0.000247391
2 *1759:Z 0.000247391
3 *1431:A1 *1253:I 2.38656e-05
4 *1434:A1 *1253:I 0.000167101
5 *1729:CLK *1253:I 0.000855069
*RES
1 *1759:Z *1253:I 11.912 
*END

*D_NET *527 0.00315094
*CONN
*I *1569:A2 I *D gf180mcu_fd_sc_mcu7t5v0__aoi21_1
*I *1606:A2 I *D gf180mcu_fd_sc_mcu7t5v0__and2_1
*I *1760:Z O *D gf180mcu_fd_sc_mcu7t5v0__dlyc_1
*CAP
1 *1569:A2 0
2 *1606:A2 0.000136959
3 *1760:Z 0.000571252
4 *527:10 0.000708211
5 *527:10 *1441:A2 5.78216e-06
6 *142:199 *1606:A2 0.000531148
7 *142:199 *527:10 0.000832926
8 *472:26 *527:10 7.609e-05
9 *472:35 *527:10 0.000215256
10 *472:41 *1606:A2 0
11 *472:41 *527:10 1.07369e-05
12 *472:43 *1606:A2 0
13 *483:63 *527:10 6.25766e-05
14 *485:20 *527:10 0
*RES
1 *1760:Z *527:10 14.408 
2 *527:10 *1606:A2 10.352 
3 *527:10 *1569:A2 9 
*END

*D_NET *528 0.00231778
*CONN
*I *1270:I I *D gf180mcu_fd_sc_mcu7t5v0__clkinv_1
*I *1761:Z O *D gf180mcu_fd_sc_mcu7t5v0__dlyc_1
*CAP
1 *1270:I 0.000449142
2 *1761:Z 0.000449142
3 *1312:A2 *1270:I 0.000181751
4 *1363:S *1270:I 0.000327138
5 *1366:A2 *1270:I 4.18042e-05
6 *1366:C *1270:I 0.000636062
7 *1369:A2 *1270:I 4.34897e-05
8 *1714:D *1270:I 0
9 *176:41 *1270:I 7.96094e-05
10 *179:107 *1270:I 3.12252e-05
11 *491:30 *1270:I 7.84162e-05
*RES
1 *1761:Z *1270:I 13.992 
*END

*D_NET *529 0.00214598
*CONN
*I *1271:I I *D gf180mcu_fd_sc_mcu7t5v0__clkinv_1
*I *1762:Z O *D gf180mcu_fd_sc_mcu7t5v0__dlyc_1
*CAP
1 *1271:I 0.000184164
2 *1762:Z 0.000184164
3 *1271:I *1762:I 1.56684e-05
4 *1347:B *1271:I 0.000337769
5 *1355:B1 *1271:I 0.000108937
6 *1712:CLK *1271:I 0.000291077
7 *140:16 *1271:I 0.000337769
8 *478:121 *1271:I 0.000686436
9 *488:109 *1271:I 0
*RES
1 *1762:Z *1271:I 21.536 
*END

*D_NET *530 0.00634447
*CONN
*I *1630:A1 I *D gf180mcu_fd_sc_mcu7t5v0__aoi22_1
*I *1763:Z O *D gf180mcu_fd_sc_mcu7t5v0__dlyc_1
*CAP
1 *1630:A1 0.00141987
2 *1763:Z 0.00141987
3 *1630:A1 *1376:B2 0.00134758
4 DAT_O[1] *1630:A1 0
5 *1346:A1 *1630:A1 0
6 *1352:B *1630:A1 7.9669e-06
7 *1378:B *1630:A1 0.000571698
8 *1630:A2 *1630:A1 0.000158673
9 *1691:D *1630:A1 1.823e-05
10 *1692:D *1630:A1 9.58004e-06
11 *1789:I *1630:A1 0.000115129
12 *1790:I *1630:A1 0.000429753
13 *140:143 *1630:A1 0.000169099
14 *140:150 *1630:A1 0.000422972
15 *505:12 *1630:A1 0.00025405
*RES
1 *1763:Z *1630:A1 32.352 
*END

*D_NET *531 0.0107012
*CONN
*I *1638:A1 I *D gf180mcu_fd_sc_mcu7t5v0__aoi22_1
*I *1764:Z O *D gf180mcu_fd_sc_mcu7t5v0__dlyc_1
*CAP
1 *1638:A1 0.000893582
2 *1764:Z 0.000893582
3 *1638:A1 *1363:I1 0.000225767
4 *1638:A1 *573:12 5.63044e-06
5 CYC_O *1638:A1 0.00570435
6 DAT_O[7] *1638:A1 0
7 *1362:A1 *1638:A1 0.000373379
8 *1715:D *1638:A1 0.00178819
9 *479:80 *1638:A1 0
10 *510:10 *1638:A1 0.000816731
*RES
1 *1764:Z *1638:A1 34.536 
*END

*D_NET *532 0.00123684
*CONN
*I *1628:A1 I *D gf180mcu_fd_sc_mcu7t5v0__aoi22_1
*I *1765:Z O *D gf180mcu_fd_sc_mcu7t5v0__dlyc_1
*CAP
1 *1628:A1 0.000316186
2 *1765:Z 0.000316186
3 *1628:A1 *1325:A2 3.77212e-05
4 *1628:A1 *1377:A4 0.000106789
5 *1628:A1 *1628:B2 8.16884e-06
6 *1628:B1 *1628:A1 4.07478e-05
7 *1629:A2 *1628:A1 1.12327e-05
8 *1769:I *1628:A1 0.000113113
9 *1788:I *1628:A1 4.42925e-05
10 *230:26 *1628:A1 0.000236183
11 *425:68 *1628:A1 6.21972e-06
*RES
1 *1765:Z *1628:A1 37.8675 
*END

*D_NET *533 0.00616439
*CONN
*I *1632:A1 I *D gf180mcu_fd_sc_mcu7t5v0__aoi22_1
*I *1766:Z O *D gf180mcu_fd_sc_mcu7t5v0__dlyc_1
*CAP
1 *1632:A1 0.000742022
2 *1766:Z 0.000742022
3 *1632:A1 *1522:I1 3.04205e-05
4 *1632:A1 *555:66 0.000569975
5 *1632:A1 *558:48 0.00148756
6 *1632:A1 *559:28 0.00017298
7 *1379:I0 *1632:A1 0.000568633
8 *1521:S *1632:A1 0.000802519
9 *1522:S *1632:A1 0.000357684
10 *1635:A1 *1632:A1 8.43039e-05
11 *1769:I *1632:A1 0.00040428
12 *208:96 *1632:A1 5.65501e-06
13 *425:79 *1632:A1 0.000196336
*RES
1 *1766:Z *1632:A1 19.296 
*END

*D_NET *534 0.00108916
*CONN
*I *1642:A1 I *D gf180mcu_fd_sc_mcu7t5v0__aoi22_1
*I *1767:Z O *D gf180mcu_fd_sc_mcu7t5v0__dlyc_1
*CAP
1 *1642:A1 0.000364356
2 *1767:Z 0.000364356
3 *1642:A1 *1776:I 1.05408e-05
4 *1642:A1 *560:10 0.000213983
5 *1642:A2 *1642:A1 0.000106908
6 *1642:B1 *1642:A1 2.90178e-05
*RES
1 *1767:Z *1642:A1 11.496 
*END

*D_NET *535 0.00177574
*CONN
*I *1356:A4 I *D gf180mcu_fd_sc_mcu7t5v0__nand4_1
*I *1786:Z O *D gf180mcu_fd_sc_mcu7t5v0__dlyb_1
*CAP
1 *1356:A4 0.000202532
2 *1786:Z 0.000202532
3 DAT_O[0] *1356:A4 0
4 *1357:A2 *1356:A4 0.000150973
5 *1357:B *1356:A4 0.000771978
6 *1789:I *1356:A4 0.000406972
7 *222:28 *1356:A4 4.07478e-05
*RES
1 *1786:Z *1356:A4 11.912 
*END

*D_NET *536 0.0123049
*CONN
*I *1636:A1 I *D gf180mcu_fd_sc_mcu7t5v0__aoi22_1
*I *1768:Z O *D gf180mcu_fd_sc_mcu7t5v0__dlyc_1
*CAP
1 *1636:A1 0.000861697
2 *1768:Z 0.000861697
3 *1636:A1 *1636:B2 0.00574047
4 *1636:A1 *1774:I 0.000358639
5 DAT_O[7] *1636:A1 0.00239021
6 STB_O *1636:A1 7.49243e-05
7 *1370:A2 *1636:A1 0.00110014
8 *1373:A2 *1636:A1 0.000216695
9 *1378:A1 *1636:A1 0.000108658
10 *425:103 *1636:A1 4.07478e-05
11 *425:118 *1636:A1 0.000288492
12 *434:74 *1636:A1 1.71326e-05
13 *434:81 *1636:A1 0.000116352
14 *439:22 *1636:A1 0.000129047
*RES
1 *1768:Z *1636:A1 37.032 
*END

*D_NET *537 0.00665808
*CONN
*I *1634:A1 I *D gf180mcu_fd_sc_mcu7t5v0__aoi22_1
*I *1769:Z O *D gf180mcu_fd_sc_mcu7t5v0__dlyc_1
*CAP
1 *1634:A1 0.00126765
2 *1769:Z 0.00126765
3 *1634:A1 *1367:A4 0
4 *1634:A1 *1376:B2 1.22905e-05
5 *1634:A1 *1627:A3 0.000285003
6 *1634:A1 *1634:B2 2.81522e-06
7 DAT_O[1] *1634:A1 0.00197908
8 DAT_O[2] *1634:A1 9.41658e-05
9 *1377:A3 *1634:A1 1.02177e-06
10 *1692:CLK *1634:A1 0.000332323
11 *1693:D *1634:A1 0.000123321
12 *230:26 *1634:A1 0
13 *425:96 *1634:A1 5.37445e-05
14 *434:10 *1634:A1 8.19187e-05
15 *434:61 *1634:A1 0.000125274
16 *479:151 *1634:A1 0.000226086
17 *492:465 *1634:A1 0.000462095
18 *505:12 *1634:A1 0.00034363
*RES
1 *1769:Z *1634:A1 30.792 
*END

*D_NET *538 0.00169732
*CONN
*I *1348:I1 I *D gf180mcu_fd_sc_mcu7t5v0__mux2_2
*I *1770:Z O *D gf180mcu_fd_sc_mcu7t5v0__dlyc_1
*CAP
1 *1348:I1 0.000423064
2 *1770:Z 0.000423064
3 *1348:I1 *578:87 0.000401804
4 *1348:I1 *578:102 8.01325e-05
5 *1345:B1 *1348:I1 0.000269832
6 *141:112 *1348:I1 5.19815e-05
7 *176:58 *1348:I1 4.74456e-05
*RES
1 *1770:Z *1348:I1 12.744 
*END

*D_NET *539 0.0041449
*CONN
*I *1379:I1 I *D gf180mcu_fd_sc_mcu7t5v0__mux2_2
*I *1771:Z O *D gf180mcu_fd_sc_mcu7t5v0__dlyc_1
*CAP
1 *1379:I1 0.000585148
2 *1771:Z 0.000585148
3 *1379:I1 *1374:I1 0.000471157
4 *1374:S *1379:I1 0.00103659
5 *208:96 *1379:I1 3.42651e-05
6 *479:32 *1379:I1 0.000188435
7 *479:39 *1379:I1 0.000373654
8 *511:14 *1379:I1 0.000870494
*RES
1 *1771:Z *1379:I1 16.592 
*END

*D_NET *540 0.00267336
*CONN
*I *1358:I1 I *D gf180mcu_fd_sc_mcu7t5v0__mux2_2
*I *1772:Z O *D gf180mcu_fd_sc_mcu7t5v0__dlyc_1
*CAP
1 *1358:I1 0.000298294
2 *1772:Z 0.000298294
3 *1358:I1 *1775:I 9.57283e-05
4 *1352:A2 *1358:I1 0.000223587
5 *1712:D *1358:I1 0.000344522
6 *1790:I *1358:I1 0.00141294
*RES
1 *1772:Z *1358:I1 22.992 
*END

*D_NET *541 0.00858582
*CONN
*I *1640:A1 I *D gf180mcu_fd_sc_mcu7t5v0__aoi22_1
*I *1773:Z O *D gf180mcu_fd_sc_mcu7t5v0__dlyc_1
*CAP
1 *1640:A1 0.000552771
2 *1773:Z 0.000552771
3 *1640:A1 *1640:B2 1.60338e-05
4 *1640:A1 *559:83 0.00492386
5 *1642:B1 *1640:A1 0.000253893
6 *1643:A1 *1640:A1 6.32931e-05
7 *1660:D *1640:A1 0.000243466
8 *1660:CLK *1640:A1 0.000352357
9 *1779:I *1640:A1 0.000366109
10 *434:108 *1640:A1 2.52289e-05
11 *479:105 *1640:A1 0.00066881
12 *492:465 *1640:A1 0
13 *511:14 *1640:A1 0.00056723
*RES
1 *1773:Z *1640:A1 32.144 
*END

*D_NET *542 0.0060971
*CONN
*I *1363:I1 I *D gf180mcu_fd_sc_mcu7t5v0__mux2_2
*I *1774:Z O *D gf180mcu_fd_sc_mcu7t5v0__dlyc_1
*CAP
1 *1363:I1 0.000422144
2 *1774:Z 0.000422144
3 *1363:I1 *573:12 2.28745e-05
4 CYC_O *1363:I1 0.00191892
5 *1638:A1 *1363:I1 0.000225767
6 *1697:D *1363:I1 0.00292208
7 *1713:D *1363:I1 0.000163183
*RES
1 *1774:Z *1363:I1 26.528 
*END

*D_NET *543 0.00547439
*CONN
*I *1353:I1 I *D gf180mcu_fd_sc_mcu7t5v0__mux2_2
*I *1775:Z O *D gf180mcu_fd_sc_mcu7t5v0__dlyc_1
*CAP
1 *1353:I1 0.00102238
2 *1775:Z 0.00102238
3 *1353:I1 *1762:I 0.000143503
4 *1353:I1 *569:10 0.00115436
5 *1353:I1 *578:62 0.000241039
6 *1353:S *1353:I1 6.98089e-05
7 *1376:A2 *1353:I1 0.000112355
8 *1428:A2 *1353:I1 0.00010321
9 *1711:D *1353:I1 8.52105e-06
10 *1712:D *1353:I1 6.96716e-05
11 *1745:I *1353:I1 9.17624e-05
12 *1753:I *1353:I1 2.05998e-05
13 *208:73 *1353:I1 0.000409442
14 *471:86 *1353:I1 0.00100535
*RES
1 *1775:Z *1353:I1 29.44 
*END

*D_NET *544 0.00415071
*CONN
*I *1374:I1 I *D gf180mcu_fd_sc_mcu7t5v0__mux2_2
*I *1776:Z O *D gf180mcu_fd_sc_mcu7t5v0__dlyc_1
*CAP
1 *1374:I1 0.0011903
2 *1776:Z 0.0011903
3 *1374:I1 *1522:I0 2.8555e-05
4 *1374:I1 *558:38 0.000462148
5 *1374:I1 *558:48 0.000245423
6 *1374:I1 *559:83 0.000125353
7 *1374:S *1374:I1 0.000113027
8 *1379:I1 *1374:I1 0.000471157
9 *479:105 *1374:I1 2.13874e-05
10 *511:14 *1374:I1 0.000303068
11 *512:10 *1374:I1 0
*RES
1 *1776:Z *1374:I1 28.504 
*END

*D_NET *545 0.000642447
*CONN
*I *1251:I I *D gf180mcu_fd_sc_mcu7t5v0__clkinv_1
*I *1777:Z O *D gf180mcu_fd_sc_mcu7t5v0__dlyc_1
*CAP
1 *1251:I 0.000105971
2 *1777:Z 0.000105971
3 *1395:B2 *1251:I 1.43055e-05
4 *1718:D *1251:I 0
5 *128:29 *1251:I 0.0004162
*RES
1 *1777:Z *1251:I 10.144 
*END

*D_NET *546 0.00398504
*CONN
*I *1361:A4 I *D gf180mcu_fd_sc_mcu7t5v0__nand4_1
*I *1787:Z O *D gf180mcu_fd_sc_mcu7t5v0__dlyb_1
*CAP
1 *1361:A4 0.000703439
2 *1787:Z 0.000703439
3 *1361:A4 *577:94 0.000193393
4 *1342:C *1361:A4 0.000513513
5 *1428:A1 *1361:A4 0.000566888
6 *1786:I *1361:A4 0.000130114
7 *1787:I *1361:A4 0.00111912
8 *222:28 *1361:A4 5.5142e-05
*RES
1 *1787:Z *1361:A4 27.984 
*END

*D_NET *547 0.000429599
*CONN
*I *1648:A1 I *D gf180mcu_fd_sc_mcu7t5v0__oai21_1
*I *1778:Z O *D gf180mcu_fd_sc_mcu7t5v0__dlyc_1
*CAP
1 *1648:A1 0.000167958
2 *1778:Z 0.000167958
3 *1648:A1 *553:38 2.31204e-05
4 *361:36 *1648:A1 7.05624e-05
5 *487:175 *1648:A1 0
*RES
1 *1778:Z *1648:A1 19.144 
*END

*D_NET *548 0.00477076
*CONN
*I *1367:A4 I *D gf180mcu_fd_sc_mcu7t5v0__and4_1
*I *1788:Z O *D gf180mcu_fd_sc_mcu7t5v0__dlyb_1
*CAP
1 *1367:A4 0.000941971
2 *1788:Z 0.000941971
3 *1367:A4 *1325:A2 0.000116466
4 *1367:A4 *1627:A3 0.000235826
5 *1367:A3 *1367:A4 3.3221e-05
6 *1629:A2 *1367:A4 0.000447626
7 *1634:A1 *1367:A4 0
8 *1691:CLK *1367:A4 0
9 *1802:I *1367:A4 0.000823197
10 *225:10 *1367:A4 2.64624e-05
11 *230:26 *1367:A4 0.000669939
12 *492:412 *1367:A4 0.000534077
*RES
1 *1788:Z *1367:A4 28.192 
*END

*D_NET *549 0.00197154
*CONN
*I *1372:A4 I *D gf180mcu_fd_sc_mcu7t5v0__nand4_1
*I *1789:Z O *D gf180mcu_fd_sc_mcu7t5v0__dlyb_1
*CAP
1 *1372:A4 0.000546619
2 *1789:Z 0.000546619
3 *1283:A1 *1372:A4 2.21365e-05
4 *1347:B *1372:A4 7.03763e-05
5 *1372:A3 *1372:A4 4.97811e-05
6 *1430:A1 *1372:A4 3.48247e-05
7 *1430:A2 *1372:A4 0.000179194
8 *1438:C *1372:A4 0.000103788
9 *140:41 *1372:A4 0.00016066
10 *140:45 *1372:A4 0.000214356
11 *141:27 *1372:A4 0
12 *141:37 *1372:A4 0
13 *157:8 *1372:A4 4.31836e-05
*RES
1 *1789:Z *1372:A4 13.472 
*END

*D_NET *550 0.00444029
*CONN
*I *1377:A4 I *D gf180mcu_fd_sc_mcu7t5v0__nand4_1
*I *1790:Z O *D gf180mcu_fd_sc_mcu7t5v0__dlyb_1
*CAP
1 *1377:A4 0.000676251
2 *1790:Z 0.000676251
3 *1377:A4 *1325:A2 0.000346804
4 *1377:A4 *1376:B2 0.000498827
5 *1377:A4 *1628:B2 0
6 *1377:A4 *577:98 3.3221e-05
7 *1628:A1 *1377:A4 0.000106789
8 *1691:CLK *1377:A4 0.00156031
9 *1788:I *1377:A4 0.000322702
10 *1789:I *1377:A4 0.00021913
*RES
1 *1790:Z *1377:A4 26.736 
*END

*D_NET *551 0.00359567
*CONN
*I *1756:I I *D gf180mcu_fd_sc_mcu7t5v0__dlyc_1
*I *1681:Q O *D gf180mcu_fd_sc_mcu7t5v0__dffq_1
*CAP
1 *1756:I 0.000496348
2 *1681:Q 0.000496348
3 *1608:A2 *1756:I 3.53699e-06
4 *1674:D *1756:I 1.07369e-05
5 *466:12 *1756:I 0.000450565
6 *466:25 *1756:I 0.00105348
7 *474:130 *1756:I 0.000190477
8 *474:153 *1756:I 0.000120736
9 *474:161 *1756:I 9.35066e-06
10 *492:307 *1756:I 0.00076409
*RES
1 *1681:Q *1756:I 24.24 
*END

*D_NET *552 0.0165368
*CONN
*I *1384:A3 I *D gf180mcu_fd_sc_mcu7t5v0__nand4_1
*I *1267:I I *D gf180mcu_fd_sc_mcu7t5v0__clkinv_1
*I *1329:A2 I *D gf180mcu_fd_sc_mcu7t5v0__nor2_1
*I *1317:B2 I *D gf180mcu_fd_sc_mcu7t5v0__aoi22_1
*I *1278:A2 I *D gf180mcu_fd_sc_mcu7t5v0__nand2_1
*I *1308:B2 I *D gf180mcu_fd_sc_mcu7t5v0__aoi22_1
*I *1280:A3 I *D gf180mcu_fd_sc_mcu7t5v0__nand3_1
*I *1383:A3 I *D gf180mcu_fd_sc_mcu7t5v0__and4_1
*I *1543:I1 I *D gf180mcu_fd_sc_mcu7t5v0__mux2_2
*I *1662:Q O *D gf180mcu_fd_sc_mcu7t5v0__dffq_1
*CAP
1 *1384:A3 0
2 *1267:I 0.000573359
3 *1329:A2 0.000193607
4 *1317:B2 0.000128299
5 *1278:A2 0
6 *1308:B2 0.000283573
7 *1280:A3 0
8 *1383:A3 0
9 *1543:I1 0.000410954
10 *1662:Q 0.000139556
11 *552:65 0.000435485
12 *552:49 0.000283573
13 *552:47 0.000340682
14 *552:36 0.000323442
15 *552:32 0.000826592
16 *552:25 0.000501734
17 *552:10 0.000755796
18 *552:8 0.000139556
19 *1267:I *1433:A1 3.42651e-05
20 *1267:I *1759:I 0.000561123
21 *1543:I1 *561:29 0
22 *1543:I1 *581:14 0.000177012
23 *552:8 *561:8 0.0002623
24 *552:8 *561:21 2.78695e-05
25 *552:25 *1383:A4 5.13977e-05
26 *552:32 *1383:A4 4.18042e-05
27 *1278:A1 *1308:B2 4.07478e-05
28 *1279:A1 *1267:I 2.73715e-06
29 *1279:A1 *552:25 5.34458e-06
30 *1279:A1 *552:32 2.12222e-05
31 *1308:B1 *1308:B2 7.02466e-05
32 *1308:B1 *1317:B2 0.000185295
33 *1317:B1 *1329:A2 5.13977e-05
34 *1331:A2 *552:36 0
35 *1384:A2 *552:8 3.4596e-05
36 *1388:A4 *1329:A2 5.57504e-05
37 *1433:A3 *1267:I 0.000112311
38 *1434:A1 *1267:I 7.36936e-05
39 *1434:A3 *552:36 0.000178346
40 *1434:B1 *552:36 0.000726327
41 *1434:B1 *552:47 7.14178e-05
42 *1434:B2 *1267:I 0.00153191
43 *1434:B2 *552:32 3.4596e-05
44 *1725:D *1267:I 0.000179186
45 *1729:D *1267:I 0.000276873
46 *1729:CLK *1267:I 0.000337309
47 *128:29 *552:8 0.000148864
48 *128:40 *552:8 7.95519e-06
49 *128:40 *552:25 8.14136e-05
50 *143:12 *1543:I1 3.74622e-05
51 *143:12 *552:25 4.07904e-05
52 *143:31 *552:8 7.87395e-06
53 *143:31 *552:25 0
54 *143:46 *552:25 1.07369e-05
55 *143:46 *552:32 9.21299e-05
56 *143:57 *552:36 0.000345391
57 *143:57 *552:47 0.000715996
58 *143:68 *1329:A2 3.70435e-05
59 *143:68 *552:47 8.05935e-05
60 *143:68 *552:65 9.87827e-05
61 *143:89 *1329:A2 0.000364309
62 *150:12 *1308:B2 6.97816e-05
63 *150:19 *1317:B2 0.00106402
64 *150:42 *1317:B2 3.4596e-05
65 *154:22 *1267:I 5.71995e-05
66 *175:22 *1317:B2 0.000807322
67 *175:22 *1329:A2 0.000383426
68 *179:24 *1308:B2 0.000488468
69 *189:44 *1329:A2 3.96709e-05
70 *189:44 *552:65 3.64459e-05
71 *205:38 *1308:B2 0.000368388
72 *243:8 *552:47 0.000101719
73 *243:8 *552:65 1.90343e-05
74 *244:10 *552:25 0.00035269
75 *447:131 *552:25 0.000114712
76 *447:131 *552:32 4.87048e-05
*RES
1 *1662:Q *552:8 6.58 
2 *552:8 *552:10 4.5 
3 *552:10 *1543:I1 12.432 
4 *552:10 *552:25 7.62 
5 *552:25 *1383:A3 4.5 
6 *552:25 *552:32 1.352 
7 *552:32 *552:36 6.476 
8 *552:36 *1280:A3 9 
9 *552:36 *552:47 2.496 
10 *552:47 *552:49 4.5 
11 *552:49 *1308:B2 8.036 
12 *552:49 *1278:A2 4.5 
13 *552:47 *552:65 0.936 
14 *552:65 *1317:B2 12.016 
15 *552:65 *1329:A2 11.392 
16 *552:32 *1267:I 21.196 
17 *552:8 *1384:A3 4.5 
*END

*D_NET *553 0.0170971
*CONN
*I *1315:B2 I *D gf180mcu_fd_sc_mcu7t5v0__oai221_1
*I *1628:B2 I *D gf180mcu_fd_sc_mcu7t5v0__aoi22_1
*I *1245:I I *D gf180mcu_fd_sc_mcu7t5v0__clkinv_1
*I *1519:A1 I *D gf180mcu_fd_sc_mcu7t5v0__nand4_1
*I *1653:Q O *D gf180mcu_fd_sc_mcu7t5v0__dffq_1
*CAP
1 *1315:B2 0.000175012
2 *1628:B2 0.00127485
3 *1245:I 0.000176176
4 *1519:A1 0.000122118
5 *1653:Q 0
6 *553:38 0.0025397
7 *553:12 0.000790674
8 *553:6 0.00158222
9 *1628:B2 *578:143 0.000193905
10 *1313:A1 *553:38 9.42457e-05
11 *1315:C *553:38 8.00142e-06
12 *1318:A1 *553:38 9.96631e-05
13 *1318:A2 *1315:B2 1.32276e-05
14 *1318:A2 *1628:B2 0.000115266
15 *1377:A4 *1628:B2 0
16 *1520:A1 *1519:A1 2.63271e-05
17 *1520:A1 *553:12 5.31148e-05
18 *1523:A2 *1519:A1 3.4596e-05
19 *1628:A1 *1628:B2 8.16884e-06
20 *1628:B1 *1628:B2 2.45959e-05
21 *1648:A1 *553:38 2.31204e-05
22 *1649:B *553:38 0
23 *1654:D *1245:I 4.15112e-05
24 *1654:D *1519:A1 0.000321737
25 *1654:D *553:12 7.02771e-05
26 *1742:I *553:12 0.000137348
27 *1778:I *553:38 0
28 *1788:I *1628:B2 0.00147846
29 *1790:I *1628:B2 0.000316705
30 *1802:I *1628:B2 0.000179799
31 *121:10 *553:12 7.76861e-06
32 *121:10 *553:38 9.6017e-06
33 *152:31 *553:38 9.03002e-05
34 *176:20 *1315:B2 0.000113027
35 *179:75 *1315:B2 1.95797e-05
36 *179:90 *1315:B2 3.14315e-05
37 *186:12 *553:38 0.000191955
38 *316:115 *1519:A1 0.000106112
39 *316:115 *553:12 6.18411e-06
40 *361:28 *553:12 0.000651459
41 *361:36 *1519:A1 1.90528e-05
42 *361:36 *553:38 0
43 *425:53 *1628:B2 1.91479e-06
44 *471:72 *1628:B2 0.00125814
45 *475:39 *1245:I 3.30734e-06
46 *487:175 *1519:A1 0.000259344
47 *488:109 *553:12 0.000211851
48 *488:109 *553:38 0.000646275
49 *491:30 *1315:B2 0.000407688
50 *491:30 *1628:B2 0.000694775
51 *491:34 *1628:B2 0.00214975
52 *491:49 *1628:B2 0.00031493
53 *492:251 *1628:B2 1.85702e-06
54 *492:282 *1245:I 0
55 *492:282 *553:12 0
*RES
1 *1653:Q *553:6 9 
2 *553:6 *553:12 9.492 
3 *553:12 *1519:A1 15.164 
4 *553:12 *1245:I 5.54 
5 *553:6 *553:38 13.132 
6 *553:38 *1628:B2 30.14 
7 *553:38 *1315:B2 6.268 
*END

*D_NET *554 0.0170152
*CONN
*I *1650:A1 I *D gf180mcu_fd_sc_mcu7t5v0__nand2_1
*I *1521:I1 I *D gf180mcu_fd_sc_mcu7t5v0__mux2_2
*I *1630:B2 I *D gf180mcu_fd_sc_mcu7t5v0__aoi22_1
*I *1345:A1 I *D gf180mcu_fd_sc_mcu7t5v0__oai22_1
*I *1244:I I *D gf180mcu_fd_sc_mcu7t5v0__clkinv_1
*I *1654:Q O *D gf180mcu_fd_sc_mcu7t5v0__dffq_1
*CAP
1 *1650:A1 0.000204782
2 *1521:I1 0
3 *1630:B2 0.000430437
4 *1345:A1 4.46666e-05
5 *1244:I 0.000201543
6 *1654:Q 0
7 *554:34 0.00117524
8 *554:19 0.00194823
9 *554:6 0.00167629
10 *554:4 0.000520779
11 *1630:B2 *1376:B2 6.14449e-05
12 *1630:B2 *1522:I1 4.08012e-05
13 *1630:B2 *555:49 1.76416e-05
14 *1630:B2 *555:66 6.2192e-05
15 *1630:B2 *559:28 3.14958e-05
16 *554:19 *1366:B2 0
17 *554:34 *555:8 0
18 *554:34 *555:49 0
19 *554:34 *559:28 2.39077e-05
20 *1285:A4 *554:19 0.000251178
21 *1344:A1 *554:19 0.00220713
22 *1345:B1 *1345:A1 0.000178559
23 *1347:A1 *1345:A1 0.000245653
24 *1347:A2 *554:19 0.000226194
25 *1347:A2 *554:34 3.48225e-05
26 *1348:I0 *554:34 0.000355286
27 *1363:S *554:19 4.54572e-05
28 *1369:B2 *554:19 0.000115856
29 *1376:A2 *554:34 0.000204669
30 *1376:B1 *1630:B2 3.7112e-05
31 *1376:B1 *554:34 0.00072101
32 *1479:A2 *554:19 0.000100846
33 *1479:A2 *554:34 2.31961e-05
34 *1635:A1 *1630:B2 0.000308288
35 *1635:A1 *554:34 0.00022194
36 *1649:A2 *1244:I 3.79525e-05
37 *1649:A2 *554:6 3.08182e-06
38 *1651:A1 *554:6 2.30094e-05
39 *1651:B *1650:A1 1.57479e-05
40 *1651:B *554:6 8.30301e-05
41 *1651:C *1650:A1 2.57864e-05
42 *1655:D *1630:B2 4.07478e-05
43 *1655:CLK *1630:B2 0.000410048
44 *1657:D *1650:A1 0.000136892
45 *1657:D *554:6 4.6294e-05
46 *1703:CLK *1650:A1 0
47 *1711:D *554:34 0.00101294
48 *131:12 *1650:A1 8.16884e-06
49 *141:112 *1345:A1 9.7618e-05
50 *141:120 *554:19 0.000488136
51 *141:140 *554:19 7.17651e-05
52 *141:140 *554:34 0.00135105
53 *141:151 *554:34 0.000525881
54 *152:52 *554:19 0.000122905
55 *158:25 *1650:A1 4.07478e-05
56 *160:12 *1244:I 0.000251489
57 *160:12 *554:6 0.000126301
58 *208:54 *554:19 5.015e-05
59 *434:20 *1630:B2 5.7109e-05
60 *507:12 *1630:B2 0.000271753
*RES
1 *1654:Q *554:4 4.5 
2 *554:4 *554:6 2.392 
3 *554:6 *1244:I 6.58 
4 *554:6 *554:19 15.836 
5 *554:19 *1345:A1 9.728 
6 *554:19 *554:34 14.9 
7 *554:34 *1630:B2 18.18 
8 *554:34 *1521:I1 4.5 
9 *554:4 *1650:A1 15.06 
*END

*D_NET *555 0.0313067
*CONN
*I *1521:I0 I *D gf180mcu_fd_sc_mcu7t5v0__mux2_2
*I *1522:I1 I *D gf180mcu_fd_sc_mcu7t5v0__mux2_2
*I *1632:B2 I *D gf180mcu_fd_sc_mcu7t5v0__aoi22_1
*I *1350:A1 I *D gf180mcu_fd_sc_mcu7t5v0__oai22_1
*I *1288:A2 I *D gf180mcu_fd_sc_mcu7t5v0__oai21_1
*I *1402:A4 I *D gf180mcu_fd_sc_mcu7t5v0__nor4_1
*I *1655:Q O *D gf180mcu_fd_sc_mcu7t5v0__dffq_1
*CAP
1 *1521:I0 0
2 *1522:I1 0.00145496
3 *1632:B2 0.000230378
4 *1350:A1 1.55601e-05
5 *1288:A2 0.00191188
6 *1402:A4 0.00316408
7 *1655:Q 0
8 *555:66 0.00162662
9 *555:49 0.00087499
10 *555:12 0.00542025
11 *555:8 0.000487554
12 *555:6 0.000600649
13 *1288:A2 *1415:A2 0
14 *1288:A2 *557:12 0.000218508
15 *1350:A1 *560:58 0.000113016
16 *1402:A4 *1415:A2 0
17 *1522:I1 *1376:A1 0.000712385
18 *1522:I1 *558:38 0.000427061
19 *1522:I1 *559:12 0
20 *555:12 *1315:A1 3.05273e-05
21 *555:12 *1477:I2 0.000262946
22 *555:12 *1770:I 0.00122871
23 *555:12 *578:66 0.000271764
24 *555:12 *578:68 0.000912085
25 *555:12 *578:70 0.0010402
26 *1299:A1 *1288:A2 1.07369e-05
27 *1349:A1 *1288:A2 0.000251178
28 *1352:A1 *555:8 8.69612e-05
29 *1352:A1 *555:49 0.000288814
30 *1352:A1 *555:66 3.11112e-05
31 *1363:S *1288:A2 0.000103788
32 *1366:C *1288:A2 0.000152123
33 *1376:A2 *1350:A1 2.46717e-05
34 *1376:A2 *555:8 2.17601e-05
35 *1376:A2 *555:49 8.95068e-06
36 *1376:B1 *1522:I1 3.17547e-05
37 *1479:A2 *555:12 0.000150584
38 *1521:S *1632:B2 2.24654e-05
39 *1522:S *1522:I1 0.00397647
40 *1630:B2 *1522:I1 4.08012e-05
41 *1630:B2 *555:49 1.76416e-05
42 *1630:B2 *555:66 6.2192e-05
43 *1632:A1 *1522:I1 3.04205e-05
44 *1632:A1 *555:66 0.000569975
45 *1635:A1 *1632:B2 2.57742e-05
46 *1635:A1 *555:49 0.000102348
47 *1655:CLK *1522:I1 4.77265e-05
48 *1695:D *1288:A2 0.000401831
49 *1698:D *1522:I1 3.8552e-05
50 *1709:D *1402:A4 2.00339e-05
51 *1711:D *555:8 0
52 *1711:D *555:12 0
53 *1738:I *1402:A4 0.000858727
54 *1769:I *1522:I1 0.0008533
55 *1769:I *555:66 0.000560747
56 *159:8 *1288:A2 4.18042e-05
57 *176:83 *1350:A1 1.71326e-05
58 *176:83 *555:8 6.40967e-05
59 *176:83 *555:12 0.000119391
60 *179:107 *1288:A2 0.000271753
61 *434:20 *1632:B2 0.000135894
62 *434:20 *555:66 9.52686e-05
63 *479:24 *1522:I1 0.000171397
64 *479:50 *1522:I1 0.000110557
65 *492:435 *1632:B2 1.78817e-06
66 *492:442 *1632:B2 2.12509e-05
67 *507:12 *1522:I1 0
68 *509:14 *1522:I1 0.000279852
69 *510:10 *1522:I1 0.00018099
70 *554:34 *555:8 0
71 *554:34 *555:49 0
*RES
1 *1655:Q *555:6 9 
2 *555:6 *555:8 1.352 
3 *555:8 *555:12 11.052 
4 *555:12 *1402:A4 32.74 
5 *555:12 *1288:A2 26.5 
6 *555:8 *1350:A1 9.312 
7 *555:6 *555:49 3.64 
8 *555:49 *1632:B2 10.664 
9 *555:49 *555:66 7.204 
10 *555:66 *1522:I1 39.036 
11 *555:66 *1521:I0 4.5 
*END

*D_NET *556 0.0555186
*CONN
*I *1522:I0 I *D gf180mcu_fd_sc_mcu7t5v0__mux2_2
*I *1291:A1 I *D gf180mcu_fd_sc_mcu7t5v0__nand2_1
*I *1523:A1 I *D gf180mcu_fd_sc_mcu7t5v0__nand4_1
*I *1634:B2 I *D gf180mcu_fd_sc_mcu7t5v0__aoi22_1
*I *1355:A1 I *D gf180mcu_fd_sc_mcu7t5v0__oai22_1
*I *1406:A4 I *D gf180mcu_fd_sc_mcu7t5v0__nor4_1
*I *1656:Q O *D gf180mcu_fd_sc_mcu7t5v0__dffq_1
*CAP
1 *1522:I0 0.000733168
2 *1291:A1 0
3 *1523:A1 0.0011642
4 *1634:B2 0.000463259
5 *1355:A1 0
6 *1406:A4 0.00273783
7 *1656:Q 3.6366e-05
8 *556:69 0.00199546
9 *556:18 0.00335361
10 *556:14 0.00187885
11 *556:8 0.00174126
12 *556:6 0.000879727
13 *1406:A4 *1420:A2 3.12171e-05
14 *1406:A4 *560:58 0.000326614
15 *1406:A4 *578:43 1.79159e-05
16 *1522:I0 *558:38 0.000374809
17 *556:8 *1478:I1 0.000804017
18 *556:14 *1478:I1 0.0018832
19 *556:14 *1770:I 1.77406e-05
20 *556:14 *560:58 0.00163485
21 *556:14 *574:10 0.000242172
22 *556:18 *1477:I1 0.000329258
23 *556:18 *560:58 0.00137139
24 *556:18 *578:62 0.000387186
25 DAT_O[3] *1634:B2 0.000690953
26 DAT_O[5] *556:14 0.00123322
27 DAT_O[6] *556:69 7.55588e-05
28 *1292:A3 *556:69 0.000175641
29 *1293:B *1523:A1 1.71324e-06
30 *1294:A2 *1523:A1 3.57634e-06
31 *1303:A2 *1523:A1 5.0164e-05
32 *1303:A2 *556:69 0.000649257
33 *1312:A3 *556:69 0.000182219
34 *1335:A2 *1406:A4 0.000841744
35 *1350:B1 *556:18 0.000705253
36 *1354:A1 *556:69 0.0010977
37 *1355:A2 *1406:A4 1.71326e-05
38 *1355:A2 *556:18 0.000513689
39 *1357:A2 *1406:A4 0.000175915
40 *1362:B *1406:A4 0
41 *1363:I0 *556:69 0.000419179
42 *1364:A2 *556:69 0.000456976
43 *1370:A1 *556:8 0.00022919
44 *1370:A1 *556:14 0.000251439
45 *1373:B *556:8 1.44438e-05
46 *1373:B *556:14 2.41846e-05
47 *1374:I0 *556:69 0.00154096
48 *1374:I1 *1522:I0 2.8555e-05
49 *1376:A2 *1522:I0 0
50 *1376:B1 *1634:B2 0.00388315
51 *1402:A2 *1406:A4 0.000292328
52 *1417:B1 *1406:A4 0.00115789
53 *1424:A3 *1406:A4 2.96776e-06
54 *1478:S1 *556:14 4.36934e-05
55 *1479:A2 *1523:A1 0.000202
56 *1483:A2 *1523:A1 7.05729e-05
57 *1522:S *1522:I0 0.000147775
58 *1634:A1 *1634:B2 2.81522e-06
59 *1641:A2 *1522:I0 0
60 *1641:A2 *556:69 0.0037615
61 *1647:A2 *1522:I0 0.000310591
62 *1649:A2 *1523:A1 0.00109959
63 *1697:D *556:69 0.000420931
64 *1698:D *1522:I0 0
65 *1700:D *1522:I0 0.00249583
66 *1702:D *1523:A1 0.000810773
67 *1705:D *1523:A1 0.000394679
68 *1705:CLK *1523:A1 0
69 *1753:I *1634:B2 0.000749404
70 *1789:I *1406:A4 2.05998e-05
71 *11:16 *556:69 0.00102115
72 *142:14 *1523:A1 0
73 *157:16 *1406:A4 2.76367e-05
74 *160:25 *1523:A1 0.00215683
75 *160:34 *1523:A1 0.000513858
76 *161:25 *1523:A1 0.000289523
77 *161:29 *1523:A1 0.000256274
78 *176:66 *556:18 0.000169691
79 *206:66 *1406:A4 1.5123e-05
80 *208:73 *1634:B2 0.000737657
81 *240:30 *1406:A4 0.000411111
82 *250:32 *1406:A4 1.39285e-05
83 *251:27 *1406:A4 8.59959e-05
84 *425:96 *1634:B2 4.4504e-06
85 *434:61 *1634:B2 0.00015007
86 *458:20 *1523:A1 3.20057e-06
87 *458:35 *1523:A1 2.78468e-05
88 *459:33 *1523:A1 0.000603632
89 *475:10 *1523:A1 0.000490213
90 *475:65 *1523:A1 0.000568633
91 *475:72 *1523:A1 0
92 *479:151 *1634:B2 0.000114373
93 *492:282 *1523:A1 0.000118427
94 *492:339 *1523:A1 7.79968e-05
95 *492:339 *556:69 6.96644e-06
96 *492:362 *556:69 4.14216e-06
*RES
1 *1656:Q *556:6 4.812 
2 *556:6 *556:8 2.184 
3 *556:8 *556:14 10.92 
4 *556:14 *556:18 8.736 
5 *556:18 *1406:A4 40.7 
6 *556:18 *1355:A1 4.5 
7 *556:14 *1634:B2 25.148 
8 *556:8 *556:69 30.972 
9 *556:69 *1523:A1 35.992 
10 *556:69 *1291:A1 9 
11 *556:6 *1522:I0 21.612 
*END

*D_NET *557 0.0266246
*CONN
*I *1525:I1 I *D gf180mcu_fd_sc_mcu7t5v0__mux2_2
*I *1254:I I *D gf180mcu_fd_sc_mcu7t5v0__clkinv_1
*I *1636:B2 I *D gf180mcu_fd_sc_mcu7t5v0__aoi22_1
*I *1360:A1 I *D gf180mcu_fd_sc_mcu7t5v0__oai22_1
*I *1657:Q O *D gf180mcu_fd_sc_mcu7t5v0__dffq_1
*CAP
1 *1525:I1 0.00128199
2 *1254:I 0
3 *1636:B2 0.00076273
4 *1360:A1 6.89333e-05
5 *1657:Q 7.05112e-06
6 *557:42 0.00162754
7 *557:12 0.00159095
8 *557:6 0.00111188
9 *1525:I1 *1302:A1 6.85773e-05
10 *1525:I1 *1527:I0 0.000127857
11 STB_O *1636:B2 0.00140246
12 *1288:A2 *557:12 0.000218508
13 *1288:B *557:42 4.18042e-05
14 *1295:A1 *1525:I1 1.38904e-05
15 *1297:A3 *1525:I1 0.000163714
16 *1300:A1 *1525:I1 0.000218318
17 *1312:A2 *557:12 4.68812e-05
18 *1349:A1 *557:12 3.33615e-05
19 *1362:A1 *557:12 0
20 *1362:A2 *1360:A1 0.000218453
21 *1362:A2 *1636:B2 0.000402538
22 *1365:A2 *557:12 4.54968e-05
23 *1366:C *557:12 0.000788826
24 *1370:A2 *1636:B2 0.000270931
25 *1378:A2 *1636:B2 9.17624e-05
26 *1525:S *1525:I1 0.000921209
27 *1636:A1 *1636:B2 0.00574047
28 *1641:A1 *1525:I1 0.000257114
29 *1695:D *557:42 0.000143458
30 *1697:D *1525:I1 0.000178559
31 *1707:CLK *557:42 0.00052233
32 *1714:D *557:12 0.000116218
33 *1737:I *1525:I1 6.99789e-05
34 *1810:I *1525:I1 0.000529025
35 *112:16 *1525:I1 0.000340797
36 *142:50 *557:42 3.99388e-05
37 *142:60 *557:6 5.13977e-05
38 *142:60 *557:42 0.000117701
39 *161:25 *1525:I1 0.000699142
40 *219:28 *557:6 0.000113016
41 *219:28 *557:42 0.000839788
42 *434:74 *1636:B2 1.71326e-05
43 *434:81 *1636:B2 7.46298e-05
44 *439:22 *1636:B2 0.000384099
45 *459:12 *557:42 7.05729e-05
46 *461:12 *557:42 5.57549e-06
47 *478:12 *1636:B2 0.000164897
48 *492:362 *1525:I1 0.000263703
49 *504:46 *1525:I1 0.000168602
50 *509:14 *1636:B2 0.00250758
51 *519:29 *1360:A1 0.00057304
52 *519:29 *1636:B2 0.00111016
*RES
1 *1657:Q *557:6 4.812 
2 *557:6 *557:12 15.552 
3 *557:12 *1360:A1 6.06 
4 *557:12 *1636:B2 34.82 
5 *557:6 *557:42 13.576 
6 *557:42 *1254:I 4.5 
7 *557:42 *1525:I1 26.916 
*END

*D_NET *558 0.0405856
*CONN
*I *1638:B2 I *D gf180mcu_fd_sc_mcu7t5v0__aoi22_1
*I *1526:I1 I *D gf180mcu_fd_sc_mcu7t5v0__mux2_2
*I *1415:A2 I *D gf180mcu_fd_sc_mcu7t5v0__nand2_1
*I *1366:B2 I *D gf180mcu_fd_sc_mcu7t5v0__oai221_1
*I *1525:I0 I *D gf180mcu_fd_sc_mcu7t5v0__mux2_2
*I *1296:A1 I *D gf180mcu_fd_sc_mcu7t5v0__nand2_1
*I *1658:Q O *D gf180mcu_fd_sc_mcu7t5v0__dffq_1
*CAP
1 *1638:B2 0.000291303
2 *1526:I1 0
3 *1415:A2 0.0027995
4 *1366:B2 0.000267169
5 *1525:I0 0.000129722
6 *1296:A1 9.73158e-05
7 *1658:Q 0
8 *558:54 0.00415404
9 *558:48 0.00192276
10 *558:38 0.00177232
11 *558:14 0.00145203
12 *558:6 0.00187062
13 *558:14 *560:16 3.80871e-05
14 *558:14 *560:20 0.000295188
15 *558:38 *1376:A1 0.000139731
16 *558:38 *560:16 0.000302697
17 *558:48 *559:28 0.000525747
18 *558:54 *559:28 0.000367043
19 *558:54 *578:102 0.000405311
20 CYC_O *1638:B2 0.00206643
21 DAT_O[3] *558:48 1.76416e-05
22 DAT_O[3] *558:54 0.000604992
23 *1288:A2 *1415:A2 0
24 *1295:A1 *1525:I0 0.000263467
25 *1296:A2 *558:14 0.000208184
26 *1297:A2 *1525:I0 0.000238795
27 *1297:A2 *558:14 4.10047e-05
28 *1297:A3 *1296:A1 0.000976457
29 *1297:A3 *558:14 0.000148572
30 *1301:A2 *1525:I0 3.4596e-05
31 *1301:A2 *558:14 0.000271022
32 *1363:S *1366:B2 0.000317308
33 *1366:A2 *1366:B2 9.96291e-05
34 *1366:A2 *558:54 6.78557e-05
35 *1369:A2 *1366:B2 9.86854e-07
36 *1369:A2 *558:54 2.25594e-05
37 *1374:I1 *558:38 0.000462148
38 *1374:I1 *558:48 0.000245423
39 *1374:S *558:48 0.000148093
40 *1376:A2 *1638:B2 9.8708e-05
41 *1378:A2 *1638:B2 0.000125262
42 *1388:A4 *1415:A2 9.57756e-06
43 *1402:A4 *1415:A2 0
44 *1482:A1 *1296:A1 0.000211125
45 *1484:A2 *1296:A1 0.000602924
46 *1485:A1 *1296:A1 5.71865e-05
47 *1522:I0 *558:38 0.000374809
48 *1522:I1 *558:38 0.000427061
49 *1522:S *558:38 0.000203655
50 *1522:S *558:48 0.000131001
51 *1526:S *558:54 0.000670559
52 *1632:A1 *558:48 0.00148756
53 *1641:A2 *1638:B2 1.53275e-05
54 *1642:A2 *558:38 5.29249e-05
55 *1643:A2 *558:38 0.000209016
56 *1656:D *558:38 0.000355296
57 *1696:D *1638:B2 7.75437e-05
58 *1697:D *1638:B2 0.0011582
59 *1706:CLK *558:14 0.000542895
60 *1709:D *1415:A2 0.000436945
61 *1715:D *558:48 0.000112449
62 *1738:I *1415:A2 0.000700148
63 *1745:I *558:54 0.000265775
64 *1779:I *558:14 0.000317218
65 *1808:I *558:14 0.000307807
66 *142:222 *1415:A2 0.000180208
67 *176:20 *1415:A2 0.000856256
68 *176:41 *1366:B2 2.64063e-05
69 *176:45 *1366:B2 2.90205e-05
70 *176:45 *558:54 1.73931e-05
71 *176:58 *558:54 8.38125e-05
72 *179:107 *1366:B2 3.45498e-05
73 *208:77 *558:54 0.000730725
74 *208:96 *558:48 0.000952868
75 *208:96 *558:54 0.00042529
76 *241:33 *1415:A2 1.90528e-05
77 *459:33 *558:14 0.000237086
78 *460:10 *558:14 2.47495e-05
79 *462:12 *558:14 0.00101122
80 *462:18 *558:14 0.000107648
81 *478:62 *558:14 0.00142933
82 *478:82 *558:14 0.000979396
83 *479:50 *558:38 0.000501776
84 *491:30 *1415:A2 9.37307e-05
85 *511:14 *558:14 0.000684329
86 *511:14 *558:38 2.2404e-05
87 *519:29 *558:14 0.000121613
88 *554:19 *1366:B2 0
*RES
1 *1658:Q *558:6 9 
2 *558:6 *558:14 24.988 
3 *558:14 *1296:A1 16.516 
4 *558:14 *1525:I0 6.476 
5 *558:6 *558:38 13.444 
6 *558:38 *558:48 14.068 
7 *558:48 *558:54 12.792 
8 *558:54 *1366:B2 11.288 
9 *558:54 *1415:A2 38.176 
10 *558:48 *1526:I1 9 
11 *558:38 *1638:B2 19.532 
*END

*D_NET *559 0.0481484
*CONN
*I *1640:B2 I *D gf180mcu_fd_sc_mcu7t5v0__aoi22_1
*I *1527:I1 I *D gf180mcu_fd_sc_mcu7t5v0__mux2_2
*I *1299:A2 I *D gf180mcu_fd_sc_mcu7t5v0__nor2_1
*I *1526:I0 I *D gf180mcu_fd_sc_mcu7t5v0__mux2_2
*I *1420:A2 I *D gf180mcu_fd_sc_mcu7t5v0__nand2_1
*I *1371:A1 I *D gf180mcu_fd_sc_mcu7t5v0__oai22_1
*I *1659:Q O *D gf180mcu_fd_sc_mcu7t5v0__dffq_1
*CAP
1 *1640:B2 0.000114191
2 *1527:I1 0
3 *1299:A2 0.000712334
4 *1526:I0 0
5 *1420:A2 0.00183576
6 *1371:A1 0.000231483
7 *1659:Q 0
8 *559:83 0.00166828
9 *559:77 0.00111976
10 *559:28 0.00287596
11 *559:12 0.00256254
12 *559:4 0.00180344
13 *1371:A1 *578:62 0.000110557
14 *1420:A2 *1439:A2 0.00193377
15 *1420:A2 *560:58 0.00146919
16 *1420:A2 *578:43 0.00128401
17 *1420:A2 *578:62 0.00160106
18 *559:12 *1771:I 0.000155513
19 *559:28 *578:62 0.000107648
20 DAT_O[3] *559:28 1.42358e-05
21 DAT_O[4] *559:12 0.000894438
22 *1292:A3 *1299:A2 1.29933e-05
23 *1297:A1 *1299:A2 1.91879e-05
24 *1297:A2 *1299:A2 0.000324136
25 *1352:A1 *559:28 0.000454372
26 *1353:I0 *559:28 5.47338e-06
27 *1354:A1 *1299:A2 8.01745e-05
28 *1355:B1 *1420:A2 0.000480985
29 *1358:S *559:28 0.00165941
30 *1371:A2 *1371:A1 0.000157249
31 *1373:B *1371:A1 0.000106926
32 *1374:I1 *559:83 0.000125353
33 *1406:A4 *1420:A2 3.12171e-05
34 *1407:B *1420:A2 8.56628e-05
35 *1424:A3 *1420:A2 0
36 *1521:S *1371:A1 0.000121749
37 *1521:S *559:28 0.000472709
38 *1522:I1 *559:12 0
39 *1526:S *559:28 0.000100567
40 *1630:B2 *559:28 3.14958e-05
41 *1632:A1 *559:28 0.00017298
42 *1635:A1 *559:28 0.000509916
43 *1640:A1 *1640:B2 1.60338e-05
44 *1640:A1 *559:83 0.00492386
45 *1640:B1 *559:12 9.8328e-06
46 *1641:A2 *559:12 0.000156281
47 *1655:D *559:28 3.26676e-05
48 *1658:D *559:83 0.00116981
49 *1660:D *559:83 0.000335803
50 *1660:CLK *559:83 2.76472e-05
51 *1697:D *559:12 1.96837e-05
52 *1698:D *559:12 0.00162363
53 *1698:D *559:77 0.00010994
54 *1700:D *559:12 0.00011444
55 *1706:D *1299:A2 2.19015e-05
56 *1743:I *1420:A2 0.000417865
57 *1744:I *1420:A2 0.000125956
58 *1766:I *559:12 3.68942e-05
59 *1779:I *559:83 0.000363355
60 *1784:I *1420:A2 0.000272942
61 *1786:I *1420:A2 0.000100856
62 *1787:I *1420:A2 0.000557671
63 *1788:I *1420:A2 3.89795e-05
64 *1799:I *1420:A2 0.00033778
65 *1801:I *1299:A2 0.000182219
66 *1809:I *559:83 1.81996e-05
67 *1810:I *559:83 0.00281547
68 *11:16 *1299:A2 3.74551e-05
69 *140:16 *1371:A1 1.23478e-05
70 *176:83 *1371:A1 0.000157918
71 *176:83 *559:28 7.92185e-06
72 *206:42 *1420:A2 0.000355296
73 *206:53 *1420:A2 0.000871759
74 *206:66 *1420:A2 0.000207544
75 *219:28 *1299:A2 7.23206e-05
76 *241:12 *1420:A2 1.53192e-05
77 *241:23 *1420:A2 0.000707532
78 *241:79 *1420:A2 0.00133495
79 *471:86 *1420:A2 3.64336e-05
80 *476:61 *1420:A2 0.000191025
81 *478:117 *1371:A1 1.35124e-05
82 *479:32 *559:12 0.000476827
83 *479:32 *559:28 0.000498816
84 *492:228 *1420:A2 2.46717e-05
85 *492:442 *559:28 9.95226e-05
86 *504:46 *1299:A2 0.00195208
87 *507:12 *559:12 0.000387113
88 *508:8 *559:12 0.000179369
89 *509:14 *559:12 7.65764e-05
90 *510:10 *559:12 5.15657e-05
91 *512:10 *559:83 0.00018736
92 *554:34 *559:28 2.39077e-05
93 *558:48 *559:28 0.000525747
94 *558:54 *559:28 0.000367043
*RES
1 *1659:Q *559:4 4.5 
2 *559:4 *559:12 24.6 
3 *559:12 *559:28 25.044 
4 *559:28 *1371:A1 11.704 
5 *559:28 *1420:A2 44.728 
6 *559:12 *1526:I0 4.5 
7 *559:4 *559:77 0.624 
8 *559:77 *559:83 31.152 
9 *559:83 *1299:A2 11.78 
10 *559:83 *1527:I1 4.5 
11 *559:77 *1640:B2 5.54 
*END

*D_NET *560 0.0402465
*CONN
*I *1642:B2 I *D gf180mcu_fd_sc_mcu7t5v0__aoi22_1
*I *1376:A1 I *D gf180mcu_fd_sc_mcu7t5v0__oai22_1
*I *1425:B2 I *D gf180mcu_fd_sc_mcu7t5v0__oai32_1
*I *1527:I0 I *D gf180mcu_fd_sc_mcu7t5v0__mux2_2
*I *1302:A1 I *D gf180mcu_fd_sc_mcu7t5v0__nand2_1
*I *1660:Q O *D gf180mcu_fd_sc_mcu7t5v0__dffq_1
*CAP
1 *1642:B2 0
2 *1376:A1 0.000800336
3 *1425:B2 0
4 *1527:I0 0.000319544
5 *1302:A1 0.000434701
6 *1660:Q 0.000201057
7 *560:58 0.00264076
8 *560:20 0.00141783
9 *560:16 0.00338043
10 *560:14 0.000952247
11 *560:10 0.000276891
12 *1376:A1 *1776:I 0.000145572
13 *560:10 *1776:I 5.77431e-06
14 *560:16 *1776:I 0.000956984
15 *560:20 *1776:I 0.000187579
16 *560:20 *573:12 0.000747002
17 *560:58 *1439:A2 0.00193377
18 *560:58 *1478:I1 0.000972487
19 *560:58 *1774:I 9.91018e-05
20 *560:58 *578:43 0.00124941
21 *1296:A2 *1302:A1 9.62682e-06
22 *1296:A2 *1527:I0 5.19714e-05
23 *1297:A2 *560:20 0.000714406
24 *1303:A2 *1527:I0 3.39247e-06
25 *1350:A1 *560:58 0.000113016
26 *1350:B1 *560:58 0.000705253
27 *1353:S *560:58 0
28 *1355:B1 *560:58 0.000490202
29 *1357:A2 *560:58 0.000249421
30 *1364:A2 *560:20 0.00181699
31 *1376:A2 *560:58 0.0001119
32 *1406:A4 *560:58 0.000326614
33 *1420:A2 *560:58 0.00146919
34 *1424:A3 *560:58 0.000426955
35 *1482:A1 *1527:I0 0
36 *1522:I1 *1376:A1 0.000712385
37 *1525:I1 *1302:A1 6.85773e-05
38 *1525:I1 *1527:I0 0.000127857
39 *1610:A1 *560:58 0.000420054
40 *1637:A1 *1302:A1 0.000169863
41 *1641:A1 *1302:A1 0.000324146
42 *1642:A1 *560:10 0.000213983
43 *1642:A2 *1376:A1 8.9207e-06
44 *1642:A2 *560:10 1.85523e-05
45 *1642:A2 *560:14 6.18411e-06
46 *1642:B1 *560:10 0.000158666
47 *1647:A2 *560:20 0.000469872
48 *1656:D *1376:A1 0.000345387
49 *1697:D *1302:A1 2.91549e-05
50 *1700:D *1376:A1 0.000798048
51 *1700:D *560:20 0.00184014
52 *1711:D *560:58 0.000263358
53 *1715:CLK *560:10 0.000479861
54 *1715:CLK *560:14 0.000257625
55 *1728:CLK *560:58 0.00258599
56 *1779:I *1376:A1 2.37223e-05
57 *1810:I *1527:I0 1.12327e-05
58 *112:16 *1302:A1 0.000474513
59 *158:25 *1302:A1 0.000113027
60 *158:36 *1302:A1 0.000159896
61 *176:83 *560:58 1.26446e-05
62 *425:133 *1376:A1 0.000159505
63 *425:144 *1376:A1 0.000112585
64 *434:108 *1376:A1 2.08795e-05
65 *462:12 *560:20 0.000788078
66 *471:86 *560:58 1.74409e-05
67 *476:61 *560:58 0.000560736
68 *478:10 *560:58 0.000198449
69 *478:82 *560:20 7.577e-05
70 *479:50 *1376:A1 3.63356e-05
71 *479:63 *1376:A1 0.000178778
72 *492:362 *1302:A1 0.000151378
73 *492:465 *1376:A1 0.000714013
74 *509:14 *560:58 0.000146537
75 *556:14 *560:58 0.00163485
76 *556:18 *560:58 0.00137139
77 *558:14 *560:16 3.80871e-05
78 *558:14 *560:20 0.000295188
79 *558:38 *1376:A1 0.000139731
80 *558:38 *560:16 0.000302697
*RES
1 *1660:Q *560:10 7.1 
2 *560:10 *560:14 5.228 
3 *560:14 *560:16 2.6 
4 *560:16 *560:20 20.204 
5 *560:20 *1302:A1 9.388 
6 *560:20 *1527:I0 6.788 
7 *560:16 *560:58 48.028 
8 *560:58 *1425:B2 4.5 
9 *560:14 *1376:A1 19.192 
10 *560:10 *1642:B2 4.5 
*END

*D_NET *561 0.0102784
*CONN
*I *1383:A4 I *D gf180mcu_fd_sc_mcu7t5v0__and4_1
*I *1279:A2 I *D gf180mcu_fd_sc_mcu7t5v0__nand2_1
*I *1544:B I *D gf180mcu_fd_sc_mcu7t5v0__aoi21_1
*I *1546:A1 I *D gf180mcu_fd_sc_mcu7t5v0__nand4_1
*I *1384:A4 I *D gf180mcu_fd_sc_mcu7t5v0__nand4_1
*I *1663:Q O *D gf180mcu_fd_sc_mcu7t5v0__dffq_1
*CAP
1 *1383:A4 0.000211542
2 *1279:A2 0.000313765
3 *1544:B 0.000155194
4 *1546:A1 6.92312e-05
5 *1384:A4 0
6 *1663:Q 0.000342319
7 *561:29 0.00111139
8 *561:23 0.00124744
9 *561:21 0.000407134
10 *561:8 0.000491202
11 *561:21 *581:14 0.000146142
12 *1279:A1 *1279:A2 0.000793387
13 *1279:A1 *561:21 2.46717e-05
14 *1384:A2 *561:21 6.64442e-05
15 *1398:A1 *1279:A2 0.000874882
16 *1398:A1 *561:8 0.000701403
17 *1398:A1 *561:21 0.000132315
18 *1434:A1 *1279:A2 1.57479e-05
19 *1434:A3 *1279:A2 0.000155257
20 *1434:A3 *1383:A4 1.41697e-05
21 *1434:A3 *561:21 0
22 *1543:I1 *561:29 0
23 *1543:S *561:29 0
24 *1544:A1 *1544:B 0.000159505
25 *1546:A2 *561:29 1.12327e-05
26 *1547:A2 *1544:B 6.69964e-05
27 *1567:A1 *1544:B 1.85523e-05
28 *1567:A1 *1546:A1 2.36218e-05
29 *1567:A1 *561:29 6.18411e-06
30 *1725:D *1383:A4 0
31 *1725:D *561:23 0
32 *1725:D *561:29 0
33 *128:29 *561:8 0.000144165
34 *143:12 *1383:A4 1.78561e-06
35 *143:12 *561:23 2.96915e-06
36 *143:12 *561:29 1.72254e-05
37 *143:31 *1383:A4 0.000262946
38 *143:31 *561:21 0.000368937
39 *143:46 *1383:A4 7.50694e-05
40 *244:10 *1383:A4 3.71022e-05
41 *447:131 *1383:A4 0.000194511
42 *473:12 *561:29 0
43 *484:91 *1544:B 0.00111762
44 *484:91 *561:29 0.000113016
45 *552:8 *561:8 0.0002623
46 *552:8 *561:21 2.78695e-05
47 *552:25 *1383:A4 5.13977e-05
48 *552:32 *1383:A4 4.18042e-05
*RES
1 *1663:Q *561:8 9.492 
2 *561:8 *1384:A4 4.5 
3 *561:8 *561:21 6.892 
4 *561:21 *561:23 0.312 
5 *561:23 *561:29 10.532 
6 *561:29 *1546:A1 5.436 
7 *561:29 *1544:B 7.516 
8 *561:23 *1279:A2 12.952 
9 *561:21 *1383:A4 11.288 
*END

*D_NET *562 0.00359284
*CONN
*I *1777:I I *D gf180mcu_fd_sc_mcu7t5v0__dlyc_1
*I *1664:Q O *D gf180mcu_fd_sc_mcu7t5v0__dffq_1
*CAP
1 *1777:I 0.000966301
2 *1664:Q 0.000966301
3 *1395:C *1777:I 0
4 *1397:A2 *1777:I 0.000103788
5 *1717:D *1777:I 0
6 *447:10 *1777:I 3.3698e-05
7 *447:19 *1777:I 2.6666e-05
8 *447:47 *1777:I 0.000479555
9 *448:8 *1777:I 1.77406e-05
10 *448:14 *1777:I 0.000207578
11 *448:27 *1777:I 0.000498886
12 *473:37 *1777:I 0.000292328
*RES
1 *1664:Q *1777:I 26.528 
*END

*D_NET *563 0.0274635
*CONN
*I *1257:I I *D gf180mcu_fd_sc_mcu7t5v0__clkinv_1
*I *1538:A4 I *D gf180mcu_fd_sc_mcu7t5v0__nand4_1
*I *1532:A3 I *D gf180mcu_fd_sc_mcu7t5v0__nand4_1
*I *1471:A2 I *D gf180mcu_fd_sc_mcu7t5v0__nand2_1
*I *1539:A3 I *D gf180mcu_fd_sc_mcu7t5v0__nand4_1
*I *1534:A2 I *D gf180mcu_fd_sc_mcu7t5v0__nand4_1
*I *1531:A3 I *D gf180mcu_fd_sc_mcu7t5v0__and4_1
*I *1549:A2 I *D gf180mcu_fd_sc_mcu7t5v0__aoi21_1
*I *1731:Q O *D gf180mcu_fd_sc_mcu7t5v0__dffq_1
*CAP
1 *1257:I 0
2 *1538:A4 0
3 *1532:A3 0
4 *1471:A2 0.000345605
5 *1539:A3 4.55526e-05
6 *1534:A2 2.54919e-05
7 *1531:A3 4.61949e-05
8 *1549:A2 0.000342112
9 *1731:Q 0.00244717
10 *563:107 0.000571617
11 *563:96 0.000378615
12 *563:90 0.000391321
13 *563:86 0.00100704
14 *563:48 0.000491318
15 *563:44 0.00139416
16 *563:34 0.00294994
17 *1455:A1 *563:34 0.00016643
18 *1458:A2 *563:86 1.67997e-06
19 *1460:A2 *563:34 0
20 *1470:A1 *563:44 0.000182219
21 *1470:A2 *563:44 1.18091e-06
22 *1471:A1 *1471:A2 0.000222127
23 *1474:A2 *563:44 0.000284978
24 *1474:A2 *563:48 0.000108635
25 *1475:A3 *1549:A2 0.000139572
26 *1475:A3 *563:86 0.000187638
27 *1476:A1 *563:34 5.50873e-05
28 *1476:A1 *563:44 5.20345e-05
29 *1476:A1 *563:86 2.11079e-05
30 *1507:A1 *563:34 0.000314673
31 *1507:A2 *563:34 0.000381978
32 *1510:A1 *563:34 0.000662298
33 *1531:A4 *1531:A3 0.000258929
34 *1531:A4 *563:86 3.65817e-05
35 *1532:A4 *563:90 0.000626863
36 *1535:B *1471:A2 0.000306278
37 *1537:A1 *1539:A3 9.76253e-05
38 *1537:A4 *1471:A2 3.99846e-05
39 *1537:A4 *563:107 0.000204659
40 *1539:A1 *1471:A2 0.000113765
41 *1539:A2 *1471:A2 0.000185538
42 *1539:A2 *563:107 0.000419193
43 *1539:A4 *563:107 5.69697e-05
44 *1540:A3 *1471:A2 6.18354e-06
45 *1541:S *1471:A2 0.000248654
46 *1551:A2 *1549:A2 4.07478e-05
47 *1552:A1 *1531:A3 0.000536571
48 *1552:A1 *1549:A2 0.0001714
49 *1552:A2 *1531:A3 0.000180228
50 *1552:A2 *1549:A2 0.000396581
51 *1552:B *1549:A2 2.38773e-05
52 *1553:C *1531:A3 5.469e-05
53 *1553:C *563:86 0.00178758
54 *1560:A1 *1549:A2 0.000108453
55 *1577:A1 *563:34 2.38656e-05
56 *1577:A1 *563:44 2.6732e-05
57 *1581:A2 *563:34 2.42322e-05
58 *1582:A3 *563:34 0.00039259
59 *1582:A4 *563:34 4.46963e-06
60 *1583:A1 *563:34 0.00018025
61 *1583:A3 *563:34 7.18755e-06
62 *1584:A2 *563:34 0
63 *1585:A1 *563:34 0.00030117
64 *1585:A3 *563:34 0.00013281
65 *1589:A2 *563:34 0
66 *1590:A2 *1539:A3 1.03327e-05
67 *1593:A2 *563:44 0
68 *1594:A1 *563:34 0
69 *1597:A1 *1534:A2 0.000178541
70 *1652:D *563:34 0
71 *1732:D *563:34 0
72 *126:10 *563:34 0.000554309
73 *134:12 *563:44 5.91309e-05
74 *294:21 *563:86 3.4596e-05
75 *294:21 *563:90 0.000435427
76 *300:21 *563:96 0.000161548
77 *300:21 *563:107 7.22287e-05
78 *301:16 *563:44 0.000489273
79 *303:31 *563:44 0
80 *304:12 *1471:A2 0.000247792
81 *307:12 *563:86 0.000138384
82 *307:12 *563:90 0.00067106
83 *307:12 *563:96 0.000114849
84 *309:35 *1534:A2 0.000178541
85 *316:10 *563:44 2.70107e-05
86 *316:31 *563:34 1.07369e-05
87 *317:51 *1471:A2 0.000582256
88 *356:113 *563:86 0.00040541
89 *359:16 *1471:A2 0
90 *375:18 *1549:A2 5.34458e-06
91 *385:12 *563:34 0
92 *385:12 *563:44 0
93 *403:26 *563:34 0.000460056
94 *403:26 *563:86 2.88467e-05
95 *411:10 *563:34 0.000181969
96 *422:45 *563:86 4.29477e-05
97 *422:45 *563:90 7.65651e-05
98 *422:45 *563:96 8.95256e-06
99 *466:12 *563:34 2.73715e-06
100 *474:111 *563:34 0
101 *474:122 *563:34 0
102 *480:14 *563:34 0
103 *483:24 *563:34 0.000582267
104 *486:94 *1549:A2 0.000599738
105 *486:109 *563:34 8.69612e-05
106 *486:109 *563:44 2.82015e-06
107 *487:20 *563:34 0.000116667
108 *487:52 *563:86 0.000251178
109 *487:103 *563:96 0.000120258
110 *487:103 *563:107 3.17547e-05
111 *490:8 *563:34 6.31717e-05
112 *490:46 *563:86 5.12047e-06
113 *490:50 *563:86 0.00021232
*RES
1 *1731:Q *563:34 35.444 
2 *563:34 *563:44 13.68 
3 *563:44 *563:48 5.228 
4 *563:48 *1549:A2 13.056 
5 *563:48 *1531:A3 10.56 
6 *563:44 *563:86 16.904 
7 *563:86 *563:90 3.744 
8 *563:90 *563:96 6.372 
9 *563:96 *1534:A2 9.52 
10 *563:96 *563:107 2.392 
11 *563:107 *1539:A3 9.312 
12 *563:107 *1471:A2 13.784 
13 *563:90 *1532:A3 4.5 
14 *563:86 *1538:A4 4.5 
15 *563:34 *1257:I 4.5 
*END

*D_NET *564 0.000857105
*CONN
*I *1755:I I *D gf180mcu_fd_sc_mcu7t5v0__dlyc_1
*I *1733:Q O *D gf180mcu_fd_sc_mcu7t5v0__dffq_1
*CAP
1 *1755:I 0.000428553
2 *1733:Q 0.000428553
*RES
1 *1733:Q *1755:I 12.328 
*END

*D_NET *565 0.00485245
*CONN
*I *1513:A2 I *D gf180mcu_fd_sc_mcu7t5v0__oai21_1
*I *1441:A2 I *D gf180mcu_fd_sc_mcu7t5v0__nand2_1
*I *1444:A2 I *D gf180mcu_fd_sc_mcu7t5v0__nor2_1
*I *1445:B2 I *D gf180mcu_fd_sc_mcu7t5v0__oai22_1
*I *1682:Q O *D gf180mcu_fd_sc_mcu7t5v0__dffq_1
*CAP
1 *1513:A2 2.72549e-05
2 *1441:A2 0.000342161
3 *1444:A2 6.89012e-05
4 *1445:B2 0
5 *1682:Q 0.000201381
6 *565:36 0.000656839
7 *565:17 0.000362176
8 *565:10 0.000207232
9 *1442:A1 *565:10 3.4596e-05
10 *1442:A1 *565:17 7.84307e-05
11 *1442:A1 *565:36 0.000143295
12 *1443:A1 *1441:A2 0.000119964
13 *1444:A1 *1444:A2 0.000271764
14 *1444:A1 *565:36 9.82096e-05
15 *1513:A1 *1513:A2 3.38219e-05
16 *1547:A1 *1444:A2 0
17 *1547:A2 *565:10 0.000273974
18 *1547:A2 *565:17 0.000113016
19 *1547:A2 *565:36 0.000174815
20 *1569:B *1441:A2 3.64674e-05
21 *1570:A2 *1441:A2 9.99253e-06
22 *1609:A1 *565:10 1.78817e-06
23 *1609:A2 *1513:A2 0.000104974
24 *1664:D *565:10 0
25 *1666:D *1441:A2 0.000238516
26 *142:180 *565:36 0.000471838
27 *142:184 *565:10 3.56211e-05
28 *287:8 *1441:A2 2.64624e-05
29 *288:10 *1441:A2 9.26206e-05
30 *288:10 *565:36 4.36439e-05
31 *289:8 *1441:A2 0.000188776
32 *289:8 *565:36 6.40967e-05
33 *289:19 *565:36 0.000147601
34 *483:63 *1441:A2 0.000176437
35 *527:10 *1441:A2 5.78216e-06
*RES
1 *1682:Q *565:10 6.476 
2 *565:10 *1445:B2 4.5 
3 *565:10 *565:17 0.312 
4 *565:17 *1444:A2 14.228 
5 *565:17 *565:36 7.516 
6 *565:36 *1441:A2 12.12 
7 *565:36 *1513:A2 9.312 
*END

*D_NET *566 0.00196426
*CONN
*I *1754:I I *D gf180mcu_fd_sc_mcu7t5v0__dlyc_1
*I *1735:Q O *D gf180mcu_fd_sc_mcu7t5v0__dffq_1
*CAP
1 *1754:I 0.000646485
2 *1735:Q 0.000646485
3 *1736:D *1754:I 0.000553864
4 *472:41 *1754:I 7.37913e-05
5 *472:43 *1754:I 4.36319e-05
*RES
1 *1735:Q *1754:I 24.032 
*END

*D_NET *567 0.00445309
*CONN
*I *1477:I3 I *D gf180mcu_fd_sc_mcu7t5v0__mux4_1
*I *1762:I I *D gf180mcu_fd_sc_mcu7t5v0__dlyc_1
*I *1709:Q O *D gf180mcu_fd_sc_mcu7t5v0__dffq_1
*CAP
1 *1477:I3 0.000289514
2 *1762:I 0.00047585
3 *1709:Q 5.93317e-05
4 *567:6 0.000824696
5 *1271:I *1762:I 1.56684e-05
6 *1347:A1 *1477:I3 6.87243e-05
7 *1347:B *1477:I3 0.00047924
8 *1347:B *567:6 0.000182208
9 *1352:A2 *1762:I 0
10 *1353:I1 *1762:I 0.000143503
11 *1355:B1 *1762:I 0.00100521
12 *1521:S *1477:I3 0.000271764
13 *1712:D *1762:I 4.54605e-05
14 *1712:CLK *1762:I 1.11474e-05
15 *1789:I *1762:I 6.48755e-05
16 *140:16 *1477:I3 0.000125962
17 *141:25 *1477:I3 0
18 *141:27 *567:6 0
19 *323:30 *1477:I3 0.000197059
20 *478:117 *1477:I3 0.000192882
*RES
1 *1709:Q *567:6 5.02 
2 *567:6 *1762:I 17.972 
3 *567:6 *1477:I3 17.036 
*END

*D_NET *568 0.00772652
*CONN
*I *1770:I I *D gf180mcu_fd_sc_mcu7t5v0__dlyc_1
*I *1477:I2 I *D gf180mcu_fd_sc_mcu7t5v0__mux4_1
*I *1710:Q O *D gf180mcu_fd_sc_mcu7t5v0__dffq_1
*CAP
1 *1770:I 0.000391996
2 *1477:I2 0.00015866
3 *1710:Q 3.9365e-05
4 *568:8 0.000590021
5 DAT_O[5] *1770:I 2.20593e-05
6 *1347:A1 *1477:I2 0.000630434
7 *1347:A1 *568:8 3.22108e-05
8 *1478:S0 *568:8 3.22108e-05
9 *1478:S1 *1770:I 0.00150861
10 *1479:A2 *1477:I2 0.000262946
11 *1479:A2 *1770:I 0.000965766
12 *1711:D *1770:I 1.04928e-05
13 *1745:I *1770:I 0.000149146
14 *1792:I *1477:I2 3.4596e-05
15 *141:112 *1477:I2 0.000626044
16 *176:66 *1770:I 0.000762565
17 *555:12 *1477:I2 0.000262946
18 *555:12 *1770:I 0.00122871
19 *556:14 *1770:I 1.77406e-05
*RES
1 *1710:Q *568:8 9.312 
2 *568:8 *1477:I2 12.224 
3 *568:8 *1770:I 16.696 
*END

*D_NET *569 0.00923201
*CONN
*I *1775:I I *D gf180mcu_fd_sc_mcu7t5v0__dlyc_1
*I *1477:I1 I *D gf180mcu_fd_sc_mcu7t5v0__mux4_1
*I *1711:Q O *D gf180mcu_fd_sc_mcu7t5v0__dffq_1
*CAP
1 *1775:I 0.000480109
2 *1477:I1 0.000167455
3 *1711:Q 0.000210328
4 *569:10 0.000857892
5 *1775:I *1772:I 0.000185295
6 DAT_O[0] *1477:I1 0.000347643
7 DAT_O[0] *1775:I 0.000127568
8 *1352:A2 *1477:I1 0.000973528
9 *1352:A2 *1775:I 0.00108856
10 *1353:I0 *1775:I 0.000728662
11 *1353:I1 *569:10 0.00115436
12 *1355:A2 *1477:I1 0.000337172
13 *1358:I1 *1775:I 9.57283e-05
14 *1358:S *1775:I 1.92416e-05
15 *1376:A2 *569:10 0
16 *1428:A2 *569:10 9.604e-05
17 *1628:B1 *1775:I 9.19654e-05
18 *1712:D *1775:I 2.39156e-06
19 *1753:I *569:10 0.00100406
20 *1769:I *1775:I 0
21 *1790:I *1775:I 0.000926244
22 *492:435 *1775:I 8.51312e-06
23 *556:18 *1477:I1 0.000329258
*RES
1 *1711:Q *569:10 12.952 
2 *569:10 *1477:I1 12.536 
3 *569:10 *1775:I 15.864 
*END

*D_NET *570 0.00380975
*CONN
*I *1477:I0 I *D gf180mcu_fd_sc_mcu7t5v0__mux4_1
*I *1772:I I *D gf180mcu_fd_sc_mcu7t5v0__dlyc_1
*I *1712:Q O *D gf180mcu_fd_sc_mcu7t5v0__dffq_1
*CAP
1 *1477:I0 0.000230125
2 *1772:I 8.61091e-05
3 *1712:Q 0
4 *570:4 0.000316234
5 DAT_O[0] *1477:I0 0.00042389
6 *1352:A2 *1772:I 0.000346468
7 *1358:S *1477:I0 0.000454886
8 *1358:S *1772:I 8.6717e-06
9 *1521:S *1477:I0 0.00109505
10 *1712:D *1772:I 9.48799e-05
11 *1775:I *1772:I 0.000185295
12 *492:435 *1477:I0 0.000445658
13 *492:435 *1772:I 0.000122486
*RES
1 *1712:Q *570:4 4.5 
2 *570:4 *1772:I 14.956 
3 *570:4 *1477:I0 17.868 
*END

*D_NET *571 0.00621262
*CONN
*I *1774:I I *D gf180mcu_fd_sc_mcu7t5v0__dlyc_1
*I *1478:I3 I *D gf180mcu_fd_sc_mcu7t5v0__mux4_1
*I *1713:Q O *D gf180mcu_fd_sc_mcu7t5v0__dffq_1
*CAP
1 *1774:I 0.000636804
2 *1478:I3 0.000246927
3 *1713:Q 0
4 *571:6 0.000883732
5 DAT_O[7] *1478:I3 0.000437384
6 DAT_O[7] *1774:I 0.00122703
7 *1362:A1 *1478:I3 0.000964864
8 *1370:A2 *1478:I3 0.000437384
9 *1370:A2 *1774:I 0.00023882
10 *1373:B *1478:I3 9.56992e-06
11 *1376:A2 *1774:I 0.000104466
12 *1636:A1 *1774:I 0.000358639
13 *1715:CLK *1774:I 0
14 *478:106 *1478:I3 0.000544501
15 *509:14 *1774:I 2.33885e-05
16 *560:58 *1774:I 9.91018e-05
*RES
1 *1713:Q *571:6 9 
2 *571:6 *1478:I3 12.952 
3 *571:6 *1774:I 15.656 
*END

*D_NET *572 0.00107469
*CONN
*I *1478:I2 I *D gf180mcu_fd_sc_mcu7t5v0__mux4_1
*I *1761:I I *D gf180mcu_fd_sc_mcu7t5v0__dlyc_1
*I *1714:Q O *D gf180mcu_fd_sc_mcu7t5v0__dffq_1
*CAP
1 *1478:I2 0
2 *1761:I 9.35793e-05
3 *1714:Q 0.000104908
4 *572:6 0.000198487
5 *1362:A2 *572:6 3.48351e-05
6 *1373:A2 *1761:I 5.13977e-05
7 *1373:A2 *572:6 0.000591484
*RES
1 *1714:Q *572:6 6.06 
2 *572:6 *1761:I 5.436 
3 *572:6 *1478:I2 4.5 
*END

*D_NET *573 0.0125452
*CONN
*I *1776:I I *D gf180mcu_fd_sc_mcu7t5v0__dlyc_1
*I *1478:I1 I *D gf180mcu_fd_sc_mcu7t5v0__mux4_1
*I *1715:Q O *D gf180mcu_fd_sc_mcu7t5v0__dffq_1
*CAP
1 *1776:I 0.000499514
2 *1478:I1 0.000575765
3 *1715:Q 0.000579881
4 *573:12 0.00165516
5 *1362:A1 *573:12 7.17424e-05
6 *1363:I1 *573:12 2.28745e-05
7 *1373:B *573:12 0.00019636
8 *1376:A1 *1776:I 0.000145572
9 *1378:A1 *573:12 0
10 *1638:A1 *573:12 5.63044e-06
11 *1642:A1 *1776:I 1.05408e-05
12 *1656:D *1776:I 0.000167974
13 *1700:D *1776:I 0.00130993
14 *1700:D *573:12 0.000775837
15 *1715:CLK *1776:I 0.000814306
16 *512:10 *1776:I 0.00015704
17 *556:8 *1478:I1 0.000804017
18 *556:14 *1478:I1 0.0018832
19 *560:10 *1776:I 5.77431e-06
20 *560:16 *1776:I 0.000956984
21 *560:20 *1776:I 0.000187579
22 *560:20 *573:12 0.000747002
23 *560:58 *1478:I1 0.000972487
*RES
1 *1715:Q *573:12 14.72 
2 *573:12 *1478:I1 17.008 
3 *573:12 *1776:I 16.488 
*END

*D_NET *574 0.0113541
*CONN
*I *1771:I I *D gf180mcu_fd_sc_mcu7t5v0__dlyc_1
*I *1478:I0 I *D gf180mcu_fd_sc_mcu7t5v0__mux4_1
*I *1716:Q O *D gf180mcu_fd_sc_mcu7t5v0__dffq_1
*CAP
1 *1771:I 0.000861997
2 *1478:I0 0.000169199
3 *1716:Q 0.000132948
4 *574:10 0.00116414
5 *1771:I *1376:B2 0.000207141
6 DAT_O[6] *1771:I 0.00283722
7 DAT_O[6] *574:10 0.000800455
8 STB_O *1771:I 0.000285685
9 *1373:B *574:10 1.66724e-05
10 *1376:A2 *1478:I0 4.77174e-05
11 *1641:A2 *1771:I 0.000569964
12 *1697:D *1771:I 4.78732e-05
13 *1766:I *1771:I 0.000111449
14 *1805:I *1771:I 0.00183831
15 *1805:I *574:10 0.000812351
16 *439:22 *1771:I 0.000359882
17 *439:22 *574:10 0.00010353
18 *478:10 *1478:I0 7.27776e-05
19 *479:63 *1771:I 0.000500772
20 *479:72 *1771:I 1.63544e-05
21 *556:14 *574:10 0.000242172
22 *559:12 *1771:I 0.000155513
*RES
1 *1716:Q *574:10 11.912 
2 *574:10 *1478:I0 10.144 
3 *574:10 *1771:I 22.936 
*END

*D_NET *575 0.00292554
*CONN
*I *1759:I I *D gf180mcu_fd_sc_mcu7t5v0__dlyc_1
*I *1725:Q O *D gf180mcu_fd_sc_mcu7t5v0__dffq_1
*CAP
1 *1759:I 0.000447535
2 *1725:Q 0.000447535
3 *1759:I *1433:A1 3.62069e-05
4 *1267:I *1759:I 0.000561123
5 *1331:A1 *1759:I 4.97341e-06
6 *1331:A2 *1759:I 1.46587e-05
7 *1332:A1 *1759:I 9.31488e-05
8 *1338:A1 *1759:I 6.52742e-05
9 *1386:C *1759:I 0
10 *1729:CLK *1759:I 0.00057034
11 *142:157 *1759:I 6.86591e-05
12 *142:222 *1759:I 4.54968e-05
13 *153:12 *1759:I 0.000570592
*RES
1 *1725:Q *1759:I 23.408 
*END

*D_NET *576 0.00309869
*CONN
*I *1757:I I *D gf180mcu_fd_sc_mcu7t5v0__dlyc_1
*I *1726:Q O *D gf180mcu_fd_sc_mcu7t5v0__dffq_1
*CAP
1 *1757:I 0.000648035
2 *1726:Q 0.000648035
3 *1252:I *1757:I 4.22072e-05
4 *1431:A1 *1757:I 0
5 *1435:A1 *1757:I 6.51039e-05
6 *1435:A2 *1757:I 0.000194522
7 *1436:B3 *1757:I 0.000161032
8 *1730:D *1757:I 0.000822055
9 *154:35 *1757:I 0.000342463
10 *471:11 *1757:I 7.02774e-05
11 *488:109 *1757:I 0
12 *492:251 *1757:I 7.28631e-05
13 *492:257 *1757:I 2.76472e-05
14 *504:26 *1757:I 4.44673e-06
*RES
1 *1726:Q *1757:I 24.448 
*END

*D_NET *577 0.0396303
*CONN
*I *1372:A2 I *D gf180mcu_fd_sc_mcu7t5v0__nand4_1
*I *1356:A2 I *D gf180mcu_fd_sc_mcu7t5v0__nand4_1
*I *1325:A2 I *D gf180mcu_fd_sc_mcu7t5v0__nand2_1
*I *1377:A2 I *D gf180mcu_fd_sc_mcu7t5v0__nand4_1
*I *1627:A2 I *D gf180mcu_fd_sc_mcu7t5v0__nor3_1
*I *1361:A2 I *D gf180mcu_fd_sc_mcu7t5v0__nand4_1
*I *1351:A2 I *D gf180mcu_fd_sc_mcu7t5v0__nand4_1
*I *1346:A2 I *D gf180mcu_fd_sc_mcu7t5v0__nand4_1
*I *1367:A2 I *D gf180mcu_fd_sc_mcu7t5v0__and4_1
*I *1341:A2 I *D gf180mcu_fd_sc_mcu7t5v0__and4_1
*I *1439:A3 I *D gf180mcu_fd_sc_mcu7t5v0__nand3_1
*I *1264:I I *D gf180mcu_fd_sc_mcu7t5v0__clkinv_1
*I *1322:B I *D gf180mcu_fd_sc_mcu7t5v0__aoi21_1
*I *1282:A2 I *D gf180mcu_fd_sc_mcu7t5v0__nor2_1
*I *1729:Q O *D gf180mcu_fd_sc_mcu7t5v0__dffq_1
*CAP
1 *1372:A2 0.000181938
2 *1356:A2 0
3 *1325:A2 0.000557635
4 *1377:A2 0
5 *1627:A2 0.00041267
6 *1361:A2 0
7 *1351:A2 0
8 *1346:A2 0.000235258
9 *1367:A2 6.19927e-05
10 *1341:A2 0.000108413
11 *1439:A3 0.00079424
12 *1264:I 0.000461433
13 *1322:B 0
14 *1282:A2 0
15 *1729:Q 0.000402318
16 *577:147 0.000534808
17 *577:140 0.00025754
18 *577:133 0.00018507
19 *577:124 0.000415056
20 *577:111 0.000266673
21 *577:98 0.000375064
22 *577:94 0.00122778
23 *577:63 0.00133577
24 *577:61 7.9031e-05
25 *577:59 0.000379883
26 *577:46 0.000728056
27 *577:37 0.000196154
28 *577:26 0.000514241
29 *1325:A2 *1325:A1 4.07478e-05
30 *1325:A2 *1376:B2 2.19704e-05
31 *1341:A2 *579:12 2.46957e-05
32 *1367:A2 *1644:A2 5.36452e-06
33 *1439:A3 *1382:A3 0
34 *1439:A3 *1438:A1 1.71326e-05
35 *1627:A2 *1627:A3 0.000166052
36 *577:94 *578:18 0.000778157
37 *577:147 *1627:A3 3.98614e-06
38 *1322:A1 *577:37 0.000106581
39 *1322:A2 *577:26 0.00017298
40 *1322:A2 *577:37 0.000372387
41 *1341:A1 *1341:A2 0.000327138
42 *1341:A3 *1341:A2 7.32629e-05
43 *1342:A1 *1264:I 0.000568633
44 *1342:C *577:59 0.00119175
45 *1342:C *577:94 3.89544e-05
46 *1343:B1 *1264:I 4.84332e-05
47 *1346:A1 *1346:A2 0.000122864
48 *1346:A1 *577:133 3.18325e-05
49 *1346:A3 *1346:A2 0.00034363
50 *1346:A3 *577:133 5.57504e-05
51 *1347:B *1372:A2 0.000921967
52 *1347:B *1439:A3 0.000554454
53 *1347:B *577:61 7.22679e-05
54 *1347:B *577:63 0.000293957
55 *1351:A4 *1439:A3 3.3698e-05
56 *1352:A1 *1627:A2 0.00094715
57 *1352:B *1627:A2 5.13977e-05
58 *1352:B *577:140 0.000966936
59 *1352:B *577:147 0.00103614
60 *1357:B *1439:A3 0.000589027
61 *1361:A4 *577:94 0.000193393
62 *1367:A3 *1367:A2 4.67771e-06
63 *1367:A4 *1325:A2 0.000116466
64 *1368:B *1264:I 0.000245715
65 *1369:A1 *1264:I 0.000216898
66 *1377:A3 *577:140 8.56628e-05
67 *1377:A3 *577:147 0.000346903
68 *1377:A4 *1325:A2 0.000346804
69 *1377:A4 *577:98 3.3221e-05
70 *1385:A3 *577:26 1.18566e-06
71 *1430:A2 *577:59 8.3831e-05
72 *1438:A2 *1439:A3 0.000481522
73 *1440:A2 *1439:A3 0.000139563
74 *1627:A1 *1627:A2 0.00208135
75 *1628:A1 *1325:A2 3.77212e-05
76 *1691:CLK *577:98 7.69838e-05
77 *1728:D *577:59 5.33795e-05
78 *1728:D *577:94 0.00107404
79 *1728:CLK *1439:A3 9.73927e-05
80 *1738:I *1264:I 0.000158287
81 *1738:I *577:46 5.24163e-05
82 *1738:I *577:59 3.7145e-05
83 *1786:I *577:94 0.00209102
84 *1788:I *1325:A2 4.3925e-05
85 *1802:I *1325:A2 0.000108433
86 *140:22 *1372:A2 0.00045502
87 *140:101 *577:94 6.85626e-05
88 *140:114 *1341:A2 0.000262946
89 *140:114 *577:111 0.00143227
90 *140:114 *577:124 0.000116476
91 *140:125 *577:124 0.000284045
92 *140:143 *577:133 1.07369e-05
93 *140:143 *577:140 5.89482e-05
94 *141:25 *1264:I 5.47431e-06
95 *141:27 *1264:I 2.77165e-05
96 *141:37 *1264:I 1.5399e-05
97 *141:57 *577:26 0.000855556
98 *150:42 *577:26 5.04371e-05
99 *175:22 *577:26 0.000346997
100 *176:20 *577:26 0
101 *186:12 *1264:I 0.000926006
102 *190:10 *577:37 9.42233e-05
103 *190:10 *577:46 0.000209694
104 *193:148 *1439:A3 4.50135e-05
105 *205:38 *577:26 0
106 *207:12 *1264:I 3.05186e-05
107 *208:14 *577:26 0.000313691
108 *208:14 *577:37 0.000137132
109 *230:26 *1325:A2 2.99813e-07
110 *282:12 *577:37 0.000342115
111 *282:12 *577:46 0.000795678
112 *282:12 *577:59 0.000788215
113 *425:53 *1325:A2 0.000931361
114 *425:53 *577:98 0.000770057
115 *425:68 *1325:A2 6.18453e-05
116 *434:6 *1627:A2 4.29477e-05
117 *434:61 *1627:A2 1.07369e-05
118 *491:49 *1372:A2 0.000137143
119 *491:55 *1372:A2 3.22108e-05
120 *491:55 *1439:A3 0.000123552
121 *491:55 *577:61 4.18042e-05
122 *491:55 *577:63 0.00011246
123 *491:85 *577:133 1.07369e-05
124 *491:85 *577:140 5.57504e-05
125 *491:99 *577:140 0.000298703
126 *492:251 *577:59 3.20057e-06
127 *504:10 *1346:A2 0.000126027
128 *504:10 *577:124 0.000176112
129 *504:26 *1341:A2 0.000337234
130 *504:26 *577:111 0.00066294
131 *504:26 *577:124 0.000124075
*RES
1 *1729:Q *577:26 26.764 
2 *577:26 *1282:A2 4.5 
3 *577:26 *577:37 6.58 
4 *577:37 *1322:B 9 
5 *577:37 *577:46 2.184 
6 *577:46 *1264:I 14.928 
7 *577:46 *577:59 8.348 
8 *577:59 *577:61 0.312 
9 *577:61 *577:63 0.936 
10 *577:63 *1439:A3 13.236 
11 *577:63 *577:94 17.424 
12 *577:94 *577:98 6.684 
13 *577:98 *1341:A2 10.872 
14 *577:98 *577:111 3.64 
15 *577:111 *1367:A2 9.312 
16 *577:111 *577:124 6.684 
17 *577:124 *1346:A2 7.1 
18 *577:124 *577:133 0.52 
19 *577:133 *1351:A2 4.5 
20 *577:133 *577:140 3.016 
21 *577:140 *1361:A2 4.5 
22 *577:140 *577:147 2.808 
23 *577:147 *1627:A2 11.26 
24 *577:147 *1377:A2 4.5 
25 *577:94 *1325:A2 28.116 
26 *577:61 *1356:A2 4.5 
27 *577:59 *1372:A2 7.308 
*END

*D_NET *578 0.0447499
*CONN
*I *1282:A1 I *D gf180mcu_fd_sc_mcu7t5v0__nor2_1
*I *1376:B2 I *D gf180mcu_fd_sc_mcu7t5v0__oai22_1
*I *1325:A1 I *D gf180mcu_fd_sc_mcu7t5v0__nand2_1
*I *1350:B2 I *D gf180mcu_fd_sc_mcu7t5v0__oai22_1
*I *1371:B2 I *D gf180mcu_fd_sc_mcu7t5v0__oai22_1
*I *1263:I I *D gf180mcu_fd_sc_mcu7t5v0__clkinv_1
*I *1366:A1 I *D gf180mcu_fd_sc_mcu7t5v0__oai221_1
*I *1360:B2 I *D gf180mcu_fd_sc_mcu7t5v0__oai22_1
*I *1345:B2 I *D gf180mcu_fd_sc_mcu7t5v0__oai22_1
*I *1315:A1 I *D gf180mcu_fd_sc_mcu7t5v0__oai221_1
*I *1355:B2 I *D gf180mcu_fd_sc_mcu7t5v0__oai22_1
*I *1439:A2 I *D gf180mcu_fd_sc_mcu7t5v0__nand3_1
*I *1730:Q O *D gf180mcu_fd_sc_mcu7t5v0__dffq_1
*CAP
1 *1282:A1 0
2 *1376:B2 0.00231627
3 *1325:A1 2.74516e-05
4 *1350:B2 0
5 *1371:B2 0
6 *1263:I 0
7 *1366:A1 5.89812e-05
8 *1360:B2 0
9 *1345:B2 0
10 *1315:A1 0.000331762
11 *1355:B2 0
12 *1439:A2 0.000373739
13 *1730:Q 0.000248428
14 *578:143 0.00277247
15 *578:102 0.000256696
16 *578:87 0.000480504
17 *578:70 0.000838375
18 *578:68 0.000310064
19 *578:66 0.000110019
20 *578:62 0.000471433
21 *578:47 0.000502722
22 *578:43 0.000880656
23 *578:18 0.00140652
24 *578:8 0.000884358
25 *1439:A2 *580:21 0.000580476
26 DAT_O[1] *1376:B2 0
27 DAT_O[2] *1376:B2 0.00168254
28 DAT_O[3] *1366:A1 6.91919e-05
29 DAT_O[3] *578:102 0.000182208
30 *1322:A2 *578:8 9.0835e-05
31 *1324:A1 *578:18 0.00020821
32 *1325:A2 *1325:A1 4.07478e-05
33 *1325:A2 *1376:B2 2.19704e-05
34 *1347:B *1439:A2 0
35 *1348:I1 *578:87 0.000401804
36 *1348:I1 *578:102 8.01325e-05
37 *1351:A4 *1439:A2 0
38 *1353:I1 *578:62 0.000241039
39 *1355:A2 *578:62 0.000327211
40 *1362:A1 *1366:A1 0.000343518
41 *1362:A2 *578:87 0
42 *1366:A2 *578:102 0.00019118
43 *1369:A1 *1315:A1 0.000812113
44 *1371:A1 *578:62 0.000110557
45 *1371:A2 *578:66 7.47044e-05
46 *1371:A2 *578:68 0.000509518
47 *1376:B1 *1376:B2 0.000507751
48 *1377:A4 *1376:B2 0.000498827
49 *1406:A4 *578:43 1.79159e-05
50 *1420:A2 *1439:A2 0.00193377
51 *1420:A2 *578:43 0.00128401
52 *1420:A2 *578:62 0.00160106
53 *1430:A2 *578:18 9.37361e-06
54 *1438:C *578:18 0.000406476
55 *1440:A1 *578:18 0.000271774
56 *1440:B *578:18 2.76367e-05
57 *1479:A2 *1315:A1 1.69949e-05
58 *1521:S *578:62 0.000415294
59 *1628:B1 *1325:A1 1.01781e-05
60 *1628:B2 *578:143 0.000193905
61 *1630:A1 *1376:B2 0.00134758
62 *1630:B2 *1376:B2 6.14449e-05
63 *1631:A2 *1376:B2 0.000154193
64 *1634:A1 *1376:B2 1.22905e-05
65 *1691:CLK *1325:A1 1.26329e-05
66 *1694:D *1376:B2 0
67 *1710:D *1315:A1 1.23478e-05
68 *1728:D *578:18 0.000655858
69 *1766:I *1376:B2 0.000215385
70 *1769:I *1376:B2 0
71 *1771:I *1376:B2 0.000207141
72 *1788:I *1325:A1 3.4596e-05
73 *1788:I *1376:B2 1.20913e-05
74 *1788:I *578:143 0.000169864
75 *1789:I *1376:B2 0.000161875
76 *1789:I *578:43 6.23859e-05
77 *1789:I *578:143 0.000313445
78 *1803:I *1376:B2 0.000203638
79 *140:16 *578:68 3.94467e-05
80 *140:60 *578:18 0.000260006
81 *140:101 *578:18 0.000237839
82 *141:8 *1315:A1 5.36452e-06
83 *141:37 *578:18 0.000819734
84 *141:57 *578:18 0.000452535
85 *141:112 *1315:A1 3.26114e-05
86 *141:112 *578:87 6.12449e-05
87 *141:120 *578:102 3.22108e-05
88 *175:22 *578:8 6.64924e-05
89 *176:45 *1366:A1 0.000343518
90 *176:45 *578:102 7.22138e-05
91 *176:66 *578:62 2.14739e-05
92 *176:83 *578:66 0.000179413
93 *179:64 *578:8 6.32895e-05
94 *193:10 *578:143 0.0015812
95 *208:14 *578:8 6.84196e-06
96 *281:10 *578:18 0.000707634
97 *282:12 *578:18 0.000138694
98 *323:30 *1315:A1 5.4134e-06
99 *323:30 *578:68 3.20057e-06
100 *323:30 *578:70 5.78706e-05
101 *471:72 *578:43 7.88836e-05
102 *471:72 *578:143 0.000120967
103 *471:86 *578:62 0.000126212
104 *479:72 *1376:B2 0.000360072
105 *479:80 *1376:B2 0.000582256
106 *479:151 *1376:B2 0.000237104
107 *492:465 *1376:B2 6.63657e-05
108 *507:12 *1376:B2 0
109 *519:6 *1315:A1 0.000491544
110 *519:6 *1366:A1 1.40331e-05
111 *519:6 *578:87 0.00122563
112 *519:6 *578:102 7.23554e-05
113 *555:12 *1315:A1 3.05273e-05
114 *555:12 *578:66 0.000271764
115 *555:12 *578:68 0.000912085
116 *555:12 *578:70 0.0010402
117 *556:18 *578:62 0.000387186
118 *558:54 *578:102 0.000405311
119 *559:28 *578:62 0.000107648
120 *560:58 *1439:A2 0.00193377
121 *560:58 *578:43 0.00124941
122 *577:94 *578:18 0.000778157
*RES
1 *1730:Q *578:8 6.58 
2 *578:8 *578:18 18.672 
3 *578:18 *1439:A2 20.572 
4 *578:18 *578:43 18.804 
5 *578:43 *578:47 4.812 
6 *578:47 *1355:B2 4.5 
7 *578:47 *578:62 15.76 
8 *578:62 *578:66 5.228 
9 *578:66 *578:68 2.392 
10 *578:68 *578:70 2.808 
11 *578:70 *1315:A1 12.536 
12 *578:70 *578:87 8.244 
13 *578:87 *1345:B2 4.5 
14 *578:87 *578:102 11.392 
15 *578:102 *1360:B2 4.5 
16 *578:102 *1366:A1 14.748 
17 *578:68 *1263:I 9 
18 *578:66 *1371:B2 9 
19 *578:62 *1350:B2 4.5 
20 *578:43 *578:143 6.448 
21 *578:143 *1325:A1 9.312 
22 *578:143 *1376:B2 31.256 
23 *578:8 *1282:A1 4.5 
*END

*D_NET *579 0.0285641
*CONN
*I *1644:A2 I *D gf180mcu_fd_sc_mcu7t5v0__oai21_1
*I *1438:A1 I *D gf180mcu_fd_sc_mcu7t5v0__aoi211_1
*I *1334:A1 I *D gf180mcu_fd_sc_mcu7t5v0__aoi21_1
*I *1333:A2 I *D gf180mcu_fd_sc_mcu7t5v0__nand2_1
*I *1429:A1 I *D gf180mcu_fd_sc_mcu7t5v0__nand3_1
*I *1437:B I *D gf180mcu_fd_sc_mcu7t5v0__aoi21_1
*I *1382:A3 I *D gf180mcu_fd_sc_mcu7t5v0__nor3_1
*I *1727:Q O *D gf180mcu_fd_sc_mcu7t5v0__dffq_1
*CAP
1 *1644:A2 0.000723843
2 *1438:A1 0.000121361
3 *1334:A1 0
4 *1333:A2 0.000152202
5 *1429:A1 0.000359349
6 *1437:B 0
7 *1382:A3 0.000264669
8 *1727:Q 0
9 *579:65 0.000329826
10 *579:48 0.000746711
11 *579:20 0.000279341
12 *579:18 0.000454403
13 *579:12 0.000899064
14 *579:6 0.00127155
15 *1327:A1 *1429:A1 0.000242172
16 *1334:B *579:65 0.000171397
17 *1336:A2 *1429:A1 0.000316625
18 *1336:A2 *579:65 2.46831e-05
19 *1338:A1 *1333:A2 7.38092e-05
20 *1338:A2 *579:65 0.000476153
21 *1341:A2 *579:12 2.46957e-05
22 *1346:A3 *1644:A2 4.44654e-05
23 *1347:B *1438:A1 0.000147612
24 *1351:A4 *1644:A2 0.000830449
25 *1367:A2 *1644:A2 5.36452e-06
26 *1367:A3 *1644:A2 0
27 *1428:A1 *579:12 0.000219948
28 *1428:A1 *579:18 3.17547e-05
29 *1429:A2 *1429:A1 0.000241685
30 *1429:A3 *1429:A1 2.05998e-05
31 *1429:A3 *579:65 8.44565e-06
32 *1437:A1 *579:18 2.14739e-05
33 *1438:A2 *1438:A1 4.16304e-05
34 *1439:A3 *1382:A3 0
35 *1439:A3 *1438:A1 1.71326e-05
36 *1440:A2 *1382:A3 0.000314453
37 *1440:A2 *579:18 8.00229e-05
38 *1440:A2 *579:20 2.46717e-05
39 *1440:A2 *579:48 2.83242e-05
40 *1626:A2 *1644:A2 4.00009e-05
41 *1644:B *1644:A2 0.0039831
42 *1645:A2 *1644:A2 0.000971765
43 *1690:D *1644:A2 8.21146e-06
44 *1699:D *1644:A2 0.00158291
45 *1727:D *579:12 0.0021227
46 *1785:I *1382:A3 0.000559321
47 *140:72 *579:48 0.00105595
48 *140:114 *1644:A2 0.000359322
49 *140:114 *579:12 0.000832926
50 *140:125 *1644:A2 0.000367033
51 *141:57 *1429:A1 8.1598e-06
52 *142:222 *1333:A2 1.17431e-05
53 *192:8 *1429:A1 2.19962e-05
54 *192:41 *579:18 4.38131e-05
55 *193:22 *579:48 1.67665e-05
56 *193:30 *1333:A2 0.000343966
57 *193:34 *1333:A2 0.00026188
58 *194:8 *1429:A1 1.78214e-05
59 *194:8 *579:65 1.12609e-05
60 *200:23 *1429:A1 2.46717e-05
61 *203:18 *1382:A3 0.00121405
62 *203:18 *579:18 0.000333415
63 *203:18 *579:20 0.000113016
64 *206:14 *579:65 1.26446e-05
65 *208:14 *1429:A1 5.63044e-06
66 *219:28 *1382:A3 1.67036e-05
67 *219:28 *579:48 0.00140305
68 *222:28 *579:12 0.00174329
69 *281:10 *1429:A1 0.000120235
70 *491:55 *579:12 9.06381e-05
71 *491:70 *1644:A2 0.000605853
72 *491:70 *579:12 0.000335939
73 *491:83 *1644:A2 0.000656432
74 *491:85 *1644:A2 9.35542e-06
75 *504:26 *579:12 0.000144029
76 *504:26 *579:18 0.000104629
*RES
1 *1727:Q *579:6 9 
2 *579:6 *579:12 10.712 
3 *579:12 *579:18 6.58 
4 *579:18 *579:20 0.312 
5 *579:20 *1382:A3 17.66 
6 *579:20 *1437:B 4.5 
7 *579:18 *579:48 12.848 
8 *579:48 *1429:A1 8.348 
9 *579:48 *579:65 1.976 
10 *579:65 *1333:A2 15.268 
11 *579:65 *1334:A1 4.5 
12 *579:12 *1438:A1 9.936 
13 *579:6 *1644:A2 24.704 
*END

*D_NET *580 0.0216131
*CONN
*I *1627:A3 I *D gf180mcu_fd_sc_mcu7t5v0__nor3_1
*I *1324:B I *D gf180mcu_fd_sc_mcu7t5v0__aoi21_1
*I *1328:A1 I *D gf180mcu_fd_sc_mcu7t5v0__oai211_1
*I *1439:A1 I *D gf180mcu_fd_sc_mcu7t5v0__nand3_1
*I *1427:A2 I *D gf180mcu_fd_sc_mcu7t5v0__nor2_1
*I *1728:Q O *D gf180mcu_fd_sc_mcu7t5v0__dffq_1
*CAP
1 *1627:A3 0.00129027
2 *1324:B 0.000664072
3 *1328:A1 9.86435e-05
4 *1439:A1 0
5 *1427:A2 0.000195352
6 *1728:Q 0
7 *580:32 0.00111496
8 *580:21 0.00102142
9 *580:10 0.0016952
10 *580:4 0.00212095
11 ADDR_O[7] *580:21 1.11474e-05
12 *1324:A1 *1324:B 3.22108e-05
13 *1328:C *1324:B 0.000260055
14 *1328:C *1328:A1 0.000260618
15 *1337:C *1324:B 1.40331e-05
16 *1338:B *1324:B 5.96811e-05
17 *1339:A3 *1324:B 8.56628e-05
18 *1341:A1 *580:10 2.39523e-06
19 *1341:A3 *580:10 0.000267182
20 *1341:A4 *1427:A2 0.00108862
21 *1341:A4 *580:10 0.000960175
22 *1342:C *580:10 0.000309863
23 *1346:A4 *580:21 4.33277e-05
24 *1347:B *580:21 0
25 *1347:B *580:32 0
26 *1351:A4 *580:21 0
27 *1352:A1 *1627:A3 0.000225002
28 *1352:A2 *1627:A3 0.000194511
29 *1353:I0 *1627:A3 1.56624e-05
30 *1367:A4 *1627:A3 0.000235826
31 *1377:A3 *1627:A3 0.000157375
32 *1382:A1 *580:32 3.05326e-05
33 *1390:A4 *1324:B 5.49373e-05
34 *1390:A4 *1328:A1 0.000254943
35 *1417:B1 *1328:A1 0.000107043
36 *1417:B1 *580:21 0.000670621
37 *1417:B1 *580:32 0.000458126
38 *1430:A2 *1324:B 1.07369e-05
39 *1439:A2 *580:21 0.000580476
40 *1610:A1 *1427:A2 0.000562481
41 *1610:A1 *580:21 0
42 *1627:A2 *1627:A3 0.000166052
43 *1629:A2 *1627:A3 0.000107843
44 *1634:A1 *1627:A3 0.000285003
45 *1693:D *1627:A3 0.000203544
46 *1727:CLK *580:10 0
47 *1727:CLK *580:21 0
48 *1750:I *580:21 5.92054e-05
49 *1769:I *1627:A3 6.80166e-06
50 *1769:I *580:10 1.77406e-05
51 *1788:I *1627:A3 2.96915e-06
52 *1790:I *1627:A3 0.000140219
53 *1790:I *580:10 0.000560747
54 *1802:I *1627:A3 0.000102292
55 *140:101 *580:10 3.39247e-06
56 *192:8 *1324:B 4.05593e-05
57 *193:22 *1324:B 0.000143078
58 *193:22 *1328:A1 0
59 *193:22 *580:32 0
60 *194:8 *1324:B 1.14014e-05
61 *204:12 *1324:B 0.000950226
62 *205:14 *1324:B 8.4752e-05
63 *207:12 *1324:B 9.6654e-05
64 *225:10 *1627:A3 0.00234934
65 *425:53 *1427:A2 0
66 *425:53 *580:10 2.45666e-05
67 *434:6 *1627:A3 0.00017298
68 *505:12 *1627:A3 0.000925629
69 *577:147 *1627:A3 3.98614e-06
*RES
1 *1728:Q *580:4 4.5 
2 *580:4 *580:10 8.008 
3 *580:10 *1427:A2 7.516 
4 *580:10 *580:21 10.844 
5 *580:21 *1439:A1 9 
6 *580:21 *580:32 3.536 
7 *580:32 *1328:A1 10.456 
8 *580:32 *1324:B 15.344 
9 *580:4 *1627:A3 28.788 
*END

*D_NET *581 0.00749786
*CONN
*I *1330:A2 I *D gf180mcu_fd_sc_mcu7t5v0__nand2_1
*I *1433:A1 I *D gf180mcu_fd_sc_mcu7t5v0__nand4_1
*I *1541:I1 I *D gf180mcu_fd_sc_mcu7t5v0__mux2_2
*I *1277:A2 I *D gf180mcu_fd_sc_mcu7t5v0__nor2_1
*I *1266:I I *D gf180mcu_fd_sc_mcu7t5v0__clkinv_1
*I *1661:Q O *D gf180mcu_fd_sc_mcu7t5v0__dffq_1
*CAP
1 *1330:A2 3.6366e-05
2 *1433:A1 0.000465851
3 *1541:I1 0.000392077
4 *1277:A2 0
5 *1266:I 3.60115e-05
6 *1661:Q 0.000150136
7 *581:34 0.00088849
8 *581:25 0.000309102
9 *581:23 0.000626169
10 *581:14 0.00049741
11 *1267:I *1433:A1 3.42651e-05
12 *1330:A1 *581:23 5.13977e-05
13 *1330:A1 *581:25 0.00036165
14 *1331:A2 *1433:A1 0
15 *1332:A1 *1433:A1 0.000917885
16 *1395:B2 *1266:I 1.91879e-05
17 *1395:B2 *581:23 0.000168433
18 *1398:A1 *581:14 0.000367897
19 *1434:A3 *581:14 6.18411e-06
20 *1434:B2 *1433:A1 0.000249469
21 *1543:I1 *581:14 0.000177012
22 *1661:D *581:23 0
23 *1661:D *581:25 0
24 *1725:D *1541:I1 3.6012e-05
25 *1759:I *1433:A1 3.62069e-05
26 *143:12 *1266:I 3.4596e-05
27 *143:12 *581:14 0.000334711
28 *143:12 *581:23 0.000105623
29 *144:16 *1433:A1 4.74266e-06
30 *144:16 *581:25 0.000366731
31 *144:16 *581:34 0.000106908
32 *153:12 *1433:A1 2.55592e-05
33 *361:20 *1541:I1 0.00011484
34 *447:131 *1433:A1 0.000330965
35 *471:19 *1541:I1 0
36 *471:19 *581:25 9.62727e-05
37 *471:19 *581:34 3.56106e-06
38 *561:21 *581:14 0.000146142
*RES
1 *1661:Q *581:14 15.892 
2 *581:14 *1266:I 4.812 
3 *581:14 *581:23 2.6 
4 *581:23 *581:25 3.432 
5 *581:25 *1277:A2 4.5 
6 *581:25 *581:34 4.812 
7 *581:34 *1541:I1 11.496 
8 *581:34 *1433:A1 13.16 
9 *581:23 *1330:A2 4.812 
*END
