*SPEF "ieee 1481-1999"
*DESIGN "i2c_controller"
*DATE "15:55:14 Monday August 31, 2026"
*VENDOR "The OpenROAD Project"
*PROGRAM "OpenROAD"
*VERSION "26Q1-1024-gdcf36133a"
*DESIGN_FLOW "NAME_SCOPE LOCAL" "PIN_CAP NONE"
*DIVIDER /
*DELIMITER :
*BUS_DELIMITER []
*T_UNIT 1 NS
*C_UNIT 1 PF
*R_UNIT 1 OHM
*L_UNIT 1 HENRY

*NAME_MAP
*1 ACK_I
*2 ADDR_O[0]
*3 ADDR_O[1]
*4 ADDR_O[2]
*5 ADDR_O[3]
*6 ADDR_O[4]
*7 ADDR_O[5]
*8 ADDR_O[6]
*9 ADDR_O[7]
*10 CLK_I
*11 CYC_O
*12 DAT_I[0]
*13 DAT_I[1]
*14 DAT_I[2]
*15 DAT_I[3]
*16 DAT_I[4]
*17 DAT_I[5]
*18 DAT_I[6]
*19 DAT_I[7]
*20 DAT_O[0]
*21 DAT_O[1]
*22 DAT_O[2]
*23 DAT_O[3]
*24 DAT_O[4]
*25 DAT_O[5]
*26 DAT_O[6]
*27 DAT_O[7]
*28 ERR_I
*29 RST_I
*30 RTY_I
*31 STB_O
*34 WE_O
*35 i2c_scl_in
*36 i2c_sda_in
*37 i2c_sda_out_pin_ctrl
*38 i2c_sda_out_pin_ctrl_n
*39 _000_
*40 _001_
*41 _002_
*42 _003_
*43 _004_
*44 _005_
*45 _006_
*46 _007_
*47 _008_
*48 _009_
*49 _010_
*50 _011_
*51 _012_
*52 _013_
*53 _014_
*54 _015_
*55 _016_
*56 _017_
*57 _018_
*58 _019_
*59 _020_
*60 _021_
*61 _022_
*62 _023_
*63 _024_
*64 _025_
*65 _026_
*66 _027_
*67 _028_
*68 _029_
*69 _030_
*70 _031_
*71 _032_
*72 _033_
*73 _034_
*74 _035_
*75 _036_
*76 _037_
*77 _038_
*78 _039_
*79 _040_
*80 _041_
*81 _042_
*82 _043_
*83 _044_
*84 _045_
*85 _046_
*86 _047_
*87 _048_
*88 _049_
*89 _050_
*90 _051_
*91 _052_
*92 _053_
*93 _054_
*94 _055_
*95 _056_
*96 _057_
*97 _058_
*98 _059_
*99 _060_
*100 _061_
*101 _062_
*102 _063_
*103 _064_
*104 _065_
*105 _066_
*106 _067_
*107 _068_
*108 _069_
*109 _070_
*110 _071_
*111 _072_
*112 _073_
*113 _074_
*114 _075_
*115 _076_
*116 _077_
*117 _078_
*118 _079_
*119 _080_
*120 _081_
*121 _082_
*122 _083_
*123 _084_
*124 _085_
*125 _086_
*126 _087_
*127 _088_
*128 _089_
*129 _090_
*130 _091_
*131 _092_
*132 _093_
*133 _094_
*134 _095_
*135 _096_
*136 _097_
*137 _098_
*138 _099_
*139 _100_
*140 _101_
*141 _102_
*142 _103_
*143 _104_
*144 _105_
*145 _106_
*146 _107_
*147 _108_
*148 _109_
*149 _110_
*150 _111_
*151 _112_
*152 _113_
*153 _114_
*154 _115_
*155 _116_
*156 _117_
*157 _118_
*158 _119_
*159 _120_
*160 _121_
*161 _122_
*162 _123_
*163 _124_
*164 _125_
*165 _126_
*166 _127_
*167 _128_
*168 _129_
*169 _130_
*170 _131_
*171 _132_
*172 _133_
*173 _134_
*174 _135_
*175 _136_
*176 _137_
*177 _138_
*178 _139_
*179 _140_
*180 _141_
*181 _142_
*182 _143_
*183 _144_
*184 _145_
*185 _146_
*186 _147_
*187 _148_
*188 _149_
*189 _150_
*190 _151_
*191 _152_
*192 _153_
*193 _154_
*194 _155_
*195 _156_
*196 _157_
*197 _158_
*198 _159_
*199 _160_
*200 _161_
*201 _162_
*202 _163_
*203 _164_
*204 _165_
*205 _166_
*206 _167_
*207 _168_
*208 _169_
*209 _170_
*210 _171_
*211 _172_
*212 _173_
*213 _174_
*214 _175_
*215 _176_
*216 _177_
*217 _178_
*218 _179_
*219 _180_
*220 _181_
*221 _182_
*222 _183_
*223 _184_
*224 _185_
*225 _186_
*226 _187_
*227 _188_
*228 _189_
*229 _190_
*230 _191_
*231 _192_
*232 _193_
*233 _194_
*234 _195_
*235 _196_
*236 _197_
*237 _198_
*238 _199_
*239 _200_
*240 _201_
*241 _202_
*242 _203_
*243 _204_
*244 _205_
*245 _206_
*246 _207_
*247 _208_
*248 _209_
*249 _210_
*250 _211_
*251 _212_
*252 _213_
*253 _214_
*254 _215_
*255 _216_
*256 _217_
*257 _218_
*258 _219_
*259 _220_
*260 _221_
*261 _222_
*262 _223_
*263 _224_
*264 _225_
*265 _226_
*266 _227_
*267 _228_
*268 _229_
*269 _230_
*270 _231_
*271 _232_
*272 _233_
*273 _234_
*274 _235_
*275 _236_
*276 _237_
*277 _238_
*278 _239_
*279 _240_
*280 _241_
*281 _242_
*282 _243_
*283 _244_
*284 _245_
*285 _246_
*286 _247_
*287 _248_
*288 _249_
*289 _250_
*290 _251_
*291 _252_
*292 _253_
*293 _254_
*294 _255_
*295 _256_
*296 _257_
*297 _258_
*298 _259_
*299 _260_
*300 _261_
*301 _262_
*302 _263_
*303 _264_
*304 _265_
*305 _266_
*306 _267_
*307 _268_
*308 _269_
*309 _270_
*310 _271_
*311 _272_
*312 _273_
*313 _274_
*314 _275_
*315 _276_
*316 _277_
*317 _278_
*318 _279_
*319 _280_
*320 _281_
*321 _282_
*322 _283_
*323 _284_
*324 _285_
*325 _286_
*326 _287_
*327 _288_
*328 _289_
*329 _290_
*330 _291_
*331 _292_
*332 _293_
*333 _294_
*334 _295_
*335 _296_
*336 _297_
*337 _298_
*338 _299_
*339 _300_
*340 _301_
*341 _302_
*342 _303_
*343 _304_
*344 _305_
*345 _306_
*346 _307_
*347 _308_
*348 _309_
*349 _310_
*350 _311_
*351 _312_
*352 _313_
*353 _314_
*354 _315_
*355 _316_
*356 _317_
*357 _318_
*358 _319_
*359 _320_
*360 _321_
*361 _322_
*362 _323_
*363 _324_
*364 _325_
*365 _326_
*366 _327_
*367 _328_
*368 _329_
*369 _330_
*370 _331_
*371 _332_
*372 _333_
*373 _334_
*374 _335_
*375 _336_
*376 _337_
*377 _338_
*378 _339_
*379 _340_
*380 _341_
*381 _342_
*382 _343_
*383 _344_
*384 _345_
*385 _346_
*386 _347_
*387 _348_
*388 _349_
*389 _350_
*390 _351_
*391 _352_
*392 _353_
*393 _354_
*394 _355_
*395 _356_
*396 _357_
*397 _358_
*398 _359_
*399 _360_
*400 _361_
*401 _362_
*402 _363_
*403 _364_
*404 _365_
*405 _366_
*406 _367_
*407 _368_
*408 _369_
*409 _370_
*410 _371_
*411 _372_
*412 _373_
*413 _374_
*414 _375_
*415 _376_
*416 _377_
*417 _378_
*418 _379_
*419 _380_
*420 _381_
*421 _382_
*422 _383_
*423 _384_
*424 _385_
*425 _386_
*426 _387_
*427 _388_
*428 _389_
*429 _390_
*430 _391_
*431 _392_
*432 _393_
*433 _394_
*434 _395_
*435 _396_
*436 _397_
*437 _398_
*438 _399_
*439 _400_
*440 _401_
*441 _402_
*442 _403_
*443 _404_
*444 _405_
*445 _406_
*446 _407_
*447 addr_pointer_register_internal\[0\]
*448 addr_pointer_register_internal\[1\]
*449 addr_pointer_register_internal\[2\]
*450 addr_pointer_register_internal\[3\]
*451 addr_pointer_register_internal\[4\]
*452 addr_pointer_register_internal\[5\]
*453 addr_pointer_register_internal\[6\]
*454 addr_pointer_register_internal\[7\]
*455 addr_set_register\[0\]
*456 addr_set_register\[1\]
*457 addr_set_register\[2\]
*458 addr_set_register\[3\]
*459 addr_set_register\[4\]
*460 addr_set_register\[5\]
*461 addr_set_register\[6\]
*462 addr_set_register\[7\]
*463 address_data_buffer_internal\[0\]
*464 address_data_buffer_internal\[1\]
*465 address_data_buffer_internal\[2\]
*466 address_data_buffer_internal\[3\]
*467 address_data_buffer_internal\[4\]
*468 address_data_buffer_internal\[5\]
*469 address_data_buffer_internal\[6\]
*470 address_data_buffer_internal\[7\]
*471 clknet_0_CLK_I
*472 clknet_3_0__leaf_CLK_I
*473 clknet_3_1__leaf_CLK_I
*474 clknet_3_2__leaf_CLK_I
*475 clknet_3_3__leaf_CLK_I
*476 clknet_3_4__leaf_CLK_I
*477 clknet_3_5__leaf_CLK_I
*478 clknet_3_6__leaf_CLK_I
*479 clknet_3_7__leaf_CLK_I
*480 falling_edge_detected
*481 i2c_next_state\[0\]
*482 i2c_next_state\[1\]
*483 i2c_scl_in_synchronised_internal
*484 i2c_sda_in_synchronised_internal
*485 i2c_state\[0\]
*486 i2c_state\[1\]
*487 iteration\[0\]
*488 iteration\[1\]
*489 iteration\[2\]
*490 iteration\[3\]
*491 net1
*492 net10
*493 net11
*494 net12
*495 net13
*496 net14
*497 net15
*498 net16
*499 net17
*500 net18
*501 net19
*502 net2
*503 net20
*504 net21
*505 net22
*506 net23
*507 net24
*508 net25
*509 net26
*510 net27
*511 net28
*512 net29
*513 net3
*514 net30
*515 net31
*516 net32
*517 net33
*518 net34
*519 net35
*520 net36
*521 net37
*522 net38
*523 net39
*524 net4
*525 net40
*526 net41
*527 net42
*528 net43
*529 net44
*530 net45
*531 net46
*532 net47
*533 net48
*534 net49
*535 net5
*536 net50
*537 net51
*538 net52
*539 net53
*540 net54
*541 net55
*542 net56
*543 net57
*544 net58
*545 net59
*546 net6
*547 net60
*548 net61
*549 net62
*550 net63
*551 net64
*552 net7
*553 net8
*554 net9
*555 previous_state
*556 received_data_internal_flag
*557 recv_data_buffer\[0\]
*558 recv_data_buffer\[1\]
*559 recv_data_buffer\[2\]
*560 recv_data_buffer\[3\]
*561 recv_data_buffer\[4\]
*562 recv_data_buffer\[5\]
*563 recv_data_buffer\[6\]
*564 recv_data_buffer\[7\]
*565 register_addr_data_flag
*566 register_content_data_flag
*567 rising_edge_detected
*568 scl_synchroniser_internal\[0\]
*569 sda_previous_state
*570 sda_synchroniser_internal\[0\]
*571 send_data_buffer\[0\]
*572 send_data_buffer\[1\]
*573 send_data_buffer\[2\]
*574 send_data_buffer\[3\]
*575 send_data_buffer\[4\]
*576 send_data_buffer\[5\]
*577 send_data_buffer\[6\]
*578 send_data_buffer\[7\]
*579 wb_master_next_state\[0\]
*580 wb_master_next_state\[1\]
*581 wb_master_state\[0\]
*582 wb_master_state\[1\]
*583 wb_master_subroutine_iteration\[0\]
*584 wb_master_subroutine_iteration\[1\]
*585 write_request_internal_flag
*586 FILLER_0_133
*587 FILLER_0_135
*588 FILLER_0_138
*589 FILLER_0_154
*590 FILLER_0_162
*591 FILLER_0_201
*592 FILLER_0_203
*593 FILLER_0_206
*594 FILLER_0_208
*595 FILLER_0_265
*596 FILLER_0_31
*597 FILLER_0_33
*598 FILLER_0_61
*599 FILLER_0_65
*600 FILLER_0_67
*601 FILLER_0_70
*602 FILLER_10_157
*603 FILLER_10_161
*604 FILLER_10_163
*605 FILLER_10_172
*606 FILLER_10_174
*607 FILLER_10_177
*608 FILLER_10_193
*609 FILLER_10_197
*610 FILLER_10_2
*611 FILLER_10_223
*612 FILLER_10_225
*613 FILLER_10_240
*614 FILLER_10_244
*615 FILLER_10_247
*616 FILLER_10_34
*617 FILLER_10_37
*618 FILLER_10_45
*619 FILLER_10_6
*620 FILLER_10_64
*621 FILLER_10_72
*622 FILLER_10_76
*623 FILLER_10_82
*624 FILLER_10_90
*625 FILLER_10_94
*626 FILLER_11_10
*627 FILLER_11_103
*628 FILLER_11_110
*629 FILLER_11_112
*630 FILLER_11_129
*631 FILLER_11_137
*632 FILLER_11_139
*633 FILLER_11_142
*634 FILLER_11_150
*635 FILLER_11_164
*636 FILLER_11_172
*637 FILLER_11_185
*638 FILLER_11_189
*639 FILLER_11_19
*640 FILLER_11_2
*641 FILLER_11_21
*642 FILLER_11_247
*643 FILLER_11_38
*644 FILLER_11_56
*645 FILLER_11_64
*646 FILLER_11_72
*647 FILLER_11_76
*648 FILLER_11_95
*649 FILLER_12_107
*650 FILLER_12_109
*651 FILLER_12_127
*652 FILLER_12_135
*653 FILLER_12_137
*654 FILLER_12_157
*655 FILLER_12_165
*656 FILLER_12_177
*657 FILLER_12_186
*658 FILLER_12_194
*659 FILLER_12_198
*660 FILLER_12_2
*661 FILLER_12_21
*662 FILLER_12_247
*663 FILLER_12_31
*664 FILLER_12_37
*665 FILLER_12_45
*666 FILLER_12_53
*667 FILLER_12_57
*668 FILLER_12_59
*669 FILLER_12_6
*670 FILLER_12_87
*671 FILLER_12_89
*672 FILLER_13_119
*673 FILLER_13_121
*674 FILLER_13_136
*675 FILLER_13_142
*676 FILLER_13_153
*677 FILLER_13_169
*678 FILLER_13_188
*679 FILLER_13_196
*680 FILLER_13_2
*681 FILLER_13_200
*682 FILLER_13_206
*683 FILLER_13_212
*684 FILLER_13_216
*685 FILLER_13_22
*686 FILLER_13_38
*687 FILLER_13_42
*688 FILLER_13_52
*689 FILLER_13_68
*690 FILLER_13_72
*691 FILLER_13_76
*692 FILLER_13_88
*693 FILLER_14_103
*694 FILLER_14_107
*695 FILLER_14_153
*696 FILLER_14_164
*697 FILLER_14_172
*698 FILLER_14_174
*699 FILLER_14_18
*700 FILLER_14_192
*701 FILLER_14_20
*702 FILLER_14_200
*703 FILLER_14_204
*704 FILLER_14_230
*705 FILLER_14_247
*706 FILLER_14_32
*707 FILLER_14_34
*708 FILLER_14_37
*709 FILLER_14_63
*710 FILLER_14_79
*711 FILLER_14_95
*712 FILLER_15_10
*713 FILLER_15_14
*714 FILLER_15_164
*715 FILLER_15_172
*716 FILLER_15_195
*717 FILLER_15_2
*718 FILLER_15_249
*719 FILLER_15_33
*720 FILLER_15_41
*721 FILLER_15_60
*722 FILLER_15_68
*723 FILLER_15_85
*724 FILLER_15_93
*725 FILLER_15_97
*726 FILLER_16_102
*727 FILLER_16_104
*728 FILLER_16_107
*729 FILLER_16_111
*730 FILLER_16_153
*731 FILLER_16_161
*732 FILLER_16_165
*733 FILLER_16_173
*734 FILLER_16_177
*735 FILLER_16_191
*736 FILLER_16_2
*737 FILLER_16_242
*738 FILLER_16_244
*739 FILLER_16_247
*740 FILLER_16_32
*741 FILLER_16_34
*742 FILLER_16_37
*743 FILLER_16_4
*744 FILLER_16_45
*745 FILLER_16_58
*746 FILLER_16_82
*747 FILLER_16_98
*748 FILLER_17_10
*749 FILLER_17_132
*750 FILLER_17_14
*751 FILLER_17_142
*752 FILLER_17_150
*753 FILLER_17_16
*754 FILLER_17_163
*755 FILLER_17_179
*756 FILLER_17_187
*757 FILLER_17_2
*758 FILLER_17_200
*759 FILLER_17_241
*760 FILLER_17_39
*761 FILLER_17_55
*762 FILLER_17_63
*763 FILLER_17_67
*764 FILLER_17_69
*765 FILLER_17_79
*766 FILLER_17_87
*767 FILLER_17_89
*768 FILLER_18_10
*769 FILLER_18_107
*770 FILLER_18_14
*771 FILLER_18_158
*772 FILLER_18_16
*773 FILLER_18_164
*774 FILLER_18_2
*775 FILLER_18_247
*776 FILLER_18_27
*777 FILLER_18_41
*778 FILLER_18_45
*779 FILLER_18_51
*780 FILLER_18_59
*781 FILLER_18_63
*782 FILLER_18_70
*783 FILLER_18_72
*784 FILLER_18_84
*785 FILLER_18_92
*786 FILLER_18_96
*787 FILLER_19_121
*788 FILLER_19_125
*789 FILLER_19_133
*790 FILLER_19_137
*791 FILLER_19_139
*792 FILLER_19_2
*793 FILLER_19_22
*794 FILLER_19_222
*795 FILLER_19_51
*796 FILLER_19_55
*797 FILLER_19_69
*798 FILLER_19_81
*799 FILLER_19_85
*800 FILLER_1_100
*801 FILLER_1_130
*802 FILLER_1_134
*803 FILLER_1_154
*804 FILLER_1_187
*805 FILLER_1_191
*806 FILLER_1_2
*807 FILLER_1_212
*808 FILLER_1_6
*809 FILLER_1_80
*810 FILLER_1_96
*811 FILLER_20_10
*812 FILLER_20_102
*813 FILLER_20_104
*814 FILLER_20_107
*815 FILLER_20_123
*816 FILLER_20_127
*817 FILLER_20_14
*818 FILLER_20_162
*819 FILLER_20_177
*820 FILLER_20_183
*821 FILLER_20_187
*822 FILLER_20_2
*823 FILLER_20_21
*824 FILLER_20_225
*825 FILLER_20_247
*826 FILLER_20_43
*827 FILLER_20_59
*828 FILLER_20_71
*829 FILLER_20_73
*830 FILLER_20_82
*831 FILLER_20_98
*832 FILLER_21_100
*833 FILLER_21_104
*834 FILLER_21_106
*835 FILLER_21_119
*836 FILLER_21_129
*837 FILLER_21_133
*838 FILLER_21_142
*839 FILLER_21_227
*840 FILLER_21_31
*841 FILLER_21_39
*842 FILLER_21_41
*843 FILLER_21_50
*844 FILLER_21_58
*845 FILLER_21_67
*846 FILLER_21_69
*847 FILLER_21_76
*848 FILLER_21_92
*849 FILLER_22_161
*850 FILLER_22_177
*851 FILLER_22_179
*852 FILLER_22_2
*853 FILLER_22_23
*854 FILLER_22_247
*855 FILLER_22_31
*856 FILLER_22_37
*857 FILLER_22_39
*858 FILLER_22_45
*859 FILLER_22_53
*860 FILLER_22_92
*861 FILLER_23_126
*862 FILLER_23_152
*863 FILLER_23_156
*864 FILLER_23_2
*865 FILLER_23_212
*866 FILLER_23_237
*867 FILLER_23_26
*868 FILLER_23_30
*869 FILLER_23_45
*870 FILLER_23_57
*871 FILLER_23_65
*872 FILLER_23_69
*873 FILLER_23_72
*874 FILLER_23_74
*875 FILLER_23_83
*876 FILLER_23_91
*877 FILLER_23_95
*878 FILLER_24_107
*879 FILLER_24_109
*880 FILLER_24_122
*881 FILLER_24_150
*882 FILLER_24_241
*883 FILLER_24_247
*884 FILLER_24_45
*885 FILLER_24_57
*886 FILLER_24_73
*887 FILLER_24_75
*888 FILLER_24_81
*889 FILLER_25_109
*890 FILLER_25_111
*891 FILLER_25_127
*892 FILLER_25_135
*893 FILLER_25_139
*894 FILLER_25_142
*895 FILLER_25_154
*896 FILLER_25_158
*897 FILLER_25_208
*898 FILLER_25_212
*899 FILLER_25_31
*900 FILLER_25_35
*901 FILLER_25_47
*902 FILLER_25_63
*903 FILLER_25_67
*904 FILLER_25_69
*905 FILLER_25_76
*906 FILLER_25_85
*907 FILLER_25_89
*908 FILLER_25_95
*909 FILLER_25_99
*910 FILLER_26_107
*911 FILLER_26_14
*912 FILLER_26_140
*913 FILLER_26_142
*914 FILLER_26_154
*915 FILLER_26_2
*916 FILLER_26_202
*917 FILLER_26_204
*918 FILLER_26_22
*919 FILLER_26_247
*920 FILLER_26_26
*921 FILLER_26_45
*922 FILLER_26_49
*923 FILLER_26_6
*924 FILLER_26_68
*925 FILLER_26_70
*926 FILLER_26_8
*927 FILLER_27_10
*928 FILLER_27_133
*929 FILLER_27_137
*930 FILLER_27_139
*931 FILLER_27_142
*932 FILLER_27_156
*933 FILLER_27_158
*934 FILLER_27_188
*935 FILLER_27_2
*936 FILLER_27_212
*937 FILLER_27_43
*938 FILLER_27_51
*939 FILLER_27_53
*940 FILLER_27_72
*941 FILLER_28_107
*942 FILLER_28_139
*943 FILLER_28_141
*944 FILLER_28_146
*945 FILLER_28_177
*946 FILLER_28_211
*947 FILLER_28_215
*948 FILLER_28_247
*949 FILLER_28_31
*950 FILLER_28_37
*951 FILLER_28_45
*952 FILLER_29_10
*953 FILLER_29_12
*954 FILLER_29_142
*955 FILLER_29_2
*956 FILLER_29_21
*957 FILLER_29_237
*958 FILLER_29_37
*959 FILLER_29_72
*960 FILLER_2_103
*961 FILLER_2_107
*962 FILLER_2_115
*963 FILLER_2_121
*964 FILLER_2_129
*965 FILLER_2_177
*966 FILLER_2_18
*967 FILLER_2_228
*968 FILLER_2_247
*969 FILLER_2_91
*970 FILLER_2_99
*971 FILLER_30_102
*972 FILLER_30_104
*973 FILLER_30_107
*974 FILLER_30_111
*975 FILLER_30_128
*976 FILLER_30_2
*977 FILLER_30_247
*978 FILLER_30_33
*979 FILLER_30_87
*980 FILLER_31_102
*981 FILLER_31_104
*982 FILLER_31_142
*983 FILLER_31_144
*984 FILLER_31_151
*985 FILLER_31_153
*986 FILLER_31_160
*987 FILLER_31_193
*988 FILLER_31_2
*989 FILLER_31_212
*990 FILLER_31_216
*991 FILLER_31_6
*992 FILLER_31_85
*993 FILLER_31_94
*994 FILLER_32_103
*995 FILLER_32_107
*996 FILLER_32_123
*997 FILLER_32_131
*998 FILLER_32_143
*999 FILLER_32_183
*1000 FILLER_32_213
*1001 FILLER_32_215
*1002 FILLER_32_247
*1003 FILLER_32_99
*1004 FILLER_33_105
*1005 FILLER_33_121
*1006 FILLER_33_129
*1007 FILLER_33_142
*1008 FILLER_33_144
*1009 FILLER_33_19
*1010 FILLER_33_2
*1011 FILLER_33_23
*1012 FILLER_33_266
*1013 FILLER_33_53
*1014 FILLER_33_6
*1015 FILLER_33_72
*1016 FILLER_33_74
*1017 FILLER_33_88
*1018 FILLER_34_101
*1019 FILLER_34_115
*1020 FILLER_34_18
*1021 FILLER_34_247
*1022 FILLER_34_34
*1023 FILLER_34_37
*1024 FILLER_34_41
*1025 FILLER_34_43
*1026 FILLER_35_119
*1027 FILLER_35_207
*1028 FILLER_35_209
*1029 FILLER_35_237
*1030 FILLER_35_60
*1031 FILLER_35_68
*1032 FILLER_35_72
*1033 FILLER_35_76
*1034 FILLER_36_112
*1035 FILLER_36_120
*1036 FILLER_36_151
*1037 FILLER_36_159
*1038 FILLER_36_244
*1039 FILLER_36_263
*1040 FILLER_36_31
*1041 FILLER_36_37
*1042 FILLER_36_41
*1043 FILLER_36_43
*1044 FILLER_36_88
*1045 FILLER_36_90
*1046 FILLER_37_104
*1047 FILLER_37_120
*1048 FILLER_37_128
*1049 FILLER_37_130
*1050 FILLER_37_138
*1051 FILLER_37_172
*1052 FILLER_37_2
*1053 FILLER_37_206
*1054 FILLER_37_208
*1055 FILLER_37_265
*1056 FILLER_37_32
*1057 FILLER_37_36
*1058 FILLER_37_40
*1059 FILLER_37_56
*1060 FILLER_37_6
*1061 FILLER_37_64
*1062 FILLER_37_70
*1063 FILLER_37_86
*1064 FILLER_37_90
*1065 FILLER_3_102
*1066 FILLER_3_106
*1067 FILLER_3_108
*1068 FILLER_3_126
*1069 FILLER_3_134
*1070 FILLER_3_159
*1071 FILLER_3_167
*1072 FILLER_3_179
*1073 FILLER_3_212
*1074 FILLER_3_31
*1075 FILLER_3_61
*1076 FILLER_3_94
*1077 FILLER_4_10
*1078 FILLER_4_100
*1079 FILLER_4_104
*1080 FILLER_4_107
*1081 FILLER_4_109
*1082 FILLER_4_122
*1083 FILLER_4_130
*1084 FILLER_4_149
*1085 FILLER_4_153
*1086 FILLER_4_155
*1087 FILLER_4_172
*1088 FILLER_4_174
*1089 FILLER_4_177
*1090 FILLER_4_2
*1091 FILLER_4_247
*1092 FILLER_4_31
*1093 FILLER_4_37
*1094 FILLER_4_92
*1095 FILLER_5_112
*1096 FILLER_5_116
*1097 FILLER_5_125
*1098 FILLER_5_132
*1099 FILLER_5_147
*1100 FILLER_5_163
*1101 FILLER_5_167
*1102 FILLER_5_207
*1103 FILLER_5_209
*1104 FILLER_5_221
*1105 FILLER_5_31
*1106 FILLER_5_56
*1107 FILLER_5_72
*1108 FILLER_5_74
*1109 FILLER_6_10
*1110 FILLER_6_102
*1111 FILLER_6_104
*1112 FILLER_6_107
*1113 FILLER_6_115
*1114 FILLER_6_117
*1115 FILLER_6_126
*1116 FILLER_6_130
*1117 FILLER_6_14
*1118 FILLER_6_140
*1119 FILLER_6_152
*1120 FILLER_6_168
*1121 FILLER_6_177
*1122 FILLER_6_2
*1123 FILLER_6_247
*1124 FILLER_6_26
*1125 FILLER_6_34
*1126 FILLER_6_37
*1127 FILLER_6_41
*1128 FILLER_7_128
*1129 FILLER_7_130
*1130 FILLER_7_162
*1131 FILLER_7_166
*1132 FILLER_7_182
*1133 FILLER_7_202
*1134 FILLER_7_250
*1135 FILLER_7_31
*1136 FILLER_7_69
*1137 FILLER_7_72
*1138 FILLER_7_79
*1139 FILLER_7_96
*1140 FILLER_8_10
*1141 FILLER_8_107
*1142 FILLER_8_115
*1143 FILLER_8_157
*1144 FILLER_8_165
*1145 FILLER_8_169
*1146 FILLER_8_177
*1147 FILLER_8_193
*1148 FILLER_8_2
*1149 FILLER_8_23
*1150 FILLER_8_247
*1151 FILLER_8_25
*1152 FILLER_8_33
*1153 FILLER_8_37
*1154 FILLER_8_41
*1155 FILLER_8_43
*1156 FILLER_8_64
*1157 FILLER_8_66
*1158 FILLER_9_123
*1159 FILLER_9_125
*1160 FILLER_9_135
*1161 FILLER_9_139
*1162 FILLER_9_151
*1163 FILLER_9_159
*1164 FILLER_9_180
*1165 FILLER_9_196
*1166 FILLER_9_2
*1167 FILLER_9_208
*1168 FILLER_9_21
*1169 FILLER_9_23
*1170 FILLER_9_33
*1171 FILLER_9_40
*1172 FILLER_9_48
*1173 FILLER_9_54
*1174 FILLER_9_56
*1175 FILLER_9_63
*1176 FILLER_9_67
*1177 FILLER_9_69
*1178 FILLER_9_72
*1179 FILLER_9_82
*1180 FILLER_9_90
*1181 PHY_EDGE_ROW_0_Left_38
*1182 PHY_EDGE_ROW_0_Right_0
*1183 PHY_EDGE_ROW_10_Left_48
*1184 PHY_EDGE_ROW_10_Right_10
*1185 PHY_EDGE_ROW_11_Left_49
*1186 PHY_EDGE_ROW_11_Right_11
*1187 PHY_EDGE_ROW_12_Left_50
*1188 PHY_EDGE_ROW_12_Right_12
*1189 PHY_EDGE_ROW_13_Left_51
*1190 PHY_EDGE_ROW_13_Right_13
*1191 PHY_EDGE_ROW_14_Left_52
*1192 PHY_EDGE_ROW_14_Right_14
*1193 PHY_EDGE_ROW_15_Left_53
*1194 PHY_EDGE_ROW_15_Right_15
*1195 PHY_EDGE_ROW_16_Left_54
*1196 PHY_EDGE_ROW_16_Right_16
*1197 PHY_EDGE_ROW_17_Left_55
*1198 PHY_EDGE_ROW_17_Right_17
*1199 PHY_EDGE_ROW_18_Left_56
*1200 PHY_EDGE_ROW_18_Right_18
*1201 PHY_EDGE_ROW_19_Left_57
*1202 PHY_EDGE_ROW_19_Right_19
*1203 PHY_EDGE_ROW_1_Left_39
*1204 PHY_EDGE_ROW_1_Right_1
*1205 PHY_EDGE_ROW_20_Left_58
*1206 PHY_EDGE_ROW_20_Right_20
*1207 PHY_EDGE_ROW_21_Left_59
*1208 PHY_EDGE_ROW_21_Right_21
*1209 PHY_EDGE_ROW_22_Left_60
*1210 PHY_EDGE_ROW_22_Right_22
*1211 PHY_EDGE_ROW_23_Left_61
*1212 PHY_EDGE_ROW_23_Right_23
*1213 PHY_EDGE_ROW_24_Left_62
*1214 PHY_EDGE_ROW_24_Right_24
*1215 PHY_EDGE_ROW_25_Left_63
*1216 PHY_EDGE_ROW_25_Right_25
*1217 PHY_EDGE_ROW_26_Left_64
*1218 PHY_EDGE_ROW_26_Right_26
*1219 PHY_EDGE_ROW_27_Left_65
*1220 PHY_EDGE_ROW_27_Right_27
*1221 PHY_EDGE_ROW_28_Left_66
*1222 PHY_EDGE_ROW_28_Right_28
*1223 PHY_EDGE_ROW_29_Left_67
*1224 PHY_EDGE_ROW_29_Right_29
*1225 PHY_EDGE_ROW_2_Left_40
*1226 PHY_EDGE_ROW_2_Right_2
*1227 PHY_EDGE_ROW_30_Left_68
*1228 PHY_EDGE_ROW_30_Right_30
*1229 PHY_EDGE_ROW_31_Left_69
*1230 PHY_EDGE_ROW_31_Right_31
*1231 PHY_EDGE_ROW_32_Left_70
*1232 PHY_EDGE_ROW_32_Right_32
*1233 PHY_EDGE_ROW_33_Left_71
*1234 PHY_EDGE_ROW_33_Right_33
*1235 PHY_EDGE_ROW_34_Left_72
*1236 PHY_EDGE_ROW_34_Right_34
*1237 PHY_EDGE_ROW_35_Left_73
*1238 PHY_EDGE_ROW_35_Right_35
*1239 PHY_EDGE_ROW_36_Left_74
*1240 PHY_EDGE_ROW_36_Right_36
*1241 PHY_EDGE_ROW_37_Left_75
*1242 PHY_EDGE_ROW_37_Right_37
*1243 PHY_EDGE_ROW_3_Left_41
*1244 PHY_EDGE_ROW_3_Right_3
*1245 PHY_EDGE_ROW_4_Left_42
*1246 PHY_EDGE_ROW_4_Right_4
*1247 PHY_EDGE_ROW_5_Left_43
*1248 PHY_EDGE_ROW_5_Right_5
*1249 PHY_EDGE_ROW_6_Left_44
*1250 PHY_EDGE_ROW_6_Right_6
*1251 PHY_EDGE_ROW_7_Left_45
*1252 PHY_EDGE_ROW_7_Right_7
*1253 PHY_EDGE_ROW_8_Left_46
*1254 PHY_EDGE_ROW_8_Right_8
*1255 PHY_EDGE_ROW_9_Left_47
*1256 PHY_EDGE_ROW_9_Right_9
*1257 TAP_TAPCELL_ROW_0_76
*1258 TAP_TAPCELL_ROW_0_77
*1259 TAP_TAPCELL_ROW_0_78
*1260 TAP_TAPCELL_ROW_0_79
*1261 TAP_TAPCELL_ROW_0_80
*1262 TAP_TAPCELL_ROW_0_81
*1263 TAP_TAPCELL_ROW_0_82
*1264 TAP_TAPCELL_ROW_10_114
*1265 TAP_TAPCELL_ROW_10_115
*1266 TAP_TAPCELL_ROW_10_116
*1267 TAP_TAPCELL_ROW_10_117
*1268 TAP_TAPCELL_ROW_11_118
*1269 TAP_TAPCELL_ROW_11_119
*1270 TAP_TAPCELL_ROW_11_120
*1271 TAP_TAPCELL_ROW_12_121
*1272 TAP_TAPCELL_ROW_12_122
*1273 TAP_TAPCELL_ROW_12_123
*1274 TAP_TAPCELL_ROW_12_124
*1275 TAP_TAPCELL_ROW_13_125
*1276 TAP_TAPCELL_ROW_13_126
*1277 TAP_TAPCELL_ROW_13_127
*1278 TAP_TAPCELL_ROW_14_128
*1279 TAP_TAPCELL_ROW_14_129
*1280 TAP_TAPCELL_ROW_14_130
*1281 TAP_TAPCELL_ROW_14_131
*1282 TAP_TAPCELL_ROW_15_132
*1283 TAP_TAPCELL_ROW_15_133
*1284 TAP_TAPCELL_ROW_15_134
*1285 TAP_TAPCELL_ROW_16_135
*1286 TAP_TAPCELL_ROW_16_136
*1287 TAP_TAPCELL_ROW_16_137
*1288 TAP_TAPCELL_ROW_16_138
*1289 TAP_TAPCELL_ROW_17_139
*1290 TAP_TAPCELL_ROW_17_140
*1291 TAP_TAPCELL_ROW_17_141
*1292 TAP_TAPCELL_ROW_18_142
*1293 TAP_TAPCELL_ROW_18_143
*1294 TAP_TAPCELL_ROW_18_144
*1295 TAP_TAPCELL_ROW_18_145
*1296 TAP_TAPCELL_ROW_19_146
*1297 TAP_TAPCELL_ROW_19_147
*1298 TAP_TAPCELL_ROW_19_148
*1299 TAP_TAPCELL_ROW_1_83
*1300 TAP_TAPCELL_ROW_1_84
*1301 TAP_TAPCELL_ROW_1_85
*1302 TAP_TAPCELL_ROW_20_149
*1303 TAP_TAPCELL_ROW_20_150
*1304 TAP_TAPCELL_ROW_20_151
*1305 TAP_TAPCELL_ROW_20_152
*1306 TAP_TAPCELL_ROW_21_153
*1307 TAP_TAPCELL_ROW_21_154
*1308 TAP_TAPCELL_ROW_21_155
*1309 TAP_TAPCELL_ROW_22_156
*1310 TAP_TAPCELL_ROW_22_157
*1311 TAP_TAPCELL_ROW_22_158
*1312 TAP_TAPCELL_ROW_22_159
*1313 TAP_TAPCELL_ROW_23_160
*1314 TAP_TAPCELL_ROW_23_161
*1315 TAP_TAPCELL_ROW_23_162
*1316 TAP_TAPCELL_ROW_24_163
*1317 TAP_TAPCELL_ROW_24_164
*1318 TAP_TAPCELL_ROW_24_165
*1319 TAP_TAPCELL_ROW_24_166
*1320 TAP_TAPCELL_ROW_25_167
*1321 TAP_TAPCELL_ROW_25_168
*1322 TAP_TAPCELL_ROW_25_169
*1323 TAP_TAPCELL_ROW_26_170
*1324 TAP_TAPCELL_ROW_26_171
*1325 TAP_TAPCELL_ROW_26_172
*1326 TAP_TAPCELL_ROW_26_173
*1327 TAP_TAPCELL_ROW_27_174
*1328 TAP_TAPCELL_ROW_27_175
*1329 TAP_TAPCELL_ROW_27_176
*1330 TAP_TAPCELL_ROW_28_177
*1331 TAP_TAPCELL_ROW_28_178
*1332 TAP_TAPCELL_ROW_28_179
*1333 TAP_TAPCELL_ROW_28_180
*1334 TAP_TAPCELL_ROW_29_181
*1335 TAP_TAPCELL_ROW_29_182
*1336 TAP_TAPCELL_ROW_29_183
*1337 TAP_TAPCELL_ROW_2_86
*1338 TAP_TAPCELL_ROW_2_87
*1339 TAP_TAPCELL_ROW_2_88
*1340 TAP_TAPCELL_ROW_2_89
*1341 TAP_TAPCELL_ROW_30_184
*1342 TAP_TAPCELL_ROW_30_185
*1343 TAP_TAPCELL_ROW_30_186
*1344 TAP_TAPCELL_ROW_30_187
*1345 TAP_TAPCELL_ROW_31_188
*1346 TAP_TAPCELL_ROW_31_189
*1347 TAP_TAPCELL_ROW_31_190
*1348 TAP_TAPCELL_ROW_32_191
*1349 TAP_TAPCELL_ROW_32_192
*1350 TAP_TAPCELL_ROW_32_193
*1351 TAP_TAPCELL_ROW_32_194
*1352 TAP_TAPCELL_ROW_33_195
*1353 TAP_TAPCELL_ROW_33_196
*1354 TAP_TAPCELL_ROW_33_197
*1355 TAP_TAPCELL_ROW_34_198
*1356 TAP_TAPCELL_ROW_34_199
*1357 TAP_TAPCELL_ROW_34_200
*1358 TAP_TAPCELL_ROW_34_201
*1359 TAP_TAPCELL_ROW_35_202
*1360 TAP_TAPCELL_ROW_35_203
*1361 TAP_TAPCELL_ROW_35_204
*1362 TAP_TAPCELL_ROW_36_205
*1363 TAP_TAPCELL_ROW_36_206
*1364 TAP_TAPCELL_ROW_36_207
*1365 TAP_TAPCELL_ROW_36_208
*1366 TAP_TAPCELL_ROW_37_209
*1367 TAP_TAPCELL_ROW_37_210
*1368 TAP_TAPCELL_ROW_37_211
*1369 TAP_TAPCELL_ROW_37_212
*1370 TAP_TAPCELL_ROW_37_213
*1371 TAP_TAPCELL_ROW_37_214
*1372 TAP_TAPCELL_ROW_37_215
*1373 TAP_TAPCELL_ROW_3_90
*1374 TAP_TAPCELL_ROW_3_91
*1375 TAP_TAPCELL_ROW_3_92
*1376 TAP_TAPCELL_ROW_4_93
*1377 TAP_TAPCELL_ROW_4_94
*1378 TAP_TAPCELL_ROW_4_95
*1379 TAP_TAPCELL_ROW_4_96
*1380 TAP_TAPCELL_ROW_5_97
*1381 TAP_TAPCELL_ROW_5_98
*1382 TAP_TAPCELL_ROW_5_99
*1383 TAP_TAPCELL_ROW_6_100
*1384 TAP_TAPCELL_ROW_6_101
*1385 TAP_TAPCELL_ROW_6_102
*1386 TAP_TAPCELL_ROW_6_103
*1387 TAP_TAPCELL_ROW_7_104
*1388 TAP_TAPCELL_ROW_7_105
*1389 TAP_TAPCELL_ROW_7_106
*1390 TAP_TAPCELL_ROW_8_107
*1391 TAP_TAPCELL_ROW_8_108
*1392 TAP_TAPCELL_ROW_8_109
*1393 TAP_TAPCELL_ROW_8_110
*1394 TAP_TAPCELL_ROW_9_111
*1395 TAP_TAPCELL_ROW_9_112
*1396 TAP_TAPCELL_ROW_9_113
*1397 _408_
*1398 _409_
*1399 _410_
*1400 _411_
*1401 _412_
*1402 _413_
*1403 _414_
*1404 _415_
*1405 _416_
*1406 _417_
*1407 _418_
*1408 _419_
*1409 _420_
*1410 _421_
*1411 _422_
*1412 _423_
*1413 _424_
*1414 _425_
*1415 _426_
*1416 _427_
*1417 _428_
*1418 _429_
*1419 _430_
*1420 _431_
*1421 _432_
*1422 _433_
*1423 _434_
*1424 _435_
*1425 _436_
*1426 _437_
*1427 _438_
*1428 _439_
*1429 _440_
*1430 _441_
*1431 _442_
*1432 _443_
*1433 _444_
*1434 _445_
*1435 _446_
*1436 _447_
*1437 _448_
*1438 _449_
*1439 _450_
*1440 _451_
*1441 _452_
*1442 _453_
*1443 _454_
*1444 _455_
*1445 _456_
*1446 _457_
*1447 _458_
*1448 _459_
*1449 _460_
*1450 _461_
*1451 _462_
*1452 _463_
*1453 _464_
*1454 _465_
*1455 _466_
*1456 _467_
*1457 _468_
*1458 _469_
*1459 _470_
*1460 _471_
*1461 _472_
*1462 _473_
*1463 _474_
*1464 _475_
*1465 _476_
*1466 _477_
*1467 _478_
*1468 _479_
*1469 _480_
*1470 _481_
*1471 _482_
*1472 _483_
*1473 _484_
*1474 _485_
*1475 _486_
*1476 _487_
*1477 _488_
*1478 _489_
*1479 _490_
*1480 _491_
*1481 _492_
*1482 _493_
*1483 _494_
*1484 _495_
*1485 _496_
*1486 _497_
*1487 _498_
*1488 _499_
*1489 _500_
*1490 _501_
*1491 _502_
*1492 _503_
*1493 _504_
*1494 _505_
*1495 _506_
*1496 _507_
*1497 _508_
*1498 _509_
*1499 _510_
*1500 _511_
*1501 _512_
*1502 _513_
*1503 _514_
*1504 _515_
*1505 _516_
*1506 _517_
*1507 _518_
*1508 _519_
*1509 _520_
*1510 _521_
*1511 _522_
*1512 _523_
*1513 _524_
*1514 _525_
*1515 _526_
*1516 _527_
*1517 _528_
*1518 _529_
*1519 _530_
*1520 _531_
*1521 _532_
*1522 _533_
*1523 _534_
*1524 _535_
*1525 _536_
*1526 _537_
*1527 _538_
*1528 _539_
*1529 _540_
*1530 _541_
*1531 _542_
*1532 _543_
*1533 _544_
*1534 _545_
*1535 _546_
*1536 _547_
*1537 _548_
*1538 _549_
*1539 _550_
*1540 _551_
*1541 _552_
*1542 _553_
*1543 _554_
*1544 _555_
*1545 _556_
*1546 _557_
*1547 _558_
*1548 _559_
*1549 _560_
*1550 _561_
*1551 _562_
*1552 _563_
*1553 _564_
*1554 _565_
*1555 _566_
*1556 _567_
*1557 _568_
*1558 _569_
*1559 _570_
*1560 _571_
*1561 _572_
*1562 _573_
*1563 _574_
*1564 _575_
*1565 _576_
*1566 _577_
*1567 _578_
*1568 _579_
*1569 _580_
*1570 _581_
*1571 _582_
*1572 _583_
*1573 _584_
*1574 _585_
*1575 _586_
*1576 _587_
*1577 _588_
*1578 _589_
*1579 _590_
*1580 _591_
*1581 _592_
*1582 _593_
*1583 _594_
*1584 _595_
*1585 _596_
*1586 _597_
*1587 _598_
*1588 _599_
*1589 _600_
*1590 _601_
*1591 _602_
*1592 _603_
*1593 _604_
*1594 _605_
*1595 _606_
*1596 _607_
*1597 _608_
*1598 _609_
*1599 _610_
*1600 _611_
*1601 _612_
*1602 _613_
*1603 _614_
*1604 _615_
*1605 _616_
*1606 _617_
*1607 _618_
*1608 _619_
*1609 _620_
*1610 _621_
*1611 _622_
*1612 _623_
*1613 _624_
*1614 _625_
*1615 _626_
*1616 _627_
*1617 _628_
*1618 _629_
*1619 _630_
*1620 _631_
*1621 _632_
*1622 _633_
*1623 _634_
*1624 _635_
*1625 _636_
*1626 _637_
*1627 _638_
*1628 _639_
*1629 _640_
*1630 _641_
*1631 _642_
*1632 _643_
*1633 _644_
*1634 _645_
*1635 _646_
*1636 _647_
*1637 _648_
*1638 _649_
*1639 _650_
*1640 _651_
*1641 _652_
*1642 _653_
*1643 _654_
*1644 _655_
*1645 _656_
*1646 _657_
*1647 _658_
*1648 _659_
*1649 _660_
*1650 _661_
*1651 _662_
*1652 _663_
*1653 _664_
*1654 _665_
*1655 _666_
*1656 _667_
*1657 _668_
*1658 _669_
*1659 _670_
*1660 _671_
*1661 _672_
*1662 _673_
*1663 _674_
*1664 _675_
*1665 _676_
*1666 _677_
*1667 _678_
*1668 _679_
*1669 _680_
*1670 _681_
*1671 _682_
*1672 _683_
*1673 _684_
*1674 _685_
*1675 _686_
*1676 _687_
*1677 _688_
*1678 _689_
*1679 _690_
*1680 _691_
*1681 _692_
*1682 _693_
*1683 _694_
*1684 _695_
*1685 _696_
*1686 _697_
*1687 _698_
*1688 _699_
*1689 _700_
*1690 _701_
*1691 _702_
*1692 _703_
*1693 _704_
*1694 _705_
*1695 _706_
*1696 _707_
*1697 _708_
*1698 _709_
*1699 _710_
*1700 _711_
*1701 _712_
*1702 _713_
*1703 _714_
*1704 _715_
*1705 _716_
*1706 _717_
*1707 _718_
*1708 _719_
*1709 _720_
*1710 _721_
*1711 _722_
*1712 _723_
*1713 _724_
*1714 _725_
*1715 _726_
*1716 _727_
*1717 _728_
*1718 _729_
*1719 _730_
*1720 _731_
*1721 _732_
*1722 _733_
*1723 _734_
*1724 _735_
*1725 _736_
*1726 _737_
*1727 _738_
*1728 _739_
*1729 _740_
*1730 _741_
*1731 _742_
*1732 _743_
*1733 _744_
*1734 _745_
*1735 _746_
*1736 _747_
*1737 _748_
*1738 _749_
*1739 _750_
*1740 _751_
*1741 _752_
*1742 _753_
*1743 _754_
*1744 _755_
*1745 _756_
*1746 _757_
*1747 _758_
*1748 _759_
*1749 _760_
*1750 _761_
*1751 _762_
*1752 _763_
*1753 _764_
*1754 _765_
*1755 _766_
*1756 _767_
*1757 _768_
*1758 _769_
*1759 _770_
*1760 _771_
*1761 _772_
*1762 _773_
*1763 _774_
*1764 _775_
*1765 _776_
*1766 _777_
*1767 _778_
*1768 _779_
*1769 _780_
*1770 _781_
*1771 _782_
*1772 _783_
*1773 _784_
*1774 _785_
*1775 _786_
*1776 _787_
*1777 _788_
*1778 _789_
*1779 _790_
*1780 _791_
*1781 _792_
*1782 _793_
*1783 _794_
*1784 _795_
*1785 _796_
*1786 _797_
*1787 _798_
*1788 _799_
*1789 _800_
*1790 _801_
*1791 _802_
*1792 _803_
*1793 _804_
*1794 _805_
*1795 _806_
*1796 _807_
*1797 _808_
*1798 _809_
*1799 _810_
*1800 _811_
*1801 _812_
*1802 _813_
*1803 _814_
*1804 _815_
*1805 _816_
*1806 _817_
*1807 _818_
*1808 _819_
*1809 _820_
*1810 _821_
*1811 _822_
*1812 _823_
*1813 _824_
*1814 _825_
*1815 _826_
*1816 _827_
*1817 _828_
*1818 _829_
*1819 _830_
*1820 _831_
*1821 _832_
*1822 _833_
*1823 _834_
*1824 _835_
*1825 _836_
*1826 _837_
*1827 _838_
*1828 _839_
*1829 _840_
*1830 _841_
*1831 _842_
*1832 _843_
*1833 _844_
*1834 _845_
*1835 _846_
*1836 _847_
*1837 _848_
*1838 _849_
*1839 _850_
*1840 _851_
*1841 _852_
*1842 _853_
*1843 _854_
*1844 _855_
*1845 _856_
*1846 _857_
*1847 _858_
*1848 _859_
*1849 _860_
*1850 _861_
*1851 _862_
*1852 _863_
*1853 _864_
*1854 _865_
*1855 _866_
*1856 _867_
*1857 _868_
*1858 _869_
*1859 _870_
*1860 _871_
*1861 _872_
*1862 _873_
*1863 _874_
*1864 _875_
*1865 _876_
*1866 _877_
*1867 _878_
*1868 _879_
*1869 _880_
*1870 _881_
*1871 _882_
*1872 _883_
*1873 _884_
*1874 _885_
*1875 _886_
*1876 _887_
*1877 _888_
*1878 _889_
*1879 _890_
*1880 _891_
*1881 _892_
*1882 _893_
*1883 _894_
*1884 _895_
*1885 _896_
*1886 _897_
*1887 _898_
*1888 _899_
*1889 _900_
*1890 _901_
*1891 _902_
*1892 clkbuf_0_CLK_I
*1893 clkbuf_3_0__f_CLK_I
*1894 clkbuf_3_1__f_CLK_I
*1895 clkbuf_3_2__f_CLK_I
*1896 clkbuf_3_3__f_CLK_I
*1897 clkbuf_3_4__f_CLK_I
*1898 clkbuf_3_5__f_CLK_I
*1899 clkbuf_3_6__f_CLK_I
*1900 clkbuf_3_7__f_CLK_I
*1901 clkload0
*1902 clkload1
*1903 clkload2
*1904 clkload3
*1905 clkload4
*1906 clkload5
*1907 clkload6
*1908 hold37
*1909 hold38
*1910 hold39
*1911 hold40
*1912 hold41
*1913 hold42
*1914 hold43
*1915 hold44
*1916 hold45
*1917 hold46
*1918 hold47
*1919 hold48
*1920 hold49
*1921 hold50
*1922 hold51
*1923 hold52
*1924 hold53
*1925 hold54
*1926 hold55
*1927 hold56
*1928 hold57
*1929 hold58
*1930 hold59
*1931 hold60
*1932 hold61
*1933 hold62
*1934 hold63
*1935 hold64
*1936 input1
*1937 input10
*1938 input11
*1939 input12
*1940 input2
*1941 input3
*1942 input4
*1943 input5
*1944 input6
*1945 input7
*1946 input8
*1947 input9
*1948 max_cap35
*1949 max_cap36
*1950 output13
*1951 output14
*1952 output15
*1953 output16
*1954 output17
*1955 output18
*1956 output19
*1957 output20
*1958 output21
*1959 output22
*1960 output23
*1961 output24
*1962 output25
*1963 output26
*1964 output27
*1965 output28
*1966 output29
*1967 output30
*1968 output31
*1969 output32
*1970 output33
*1971 wire34

*PORTS
ACK_I I
ADDR_O[0] O
ADDR_O[1] O
ADDR_O[2] O
ADDR_O[3] O
ADDR_O[4] O
ADDR_O[5] O
ADDR_O[6] O
ADDR_O[7] O
CLK_I I
CYC_O O
DAT_I[0] I
DAT_I[1] I
DAT_I[2] I
DAT_I[3] I
DAT_I[4] I
DAT_I[5] I
DAT_I[6] I
DAT_I[7] I
DAT_O[0] O
DAT_O[1] O
DAT_O[2] O
DAT_O[3] O
DAT_O[4] O
DAT_O[5] O
DAT_O[6] O
DAT_O[7] O
ERR_I I
RST_I I
RTY_I I
STB_O O
WE_O O
i2c_scl_in I
i2c_sda_in I
i2c_sda_out_pin_ctrl O
i2c_sda_out_pin_ctrl_n O

*D_NET *1 0.00293311
*CONN
*P ACK_I I
*I *1936:I I *D gf180mcu_fd_sc_mcu7t5v0__dlyb_1
*CAP
1 ACK_I 0.00125037
2 *1936:I 0.00125037
3 *1936:I STB_O 0
4 *1936:I WE_O 0
5 *1936:I *1796:A1 0.000309924
6 *1936:I *1968:I 0.00010488
7 *1936:I *515:8 1.75631e-05
*RES
1 ACK_I *1936:I 18.855 
*END

*D_NET *2 0.00316665
*CONN
*P ADDR_O[0] O
*I *1950:Z O *D gf180mcu_fd_sc_mcu7t5v0__dlyb_1
*CAP
1 ADDR_O[0] 0.00124796
2 *1950:Z 0.00124796
3 ADDR_O[0] ADDR_O[1] 0
4 ADDR_O[0] *1767:B2 0
5 ADDR_O[0] *1771:A1 0.000220128
6 ADDR_O[0] *1842:CLK 0.000106193
7 ADDR_O[0] *1937:I 0
8 ADDR_O[0] *1951:I 0.000166843
9 ADDR_O[0] *498:12 0.000177559
*RES
1 *1950:Z ADDR_O[0] 19.575 
*END

*D_NET *3 0.00158761
*CONN
*P ADDR_O[1] O
*I *1951:Z O *D gf180mcu_fd_sc_mcu7t5v0__dlyb_1
*CAP
1 ADDR_O[1] 0.00072534
2 *1951:Z 0.00072534
3 ADDR_O[1] ADDR_O[2] 0
4 ADDR_O[1] *1771:A1 6.76406e-05
5 ADDR_O[1] *1771:A2 6.92926e-05
6 ADDR_O[1] *1771:B1 0
7 ADDR_O[0] ADDR_O[1] 0
*RES
1 *1951:Z ADDR_O[1] 14.715 
*END

*D_NET *4 0.00389353
*CONN
*P ADDR_O[2] O
*I *1952:Z O *D gf180mcu_fd_sc_mcu7t5v0__dlyb_1
*CAP
1 ADDR_O[2] 0.00084204
2 *1952:Z 0.00084204
3 ADDR_O[2] ADDR_O[3] 0.00070485
4 ADDR_O[2] ADDR_O[4] 0.000426975
5 ADDR_O[2] *1772:A2 0.000309311
6 ADDR_O[2] *501:10 0.000103693
7 ADDR_O[2] *503:14 0.000664621
8 ADDR_O[1] ADDR_O[2] 0
*RES
1 *1952:Z ADDR_O[2] 18.315 
*END

*D_NET *5 0.00217276
*CONN
*P ADDR_O[3] O
*I *1953:Z O *D gf180mcu_fd_sc_mcu7t5v0__dlyb_1
*CAP
1 ADDR_O[3] 0.000482028
2 *1953:Z 0.000482028
3 ADDR_O[3] ADDR_O[4] 0
4 ADDR_O[3] *500:12 0.00013531
5 ADDR_O[3] *501:10 0.000368541
6 ADDR_O[2] ADDR_O[3] 0.00070485
*RES
1 *1953:Z ADDR_O[3] 13.995 
*END

*D_NET *6 0.00172595
*CONN
*P ADDR_O[4] O
*I *1954:Z O *D gf180mcu_fd_sc_mcu7t5v0__dlyb_1
*CAP
1 ADDR_O[4] 0.00045951
2 *1954:Z 0.00045951
3 ADDR_O[4] ADDR_O[5] 0
4 ADDR_O[4] *500:12 4.6353e-05
5 ADDR_O[4] *501:10 0.000236608
6 ADDR_O[4] *503:14 9.69917e-05
7 ADDR_O[2] ADDR_O[4] 0.000426975
8 ADDR_O[3] ADDR_O[4] 0
*RES
1 *1954:Z ADDR_O[4] 13.275 
*END

*D_NET *7 0.00101839
*CONN
*P ADDR_O[5] O
*I *1955:Z O *D gf180mcu_fd_sc_mcu7t5v0__dlyb_1
*CAP
1 ADDR_O[5] 0.00041712
2 *1955:Z 0.00041712
3 ADDR_O[5] ADDR_O[6] 0
4 ADDR_O[5] *500:12 1.3026e-05
5 ADDR_O[5] *503:14 0.000171129
6 ADDR_O[4] ADDR_O[5] 0
*RES
1 *1955:Z ADDR_O[5] 12.375 
*END

*D_NET *8 0.000996339
*CONN
*P ADDR_O[6] O
*I *1956:Z O *D gf180mcu_fd_sc_mcu7t5v0__dlyb_1
*CAP
1 ADDR_O[6] 0.00040939
2 *1956:Z 0.00040939
3 ADDR_O[6] ADDR_O[7] 0
4 ADDR_O[6] *503:14 0.000177559
5 ADDR_O[5] ADDR_O[6] 0
*RES
1 *1956:Z ADDR_O[6] 12.375 
*END

*D_NET *9 0.00156288
*CONN
*P ADDR_O[7] O
*I *1957:Z O *D gf180mcu_fd_sc_mcu7t5v0__dlyb_1
*CAP
1 ADDR_O[7] 0.00041599
2 *1957:Z 0.00041599
3 ADDR_O[7] *1940:I 0
4 ADDR_O[7] *503:14 0.000294421
5 ADDR_O[7] *504:14 0.000436478
6 ADDR_O[6] ADDR_O[7] 0
*RES
1 *1957:Z ADDR_O[7] 13.095 
*END

*D_NET *10 0.0152689
*CONN
*P CLK_I I
*I *1892:I I *D gf180mcu_fd_sc_mcu7t5v0__clkbuf_16
*CAP
1 CLK_I 0.00387134
2 *1892:I 0.002409
3 *10:24 0.00628033
4 *1892:I *1425:I 0.000148576
5 *1892:I *1482:C 0.000167317
6 *1892:I *1496:C 0.000155839
7 *1892:I *1497:A1 1.28932e-05
8 *1892:I *1584:A2 7.55765e-06
9 *1892:I *1842:D 0.00011291
10 *1892:I *141:26 1.14128e-05
11 *1892:I *141:54 0
12 *1892:I *207:6 0.000138609
13 *1892:I *450:59 0.00011289
14 *1892:I *504:33 0.000814144
15 *1892:I *581:42 0
16 *10:24 *1559:A1 3.98088e-05
17 *10:24 *1559:A2 6.03388e-05
18 *10:24 *1561:A2 0.000113889
19 *10:24 *1561:B 0
20 *10:24 *1769:A1 1.17652e-05
21 *10:24 *1769:A2 2.84401e-06
22 *10:24 *1770:A2 0.000263321
23 *10:24 *1774:A1 4.04833e-05
24 *10:24 *1839:D 0.000109531
25 *10:24 *1841:D 3.86102e-05
26 *10:24 *1874:D 0
27 *10:24 *1937:I 0
28 *10:24 *242:12 2.05626e-05
29 *10:24 *242:20 8.68281e-06
30 *10:24 *447:159 0.000101737
31 *10:24 *450:10 0
32 *10:24 *450:49 7.11704e-05
33 *10:24 *451:69 0.000126062
34 *10:24 *492:33 1.7301e-05
*RES
1 CLK_I *10:24 43.605 
2 *10:24 *1892:I 30.6 
*END

*D_NET *11 0.0071465
*CONN
*P CYC_O O
*I *1958:Z O *D gf180mcu_fd_sc_mcu7t5v0__dlyb_1
*CAP
1 CYC_O 0.00185855
2 *1958:Z 0.00185855
3 CYC_O DAT_O[6] 3.78377e-05
4 CYC_O DAT_O[7] 0
5 CYC_O STB_O 0.00114019
6 CYC_O *1852:D 0.000954968
7 CYC_O *1854:D 0
8 CYC_O *1922:I 0.00105658
9 CYC_O *1927:I 0
10 CYC_O *1965:I 1.10551e-05
11 CYC_O *563:12 0.000150593
12 CYC_O *564:44 7.81701e-05
*RES
1 *1958:Z CYC_O 37.125 
*END

*D_NET *12 0.00103818
*CONN
*P DAT_I[0] I
*I *1940:I I *D gf180mcu_fd_sc_mcu7t5v0__dlyb_1
*CAP
1 DAT_I[0] 0.00046636
2 *1940:I 0.00046636
3 *1940:I *1941:I 0
4 *1940:I *503:14 1.18076e-06
5 *1940:I *504:14 0.000104278
6 ADDR_O[7] *1940:I 0
*RES
1 DAT_I[0] *1940:I 12.735 
*END

*D_NET *13 0.00092431
*CONN
*P DAT_I[1] I
*I *1941:I I *D gf180mcu_fd_sc_mcu7t5v0__dlyb_1
*CAP
1 DAT_I[1] 0.000436861
2 *1941:I 0.000436861
3 *1941:I *1942:I 0
4 *1941:I *504:14 5.05894e-05
5 *1940:I *1941:I 0
*RES
1 DAT_I[1] *1941:I 12.555 
*END

*D_NET *14 0.000951244
*CONN
*P DAT_I[2] I
*I *1942:I I *D gf180mcu_fd_sc_mcu7t5v0__dlyb_1
*CAP
1 DAT_I[2] 0.000475622
2 *1942:I 0.000475622
3 *1942:I *1943:I 0
4 *1941:I *1942:I 0
*RES
1 DAT_I[2] *1942:I 12.555 
*END

*D_NET *15 0.000891968
*CONN
*P DAT_I[3] I
*I *1943:I I *D gf180mcu_fd_sc_mcu7t5v0__dlyb_1
*CAP
1 DAT_I[3] 0.000445984
2 *1943:I 0.000445984
3 *1943:I *1944:I 0
4 *1942:I *1943:I 0
*RES
1 DAT_I[3] *1943:I 12.375 
*END

*D_NET *16 0.00104326
*CONN
*P DAT_I[4] I
*I *1944:I I *D gf180mcu_fd_sc_mcu7t5v0__dlyb_1
*CAP
1 DAT_I[4] 0.00052163
2 *1944:I 0.00052163
3 *1944:I *1945:I 0
4 *1943:I *1944:I 0
*RES
1 DAT_I[4] *1944:I 12.915 
*END

*D_NET *17 0.00115537
*CONN
*P DAT_I[5] I
*I *1945:I I *D gf180mcu_fd_sc_mcu7t5v0__dlyb_1
*CAP
1 DAT_I[5] 0.00055993
2 *1945:I 0.00055993
3 *1945:I *1946:I 3.55118e-05
4 *1944:I *1945:I 0
*RES
1 DAT_I[5] *1945:I 13.095 
*END

*D_NET *18 0.00142885
*CONN
*P DAT_I[6] I
*I *1946:I I *D gf180mcu_fd_sc_mcu7t5v0__dlyb_1
*CAP
1 DAT_I[6] 0.000693564
2 *1946:I 0.000693564
3 *1946:I *1786:B1 6.2083e-06
4 *1946:I *1919:I 0
5 *1946:I *1947:I 0
6 *1945:I *1946:I 3.55118e-05
*RES
1 DAT_I[6] *1946:I 14.175 
*END

*D_NET *19 0.00140903
*CONN
*P DAT_I[7] I
*I *1947:I I *D gf180mcu_fd_sc_mcu7t5v0__dlyb_1
*CAP
1 DAT_I[7] 0.000480086
2 *1947:I 0.000480086
3 *1947:I DAT_O[0] 0
4 *1947:I *1786:B1 0.000444513
5 *1947:I *1786:B2 4.34199e-06
6 *1946:I *1947:I 0
*RES
1 DAT_I[7] *1947:I 13.275 
*END

*D_NET *20 0.000701328
*CONN
*P DAT_O[0] O
*I *1959:Z O *D gf180mcu_fd_sc_mcu7t5v0__dlyb_1
*CAP
1 DAT_O[0] 0.000350664
2 *1959:Z 0.000350664
3 DAT_O[0] DAT_O[1] 0
4 *1947:I DAT_O[0] 0
*RES
1 *1959:Z DAT_O[0] 11.925 
*END

*D_NET *21 0.00120982
*CONN
*P DAT_O[1] O
*I *1960:Z O *D gf180mcu_fd_sc_mcu7t5v0__dlyb_1
*CAP
1 DAT_O[1] 0.000438603
2 *1960:Z 0.000438603
3 DAT_O[1] DAT_O[2] 0
4 DAT_O[1] *1918:I 0.000169524
5 DAT_O[1] *506:8 0.000163092
6 DAT_O[0] DAT_O[1] 0
*RES
1 *1960:Z DAT_O[1] 12.735 
*END

*D_NET *22 0.00128758
*CONN
*P DAT_O[2] O
*I *1961:Z O *D gf180mcu_fd_sc_mcu7t5v0__dlyb_1
*CAP
1 DAT_O[2] 0.00059052
2 *1961:Z 0.00059052
3 DAT_O[2] DAT_O[3] 0
4 DAT_O[2] *1918:I 0.000106536
5 DAT_O[1] DAT_O[2] 0
*RES
1 *1961:Z DAT_O[2] 13.455 
*END

*D_NET *23 0.00175627
*CONN
*P DAT_O[3] O
*I *1962:Z O *D gf180mcu_fd_sc_mcu7t5v0__dlyb_1
*CAP
1 DAT_O[3] 0.000738034
2 *1962:Z 0.000738034
3 DAT_O[3] DAT_O[4] 0.000158798
4 DAT_O[3] *1790:A1 0
5 DAT_O[3] *507:12 2.29071e-05
6 DAT_O[3] *508:12 9.85004e-05
7 DAT_O[2] DAT_O[3] 0
*RES
1 *1962:Z DAT_O[3] 14.355 
*END

*D_NET *24 0.00209744
*CONN
*P DAT_O[4] O
*I *1963:Z O *D gf180mcu_fd_sc_mcu7t5v0__dlyb_1
*CAP
1 DAT_O[4] 0.000724876
2 *1963:Z 0.000724876
3 DAT_O[4] DAT_O[5] 0.000180811
4 DAT_O[4] *1790:A1 0
5 DAT_O[4] *507:12 0
6 DAT_O[4] *508:12 0.000308081
7 DAT_O[3] DAT_O[4] 0.000158798
*RES
1 *1963:Z DAT_O[4] 15.255 
*END

*D_NET *25 0.00313225
*CONN
*P DAT_O[5] O
*I *1964:Z O *D gf180mcu_fd_sc_mcu7t5v0__dlyb_1
*CAP
1 DAT_O[5] 0.000554468
2 *1964:Z 0.000554468
3 DAT_O[5] DAT_O[6] 0.000712528
4 DAT_O[5] *509:14 0.00112998
5 DAT_O[4] DAT_O[5] 0.000180811
*RES
1 *1964:Z DAT_O[5] 15.615 
*END

*D_NET *26 0.0028276
*CONN
*P DAT_O[6] O
*I *1965:Z O *D gf180mcu_fd_sc_mcu7t5v0__dlyb_1
*CAP
1 DAT_O[6] 0.000773534
2 *1965:Z 0.000773534
3 DAT_O[6] DAT_O[7] 0
4 DAT_O[6] *1922:I 2.89427e-06
5 DAT_O[6] *1929:I 0.000114321
6 DAT_O[6] *509:14 0.000412946
7 CYC_O DAT_O[6] 3.78377e-05
8 DAT_O[5] DAT_O[6] 0.000712528
*RES
1 *1965:Z DAT_O[6] 16.515 
*END

*D_NET *27 0.00541859
*CONN
*P DAT_O[7] O
*I *1966:Z O *D gf180mcu_fd_sc_mcu7t5v0__dlyb_1
*CAP
1 DAT_O[7] 0.00136112
2 *1966:Z 0.00136112
3 DAT_O[7] *1516:A2 2.9302e-05
4 DAT_O[7] *1532:A1 0.000943622
5 DAT_O[7] *1632:I1 9.29472e-05
6 DAT_O[7] *1900:I 4.59336e-05
7 DAT_O[7] *1920:I 0
8 DAT_O[7] *1926:I 0.000268972
9 DAT_O[7] *1929:I 0.000248965
10 DAT_O[7] *1965:I 0
11 DAT_O[7] *1966:I 0.000734114
12 DAT_O[7] *510:10 0.000330616
13 DAT_O[7] *577:8 1.86887e-06
14 CYC_O DAT_O[7] 0
15 DAT_O[6] DAT_O[7] 0
*RES
1 *1966:Z DAT_O[7] 24.255 
*END

*D_NET *29 0.00541909
*CONN
*P RST_I I
*I *1937:I I *D gf180mcu_fd_sc_mcu7t5v0__dlyb_1
*CAP
1 RST_I 0.00162684
2 *1937:I 0.00162684
3 *1937:I *1767:B2 0.00137509
4 *1937:I *1771:B1 0.000709856
5 *1937:I *1932:I 6.76694e-05
6 *1937:I *1951:I 0
7 *1937:I *477:48 1.27919e-05
8 ADDR_O[0] *1937:I 0
9 *10:24 *1937:I 0
*RES
1 RST_I *1937:I 24.075 
*END

*D_NET *31 0.0103327
*CONN
*P STB_O O
*I *1967:Z O *D gf180mcu_fd_sc_mcu7t5v0__dlyb_1
*CAP
1 STB_O 0.00149956
2 *1967:Z 0.00149956
3 STB_O WE_O 0
4 STB_O *1800:A1 0.000817609
5 STB_O *1851:D 0.00327763
6 STB_O *1852:D 0.000378053
7 STB_O *1922:I 0.000108989
8 STB_O *1931:I 0.0011869
9 STB_O *1968:I 0.000424169
10 CYC_O STB_O 0.00114019
11 *1936:I STB_O 0
*RES
1 *1967:Z STB_O 40.905 
*END

*D_NET *34 0.00118824
*CONN
*P WE_O O
*I *1968:Z O *D gf180mcu_fd_sc_mcu7t5v0__dlyb_1
*CAP
1 WE_O 0.000508555
2 *1968:Z 0.000508555
3 WE_O *1922:I 0.000171129
4 STB_O WE_O 0
5 *1936:I WE_O 0
*RES
1 *1968:Z WE_O 13.095 
*END

*D_NET *35 0.00191944
*CONN
*P i2c_scl_in I
*I *1938:I I *D gf180mcu_fd_sc_mcu7t5v0__dlyb_1
*CAP
1 i2c_scl_in 0.000656248
2 *1938:I 0.000656248
3 *1938:I *1888:D 2.03791e-05
4 *1938:I *1888:CLK 0.000586561
5 *1938:I *1908:I 0
*RES
1 i2c_scl_in *1938:I 14.535 
*END

*D_NET *36 0.00105709
*CONN
*P i2c_sda_in I
*I *1939:I I *D gf180mcu_fd_sc_mcu7t5v0__dlyb_1
*CAP
1 i2c_sda_in 0.000435535
2 *1939:I 0.000435535
3 *1939:I *1404:I 2.19668e-05
4 *1939:I *1889:CLK 0.000164053
*RES
1 i2c_sda_in *1939:I 12.375 
*END

*D_NET *37 0.00121975
*CONN
*P i2c_sda_out_pin_ctrl O
*I *1969:Z O *D gf180mcu_fd_sc_mcu7t5v0__dlyb_1
*CAP
1 i2c_sda_out_pin_ctrl 0.000532274
2 *1969:Z 0.000532274
3 i2c_sda_out_pin_ctrl *485:55 0.000155203
*RES
1 *1969:Z i2c_sda_out_pin_ctrl 13.365 
*END

*D_NET *38 0.000926706
*CONN
*P i2c_sda_out_pin_ctrl_n O
*I *1970:Z O *D gf180mcu_fd_sc_mcu7t5v0__dlyb_1
*CAP
1 i2c_sda_out_pin_ctrl_n 0.000421865
2 *1970:Z 0.000421865
3 i2c_sda_out_pin_ctrl_n *1824:CLK 8.29767e-05
*RES
1 *1970:Z i2c_sda_out_pin_ctrl_n 12.285 
*END

*D_NET *39 0.00122742
*CONN
*I *1886:D I *D gf180mcu_fd_sc_mcu7t5v0__dffq_1
*I *1428:Z O *D gf180mcu_fd_sc_mcu7t5v0__and2_1
*CAP
1 *1886:D 0.000172525
2 *1428:Z 0.000172525
3 *1886:D *1630:B 0.000782491
4 *1886:D *1885:D 9.98816e-05
5 *1886:D *1886:CLK 0
6 *1886:D *474:44 0
*RES
1 *1428:Z *1886:D 11.34 
*END

*D_NET *40 0.00126874
*CONN
*I *1885:D I *D gf180mcu_fd_sc_mcu7t5v0__dffq_1
*I *1427:ZN O *D gf180mcu_fd_sc_mcu7t5v0__nor2_1
*CAP
1 *1885:D 0.000396136
2 *1427:ZN 0.000396136
3 *1885:D *1630:B 0.000163566
4 *1885:D *1835:D 0.000127736
5 *1885:D *1886:CLK 8.52804e-05
6 *1885:D *474:36 0
7 *1885:D *474:40 0
8 *1886:D *1885:D 9.98816e-05
*RES
1 *1427:ZN *1885:D 12.78 
*END

*D_NET *41 0.00153302
*CONN
*I *1857:D I *D gf180mcu_fd_sc_mcu7t5v0__dffq_1
*I *1443:ZN O *D gf180mcu_fd_sc_mcu7t5v0__aoi21_1
*CAP
1 *1857:D 5.55833e-05
2 *1443:ZN 5.55833e-05
3 *1857:D *132:35 0.000807339
4 *1857:D *142:74 9.29472e-05
5 *1857:D *142:170 0.0004548
6 *1857:D *488:127 6.67701e-05
*RES
1 *1443:ZN *1857:D 20.07 
*END

*D_NET *42 0.000746329
*CONN
*I *1858:D I *D gf180mcu_fd_sc_mcu7t5v0__dffq_1
*I *1446:ZN O *D gf180mcu_fd_sc_mcu7t5v0__nand3_1
*CAP
1 *1858:D 0.000133328
2 *1446:ZN 0.000133328
3 *1858:D *1446:A1 6.2979e-05
4 *1858:D *1446:A2 0.000106536
5 *1858:D *1450:A2 0.000203623
6 *1858:D *142:199 0.000106536
7 *1858:D *492:325 0
*RES
1 *1446:ZN *1858:D 10.62 
*END

*D_NET *43 0.000390089
*CONN
*I *1859:D I *D gf180mcu_fd_sc_mcu7t5v0__dffq_1
*I *1448:ZN O *D gf180mcu_fd_sc_mcu7t5v0__aoi21_1
*CAP
1 *1859:D 0.000168135
2 *1448:ZN 0.000168135
3 *1859:D *1452:A2 0
4 *1859:D *1677:A1 5.3819e-05
*RES
1 *1448:ZN *1859:D 10.26 
*END

*D_NET *44 0.000413118
*CONN
*I *1860:D I *D gf180mcu_fd_sc_mcu7t5v0__dffq_1
*I *1451:ZN O *D gf180mcu_fd_sc_mcu7t5v0__nand3_1
*CAP
1 *1860:D 0.000135353
2 *1451:ZN 0.000135353
3 *1860:D *1451:A2 7.12056e-05
4 *1860:D *458:10 7.12056e-05
*RES
1 *1451:ZN *1860:D 9.99 
*END

*D_NET *45 0.000504081
*CONN
*I *1861:D I *D gf180mcu_fd_sc_mcu7t5v0__dffq_1
*I *1454:ZN O *D gf180mcu_fd_sc_mcu7t5v0__nor2_1
*CAP
1 *1861:D 0.000186417
2 *1454:ZN 0.000186417
3 *1861:D *1452:B 4.7531e-05
4 *1861:D *1454:A1 0
5 *1861:D *161:25 8.37156e-05
*RES
1 *1454:ZN *1861:D 10.71 
*END

*D_NET *46 0.00095553
*CONN
*I *1862:D I *D gf180mcu_fd_sc_mcu7t5v0__dffq_1
*I *1457:ZN O *D gf180mcu_fd_sc_mcu7t5v0__nand3_1
*CAP
1 *1862:D 6.61834e-05
2 *1457:ZN 6.61834e-05
3 *1862:D *1450:A1 0.000367588
4 *1862:D *1457:A2 0.000302466
5 *1862:D *1457:A3 6.49579e-05
6 *1862:D *1797:A2 8.81508e-05
*RES
1 *1457:ZN *1862:D 10.62 
*END

*D_NET *47 0.000556393
*CONN
*I *1863:D I *D gf180mcu_fd_sc_mcu7t5v0__dffq_1
*I *1497:ZN O *D gf180mcu_fd_sc_mcu7t5v0__aoi22_1
*CAP
1 *1863:D 0.000223155
2 *1497:ZN 0.000223155
3 *1863:D *1497:A2 3.23694e-05
4 *1863:D *179:104 2.31089e-05
5 *1863:D *208:31 5.46041e-05
*RES
1 *1497:ZN *1863:D 10.62 
*END

*D_NET *48 0.00349265
*CONN
*I *1864:D I *D gf180mcu_fd_sc_mcu7t5v0__dffq_1
*I *1502:Z O *D gf180mcu_fd_sc_mcu7t5v0__mux2_2
*CAP
1 *1864:D 0.000199468
2 *1502:Z 0.000199468
3 *1864:D *1499:B2 5.90767e-05
4 *1864:D *1787:A2 0.000153272
5 *1864:D *1847:D 0.000987443
6 *1864:D *141:84 0.000979725
7 *1864:D *176:87 0.000196332
8 *1864:D *179:104 0.000126399
9 *1864:D *492:296 6.13973e-05
10 *1864:D *582:43 0.000530071
*RES
1 *1502:Z *1864:D 22.77 
*END

*D_NET *49 0.00189274
*CONN
*I *1865:D I *D gf180mcu_fd_sc_mcu7t5v0__dffq_1
*I *1507:Z O *D gf180mcu_fd_sc_mcu7t5v0__mux2_2
*CAP
1 *1865:D 0.000232673
2 *1507:Z 0.000232673
3 *1865:D *1501:B 0.000811541
4 *1865:D *1569:A2 0.000256629
5 *1865:D *1847:D 0.000326062
6 *1865:D *560:58 3.31567e-05
*RES
1 *1507:Z *1865:D 21.06 
*END

*D_NET *50 0.00110699
*CONN
*I *1866:D I *D gf180mcu_fd_sc_mcu7t5v0__dffq_1
*I *1512:Z O *D gf180mcu_fd_sc_mcu7t5v0__mux2_2
*CAP
1 *1866:D 0.000135391
2 *1512:Z 0.000135391
3 *1866:D *1530:A2 0.000111961
4 *1866:D *1675:S 0.00036024
5 *1866:D *1782:B2 0.00027267
6 *1866:D *1790:B2 9.13402e-05
*RES
1 *1512:Z *1866:D 20.34 
*END

*D_NET *51 0.00166039
*CONN
*I *1867:D I *D gf180mcu_fd_sc_mcu7t5v0__dffq_1
*I *1517:Z O *D gf180mcu_fd_sc_mcu7t5v0__mux2_2
*CAP
1 *1867:D 0.000380885
2 *1517:Z 0.000380885
3 *1867:D *1516:A1 0.000302466
4 *1867:D *1527:A1 0.000257314
5 *1867:D *1632:I3 3.60262e-05
6 *1867:D *478:125 0
7 *1867:D *582:85 0.000302812
*RES
1 *1517:Z *1867:D 21.96 
*END

*D_NET *52 0.00288463
*CONN
*I *1868:D I *D gf180mcu_fd_sc_mcu7t5v0__dffq_1
*I *1523:ZN O *D gf180mcu_fd_sc_mcu7t5v0__aoi22_1
*CAP
1 *1868:D 0.000103496
2 *1523:ZN 0.000103496
3 *1868:D *1442:A2 0.000719031
4 *1868:D *180:10 9.04462e-05
5 *1868:D *208:92 0.000353333
6 *1868:D *208:101 0.000219086
7 *1868:D *434:40 3.98088e-05
8 *1868:D *478:8 0.000536907
9 *1868:D *488:127 0.000719031
*RES
1 *1523:ZN *1868:D 21.69 
*END

*D_NET *53 0.00459333
*CONN
*I *1869:D I *D gf180mcu_fd_sc_mcu7t5v0__dffq_1
*I *1528:Z O *D gf180mcu_fd_sc_mcu7t5v0__mux2_2
*CAP
1 *1869:D 0.000743145
2 *1528:Z 0.000743145
3 *1869:D *1442:A2 6.58907e-05
4 *1869:D *1511:A1 9.16061e-06
5 *1869:D *1514:A2 0.000417538
6 *1869:D *1516:A2 3.17412e-05
7 *1869:D *1517:I1 2.83425e-05
8 *1869:D *1527:A1 0.000109559
9 *1869:D *1527:A2 2.35868e-05
10 *1869:D *1528:I1 0.000660202
11 *1869:D *1533:I0 0.000210052
12 *1869:D *1569:A2 0.00027566
13 *1869:D *1574:A2 0.00076593
14 *1869:D *1632:I3 4.71232e-05
15 *1869:D *1792:A1 0.000356031
16 *1869:D *1870:CLK 3.0177e-06
17 *1869:D *176:110 0.000100117
18 *1869:D *582:85 3.08806e-06
*RES
1 *1528:Z *1869:D 35.91 
*END

*D_NET *54 0.00529889
*CONN
*I *1870:D I *D gf180mcu_fd_sc_mcu7t5v0__dffq_1
*I *1533:Z O *D gf180mcu_fd_sc_mcu7t5v0__mux2_2
*CAP
1 *1870:D 0.000480459
2 *1533:Z 0.000480459
3 *1870:D *1516:A1 0.000145016
4 *1870:D *1516:A2 0.00060324
5 *1870:D *1517:I0 0.000137908
6 *1870:D *1517:S 0.000572982
7 *1870:D *1533:I1 0.000471626
8 *1870:D *1569:A2 2.44114e-05
9 *1870:D *1900:I 0.000177821
10 *1870:D *488:127 0.00142547
11 *1870:D *518:130 0.000779505
*RES
1 *1533:Z *1870:D 27.09 
*END

*D_NET *55 0.00172044
*CONN
*I *1871:D I *D gf180mcu_fd_sc_mcu7t5v0__dffq_1
*I *1549:ZN O *D gf180mcu_fd_sc_mcu7t5v0__oai221_1
*CAP
1 *1871:D 0.000390378
2 *1549:ZN 0.000390378
3 *1871:D *1549:A1 0.000638833
4 *1871:D *1549:A2 0.000177559
5 *1871:D *1549:C 5.56207e-05
6 *1871:D *1871:CLK 0
7 *1871:D *1872:D 6.76694e-05
8 *1871:D *473:120 0
*RES
1 *1549:ZN *1871:D 12.69 
*END

*D_NET *56 0.00145417
*CONN
*I *1872:D I *D gf180mcu_fd_sc_mcu7t5v0__dffq_1
*I *1552:ZN O *D gf180mcu_fd_sc_mcu7t5v0__oai221_1
*CAP
1 *1872:D 0.000511871
2 *1552:ZN 0.000511871
3 *1872:D *1549:A1 0.000277515
4 *1872:D *1549:A2 1.90777e-06
5 *1872:D *1552:A1 2.20665e-05
6 *1872:D *1552:A2 5.33037e-05
7 *1872:D *473:120 0
8 *1872:D *565:23 7.96333e-06
9 *1871:D *1872:D 6.76694e-05
*RES
1 *1552:ZN *1872:D 13.32 
*END

*D_NET *57 0.00121118
*CONN
*I *1873:D I *D gf180mcu_fd_sc_mcu7t5v0__dffq_1
*I *1557:ZN O *D gf180mcu_fd_sc_mcu7t5v0__aoi211_1
*CAP
1 *1873:D 0.000222296
2 *1557:ZN 0.000222296
3 *1873:D *1547:A2 2.60586e-05
4 *1873:D *1554:A1 5.97457e-06
5 *1873:D *1554:A2 0
6 *1873:D *1555:A1 6.52201e-05
7 *1873:D *1555:A4 0
8 *1873:D *253:20 0.000627647
9 *1873:D *449:27 4.16859e-05
*RES
1 *1557:ZN *1873:D 11.52 
*END

*D_NET *58 0.00085291
*CONN
*I *1874:D I *D gf180mcu_fd_sc_mcu7t5v0__dffq_1
*I *1561:ZN O *D gf180mcu_fd_sc_mcu7t5v0__aoi211_1
*CAP
1 *1874:D 0.000377771
2 *1561:ZN 0.000377771
3 *1874:D *1770:A2 1.26644e-05
4 *1874:D *1874:CLK 3.70356e-05
5 *1874:D *476:61 4.76678e-05
6 *10:24 *1874:D 0
*RES
1 *1561:ZN *1874:D 11.34 
*END

*D_NET *59 0.00183369
*CONN
*I *1875:D I *D gf180mcu_fd_sc_mcu7t5v0__dffq_1
*I *1566:ZN O *D gf180mcu_fd_sc_mcu7t5v0__oai32_1
*CAP
1 *1875:D 0.000465886
2 *1566:ZN 0.000465886
3 *1875:D *1558:A1 4.6211e-05
4 *1875:D *1558:A2 1.74082e-05
5 *1875:D *1564:A1 0.000345234
6 *1875:D *1565:A2 6.99566e-06
7 *1875:D *1566:B1 8.19687e-05
8 *1875:D *1766:A1 0.000115999
9 *1875:D *131:44 3.55118e-05
10 *1875:D *451:12 7.01651e-05
11 *1875:D *492:164 0.000182424
*RES
1 *1566:ZN *1875:D 13.77 
*END

*D_NET *60 0.000394406
*CONN
*I *1876:D I *D gf180mcu_fd_sc_mcu7t5v0__dffq_1
*I *1571:ZN O *D gf180mcu_fd_sc_mcu7t5v0__aoi22_1
*CAP
1 *1876:D 0.000130077
2 *1571:ZN 0.000130077
3 *1876:D *1571:B1 0.000119182
4 *1876:D *476:49 1.50702e-05
*RES
1 *1571:ZN *1876:D 10.08 
*END

*D_NET *61 0.00110738
*CONN
*I *1877:D I *D gf180mcu_fd_sc_mcu7t5v0__dffq_1
*I *1576:ZN O *D gf180mcu_fd_sc_mcu7t5v0__aoi21_1
*CAP
1 *1877:D 0.000302395
2 *1576:ZN 0.000302395
3 *1877:D *1571:B1 0.000279593
4 *1877:D *1840:CLK 0.000151427
5 *1877:D *492:15 7.15661e-05
*RES
1 *1576:ZN *1877:D 11.97 
*END

*D_NET *62 0.000598543
*CONN
*I *1878:D I *D gf180mcu_fd_sc_mcu7t5v0__dffq_1
*I *1580:ZN O *D gf180mcu_fd_sc_mcu7t5v0__nor2_1
*CAP
1 *1878:D 0.000216052
2 *1580:ZN 0.000216052
3 *1878:D *1576:A2 0.000108466
4 *1878:D *1577:A1 4.85558e-05
5 *1878:D *1878:CLK 0
6 *1878:D *492:209 9.41715e-06
*RES
1 *1580:ZN *1878:D 10.8 
*END

*D_NET *63 0.00323155
*CONN
*I *1879:D I *D gf180mcu_fd_sc_mcu7t5v0__dffq_1
*I *1588:ZN O *D gf180mcu_fd_sc_mcu7t5v0__oai32_1
*CAP
1 *1879:D 0.000472025
2 *1588:ZN 0.000472025
3 *1879:D *1549:B2 0.00131479
4 *1879:D *1880:D 0
5 *1879:D *245:10 1.91657e-05
6 *1879:D *361:30 3.68874e-05
7 *1879:D *473:45 0
8 *1879:D *473:52 0
9 *1879:D *492:120 0.000390584
10 *1879:D *492:133 0.000526079
*RES
1 *1588:ZN *1879:D 23.76 
*END

*D_NET *64 0.00110897
*CONN
*I *1880:D I *D gf180mcu_fd_sc_mcu7t5v0__dffq_1
*I *1590:ZN O *D gf180mcu_fd_sc_mcu7t5v0__oai33_1
*CAP
1 *1880:D 0.000260056
2 *1590:ZN 0.000260056
3 *1880:D *1552:A1 0.000294431
4 *1880:D *1588:A2 0.000294431
5 *1880:D *492:120 0
6 *1879:D *1880:D 0
*RES
1 *1590:ZN *1880:D 20.34 
*END

*D_NET *65 0.00170833
*CONN
*I *1881:D I *D gf180mcu_fd_sc_mcu7t5v0__dffq_1
*I *1592:ZN O *D gf180mcu_fd_sc_mcu7t5v0__aoi211_1
*CAP
1 *1881:D 0.000371933
2 *1592:ZN 0.000371933
3 *1881:D *1505:A3 0
4 *1881:D *1505:A4 0.000568662
5 *1881:D *1582:A1 4.78445e-05
6 *1881:D *1592:B 2.11239e-05
7 *1881:D *1799:B 6.17613e-06
8 *1881:D *140:127 6.17613e-06
9 *1881:D *477:89 0.000109323
10 *1881:D *581:99 0.000137697
11 *1881:D *581:131 3.19452e-05
12 *1881:D *583:8 3.55118e-05
*RES
1 *1592:ZN *1881:D 22.32 
*END

*D_NET *66 0.00294857
*CONN
*I *1882:D I *D gf180mcu_fd_sc_mcu7t5v0__dffq_1
*I *1594:ZN O *D gf180mcu_fd_sc_mcu7t5v0__aoi21_1
*CAP
1 *1882:D 0.000276548
2 *1594:ZN 0.000276548
3 *1882:D *1496:C 0.0017169
4 *1882:D *1505:A3 0
5 *1882:D *140:14 0.000129042
6 *1882:D *140:27 0.000153615
7 *1882:D *140:73 5.92385e-05
8 *1882:D *140:108 0.000288458
9 *1882:D *140:127 0
10 *1882:D *491:73 2.84883e-05
11 *1882:D *581:91 1.97308e-05
*RES
1 *1594:ZN *1882:D 22.59 
*END

*D_NET *67 0.000995275
*CONN
*I *1883:D I *D gf180mcu_fd_sc_mcu7t5v0__dffq_1
*I *1585:ZN O *D gf180mcu_fd_sc_mcu7t5v0__nor2_1
*CAP
1 *1883:D 0.000222411
2 *1585:ZN 0.000222411
3 *1883:D *1467:A1 0.000224146
4 *1883:D *1585:A1 0.000177559
5 *1883:D *1883:CLK 4.61861e-05
6 *1883:D *150:61 0.000102561
*RES
1 *1585:ZN *1883:D 11.34 
*END

*D_NET *68 0.000974448
*CONN
*I *1884:D I *D gf180mcu_fd_sc_mcu7t5v0__dffq_1
*I *1589:ZN O *D gf180mcu_fd_sc_mcu7t5v0__nor2_1
*CAP
1 *1884:D 0.000251384
2 *1589:ZN 0.000251384
3 *1884:D *1467:A1 0
4 *1884:D *1883:CLK 0.000241013
5 *1884:D *1884:CLK 3.3686e-05
6 *1884:D *179:50 9.84908e-05
7 *1884:D *361:47 0
8 *1884:D *447:76 9.84908e-05
*RES
1 *1589:ZN *1884:D 20.16 
*END

*D_NET *69 0.00070794
*CONN
*I *1806:D I *D gf180mcu_fd_sc_mcu7t5v0__dffq_1
*I *1664:ZN O *D gf180mcu_fd_sc_mcu7t5v0__nand2_1
*CAP
1 *1806:D 0.000107258
2 *1664:ZN 0.000107258
3 *1806:D *1630:B 0.000109333
4 *1806:D *1664:A1 0.000384091
5 *1806:D *1821:CLK 0
*RES
1 *1664:ZN *1806:D 10.62 
*END

*D_NET *70 0.000459792
*CONN
*I *1807:D I *D gf180mcu_fd_sc_mcu7t5v0__dffq_1
*I *1672:ZN O *D gf180mcu_fd_sc_mcu7t5v0__oai21_1
*CAP
1 *1807:D 0.000144873
2 *1672:ZN 0.000144873
3 *1807:D *356:55 9.98816e-05
4 *1807:D *361:39 7.01651e-05
*RES
1 *1672:ZN *1807:D 10.44 
*END

*D_NET *71 0.0008156
*CONN
*I *1808:D I *D gf180mcu_fd_sc_mcu7t5v0__dffq_1
*I *1674:ZN O *D gf180mcu_fd_sc_mcu7t5v0__oai21_1
*CAP
1 *1808:D 9.7459e-05
2 *1674:ZN 9.7459e-05
3 *1808:D *1673:A2 5.06271e-05
4 *1808:D *1674:A1 9.30289e-05
5 *1808:D *1674:A2 0.000330681
6 *1808:D *1677:A3 3.38735e-05
7 *1808:D *361:71 0.000112471
*RES
1 *1674:ZN *1808:D 10.53 
*END

*D_NET *72 0.000974479
*CONN
*I *1809:D I *D gf180mcu_fd_sc_mcu7t5v0__dffq_1
*I *1675:Z O *D gf180mcu_fd_sc_mcu7t5v0__mux2_2
*CAP
1 *1809:D 0.000362709
2 *1675:Z 0.000362709
3 *1809:D *1506:B 3.96404e-05
4 *1809:D *1507:I1 5.90767e-05
5 *1809:D *1790:B2 0.000103635
6 *1809:D *1810:D 0
7 *1809:D *558:42 1.06822e-05
8 *1809:D *573:8 3.60275e-05
*RES
1 *1675:Z *1809:D 11.7 
*END

*D_NET *73 0.00375307
*CONN
*I *1810:D I *D gf180mcu_fd_sc_mcu7t5v0__dffq_1
*I *1676:Z O *D gf180mcu_fd_sc_mcu7t5v0__mux2_2
*CAP
1 *1810:D 0.000854212
2 *1676:Z 0.000854212
3 *1810:D *1790:B2 0.000931696
4 *1810:D *1809:CLK 9.70737e-05
5 *1810:D *1851:D 1.27919e-05
6 *1810:D *1921:I 0.000344002
7 *1810:D *479:48 0.000157158
8 *1810:D *479:66 8.96641e-05
9 *1810:D *479:103 0.000412261
10 *1809:D *1810:D 0
*RES
1 *1676:Z *1810:D 18.18 
*END

*D_NET *74 0.00156141
*CONN
*I *1811:D I *D gf180mcu_fd_sc_mcu7t5v0__dffq_1
*I *1678:ZN O *D gf180mcu_fd_sc_mcu7t5v0__oai21_1
*CAP
1 *1811:D 0.0002721
2 *1678:ZN 0.0002721
3 *1811:D *1678:A1 0.000823918
4 *1811:D *1805:C 0.000160412
5 *1811:D *1856:D 3.95339e-06
6 *1811:D *160:40 1.95119e-05
7 *1811:D *160:49 9.41715e-06
*RES
1 *1678:ZN *1811:D 12.06 
*END

*D_NET *75 0.00244373
*CONN
*I *1812:D I *D gf180mcu_fd_sc_mcu7t5v0__dffq_1
*I *1679:Z O *D gf180mcu_fd_sc_mcu7t5v0__mux2_2
*CAP
1 *1812:D 0.000409627
2 *1679:Z 0.000409627
3 *1812:D *1514:A2 0
4 *1812:D *1517:I1 0.000264683
5 *1812:D *1529:A1 0.000538909
6 *1812:D *1532:A1 0.00031149
7 *1812:D *478:131 7.45526e-05
8 *1812:D *561:38 0.000284518
9 *1812:D *563:60 0.000150321
*RES
1 *1679:Z *1812:D 22.5 
*END

*D_NET *76 0.00489791
*CONN
*I *1813:D I *D gf180mcu_fd_sc_mcu7t5v0__dffq_1
*I *1680:Z O *D gf180mcu_fd_sc_mcu7t5v0__mux2_2
*CAP
1 *1813:D 0.000882332
2 *1680:Z 0.000882332
3 *1813:D *1514:A2 0.000444839
4 *1813:D *1514:B2 4.6613e-06
5 *1813:D *1528:I1 0.000164248
6 *1813:D *1795:A2 0.000182206
7 *1813:D *1851:D 4.31745e-05
8 *1813:D *1854:D 0.000535715
9 *1813:D *1854:CLK 0.000389574
10 *1813:D *1927:I 0
11 *1813:D *479:66 3.01487e-05
12 *1813:D *479:75 6.02974e-05
13 *1813:D *560:10 8.95422e-05
14 *1813:D *560:16 0.000270166
15 *1813:D *562:39 0.000918669
*RES
1 *1680:Z *1813:D 29.07 
*END

*D_NET *77 0.00127759
*CONN
*I *1814:D I *D gf180mcu_fd_sc_mcu7t5v0__dffq_1
*I *1681:Z O *D gf180mcu_fd_sc_mcu7t5v0__mux2_2
*CAP
1 *1814:D 0.000219744
2 *1681:Z 0.000219744
3 *1814:D *1795:A2 0.000110639
4 *1814:D *1854:D 0.000452756
5 *1814:D *562:50 4.12795e-05
6 *1814:D *563:22 1.35833e-05
7 *1814:D *564:44 0.000219842
*RES
1 *1681:Z *1814:D 21.42 
*END

*D_NET *78 0.000680486
*CONN
*I *1815:D I *D gf180mcu_fd_sc_mcu7t5v0__dffq_1
*I *1695:Z O *D gf180mcu_fd_sc_mcu7t5v0__mux2_2
*CAP
1 *1815:D 0.000143899
2 *1695:Z 0.000143899
3 *1815:D *359:40 0.000302466
4 *1815:D *492:120 9.02221e-05
*RES
1 *1695:Z *1815:D 10.62 
*END

*D_NET *79 0.00119729
*CONN
*I *1816:D I *D gf180mcu_fd_sc_mcu7t5v0__dffq_1
*I *1697:Z O *D gf180mcu_fd_sc_mcu7t5v0__mux2_2
*CAP
1 *1816:D 0.000238973
2 *1697:Z 0.000238973
3 *1816:D *1697:I1 1.78052e-05
4 *1816:D *1700:A4 0.000234541
5 *1816:D *139:103 5.33941e-05
6 *1816:D *361:30 0.000119182
7 *1816:D *484:71 0.000294421
*RES
1 *1697:Z *1816:D 20.52 
*END

*D_NET *80 0.000528667
*CONN
*I *1817:D I *D gf180mcu_fd_sc_mcu7t5v0__dffq_1
*I *1699:ZN O *D gf180mcu_fd_sc_mcu7t5v0__nor4_1
*CAP
1 *1817:D 0.000114825
2 *1699:ZN 0.000114825
3 *1817:D *1699:A1 4.65521e-05
4 *1817:D *1817:CLK 3.33483e-05
5 *1817:D *288:12 9.12635e-05
6 *1817:D *484:71 0.000127853
*RES
1 *1699:ZN *1817:D 10.08 
*END

*D_NET *81 0.00055817
*CONN
*I *1818:D I *D gf180mcu_fd_sc_mcu7t5v0__dffq_1
*I *1701:ZN O *D gf180mcu_fd_sc_mcu7t5v0__aoi211_1
*CAP
1 *1818:D 6.39841e-05
2 *1701:ZN 6.39841e-05
3 *1818:D *492:105 0.000127736
4 *1818:D *556:25 0.000302466
*RES
1 *1701:ZN *1818:D 10.08 
*END

*D_NET *82 0.000896057
*CONN
*I *1819:D I *D gf180mcu_fd_sc_mcu7t5v0__dffq_1
*I *1720:Z O *D gf180mcu_fd_sc_mcu7t5v0__and2_1
*CAP
1 *1819:D 0.000275003
2 *1720:Z 0.000275003
3 *1819:D *1404:I 0
4 *1819:D *1716:A1 8.04753e-05
5 *1819:D *1760:A2 0.000109586
6 *1819:D *127:14 0.000155989
7 *1819:D *472:42 0
*RES
1 *1720:Z *1819:D 20.52 
*END

*D_NET *83 0.00189644
*CONN
*I *1820:D I *D gf180mcu_fd_sc_mcu7t5v0__dffq_1
*I *1724:ZN O *D gf180mcu_fd_sc_mcu7t5v0__aoi21_1
*CAP
1 *1820:D 0.000118908
2 *1724:ZN 0.000118908
3 *1820:D *1724:A2 0.000822654
4 *1820:D *1760:A1 0.00054691
5 *1820:D *1912:I 0.000289059
6 *1820:D *472:38 0
*RES
1 *1724:ZN *1820:D 20.52 
*END

*D_NET *84 0.000731843
*CONN
*I *1821:D I *D gf180mcu_fd_sc_mcu7t5v0__dffq_1
*I *1734:ZN O *D gf180mcu_fd_sc_mcu7t5v0__aoi21_1
*CAP
1 *1821:D 0.000322779
2 *1734:ZN 0.000322779
3 *1821:D *1734:A2 4.44162e-05
4 *1821:D *567:20 4.18699e-05
*RES
1 *1734:ZN *1821:D 11.52 
*END

*D_NET *85 0.00284165
*CONN
*I *1822:D I *D gf180mcu_fd_sc_mcu7t5v0__dffq_1
*I *1739:ZN O *D gf180mcu_fd_sc_mcu7t5v0__nor3_1
*CAP
1 *1822:D 0.00110155
2 *1739:ZN 0.00110155
3 *1822:D *1630:B 1.50737e-05
4 *1822:D *474:46 1.79733e-05
5 *1822:D *483:63 0.000507492
6 *1822:D *488:8 2.64467e-05
7 *1822:D *488:16 7.15588e-05
*RES
1 *1739:ZN *1822:D 25.29 
*END

*D_NET *86 0.00245247
*CONN
*I *1823:D I *D gf180mcu_fd_sc_mcu7t5v0__dffq_1
*I *1743:ZN O *D gf180mcu_fd_sc_mcu7t5v0__aoi21_1
*CAP
1 *1823:D 0.000228783
2 *1743:ZN 0.000228783
3 *1823:D *1743:A1 0.000675405
4 *1823:D *352:12 0
5 *1823:D *487:41 0.000562588
6 *1823:D *488:37 0.000756908
*RES
1 *1743:ZN *1823:D 22.14 
*END

*D_NET *87 0.00296502
*CONN
*I *1824:D I *D gf180mcu_fd_sc_mcu7t5v0__dffq_1
*I *1748:ZN O *D gf180mcu_fd_sc_mcu7t5v0__aoi21_1
*CAP
1 *1824:D 0.000817739
2 *1748:ZN 0.000817739
3 *1824:D *1613:A1 0.00081596
4 *1824:D *1624:A2 7.39716e-05
5 *1824:D *1662:A2 0
6 *1824:D *1664:A1 0
7 *1824:D *1736:A3 0
8 *1824:D *1737:A2 9.08505e-05
9 *1824:D *1742:A2 3.42509e-05
10 *1824:D *403:52 8.95677e-05
11 *1824:D *490:10 0.000210588
12 *1824:D *490:29 1.4352e-05
*RES
1 *1748:ZN *1824:D 24.21 
*END

*D_NET *88 0.00288636
*CONN
*I *1825:D I *D gf180mcu_fd_sc_mcu7t5v0__dffq_1
*I *1750:Z O *D gf180mcu_fd_sc_mcu7t5v0__mux2_2
*CAP
1 *1825:D 0.000484633
2 *1750:Z 0.000484633
3 *1825:D *1618:A2 0.00021972
4 *1825:D *1665:A1 0.000292006
5 *1825:D *139:12 0
6 *1825:D *139:53 0.00108179
7 *1825:D *463:21 0.000323577
8 *1825:D *485:22 0
9 *1825:D *485:26 0
10 *1825:D *486:20 0
*RES
1 *1750:Z *1825:D 23.67 
*END

*D_NET *89 0.000695401
*CONN
*I *1826:D I *D gf180mcu_fd_sc_mcu7t5v0__dffq_1
*I *1752:ZN O *D gf180mcu_fd_sc_mcu7t5v0__oai21_1
*CAP
1 *1826:D 0.000148718
2 *1752:ZN 0.000148718
3 *1826:D *1752:A2 0.000302466
4 *1826:D *1823:CLK 9.54998e-05
*RES
1 *1752:ZN *1826:D 10.62 
*END

*D_NET *90 0.00310689
*CONN
*I *1827:D I *D gf180mcu_fd_sc_mcu7t5v0__dffq_1
*I *1754:ZN O *D gf180mcu_fd_sc_mcu7t5v0__oai21_1
*CAP
1 *1827:D 0.000262638
2 *1754:ZN 0.000262638
3 *1827:D *1754:A2 0.000100105
4 *1827:D *1826:CLK 0.000381585
5 *1827:D *422:56 0.00076373
6 *1827:D *465:8 3.01487e-05
7 *1827:D *465:14 0.000159211
8 *1827:D *475:24 0.000419307
9 *1827:D *475:26 0.000497347
10 *1827:D *488:127 0.00023018
*RES
1 *1754:ZN *1827:D 23.4 
*END

*D_NET *91 0.00156341
*CONN
*I *1828:D I *D gf180mcu_fd_sc_mcu7t5v0__dffq_1
*I *1755:Z O *D gf180mcu_fd_sc_mcu7t5v0__mux2_2
*CAP
1 *1828:D 0.000450615
2 *1755:Z 0.000450615
3 *1828:D *1647:A2 0.000119192
4 *1828:D *1755:I0 9.0531e-06
5 *1828:D *1910:I 0.00016179
6 *1828:D *142:64 0
7 *1828:D *466:6 0.000294431
8 *1828:D *480:18 7.77106e-05
*RES
1 *1755:Z *1828:D 22.5 
*END

*D_NET *92 0.00298943
*CONN
*I *1829:D I *D gf180mcu_fd_sc_mcu7t5v0__dffq_1
*I *1756:Z O *D gf180mcu_fd_sc_mcu7t5v0__mux2_2
*CAP
1 *1829:D 0.00107041
2 *1756:Z 0.00107041
3 *1829:D *1756:I0 0
4 *1829:D *1830:D 6.93035e-05
5 *1829:D *1831:CLK 0
6 *1829:D *133:16 0.00020608
7 *1829:D *467:40 0
8 *1829:D *474:19 0
9 *1829:D *474:21 0
10 *1829:D *474:108 0.000507492
11 *1829:D *483:16 6.57328e-05
*RES
1 *1756:Z *1829:D 25.56 
*END

*D_NET *93 0.00069145
*CONN
*I *1830:D I *D gf180mcu_fd_sc_mcu7t5v0__dffq_1
*I *1757:Z O *D gf180mcu_fd_sc_mcu7t5v0__mux2_2
*CAP
1 *1830:D 0.000293214
2 *1757:Z 0.000293214
3 *1830:D *467:40 3.57187e-05
4 *1829:D *1830:D 6.93035e-05
*RES
1 *1757:Z *1830:D 20.16 
*END

*D_NET *94 0.000348757
*CONN
*I *1831:D I *D gf180mcu_fd_sc_mcu7t5v0__dffq_1
*I *1758:Z O *D gf180mcu_fd_sc_mcu7t5v0__mux2_2
*CAP
1 *1831:D 0.000125919
2 *1758:Z 0.000125919
3 *1831:D *467:40 4.18699e-05
4 *1831:D *468:19 5.50498e-05
*RES
1 *1758:Z *1831:D 10.08 
*END

*D_NET *95 0.00215071
*CONN
*I *1832:D I *D gf180mcu_fd_sc_mcu7t5v0__dffq_1
*I *1759:Z O *D gf180mcu_fd_sc_mcu7t5v0__mux2_2
*CAP
1 *1832:D 0.000529316
2 *1759:Z 0.000529316
3 *1832:D *1640:A1 4.15563e-05
4 *1832:D *1640:A2 4.83522e-05
5 *1832:D *1759:I0 0
6 *1832:D *1759:S 3.73774e-06
7 *1832:D *466:27 0.00090332
8 *1832:D *469:27 4.6613e-06
9 *1832:D *519:12 9.04462e-05
*RES
1 *1759:Z *1832:D 22.68 
*END

*D_NET *96 0.00191155
*CONN
*I *1833:D I *D gf180mcu_fd_sc_mcu7t5v0__dffq_1
*I *1760:Z O *D gf180mcu_fd_sc_mcu7t5v0__and2_1
*CAP
1 *1833:D 0.000812737
2 *1760:Z 0.000812737
3 *1833:D *1404:I 0
4 *1833:D *1724:A1 2.84633e-06
5 *1833:D *1889:D 1.79733e-05
6 *1833:D *1890:D 6.46036e-05
7 *1833:D *1909:I 0
8 *1833:D *1912:I 0.000200655
*RES
1 *1760:Z *1833:D 24.12 
*END

*D_NET *97 0.00061458
*CONN
*I *1834:D I *D gf180mcu_fd_sc_mcu7t5v0__dffq_1
*I *1761:ZN O *D gf180mcu_fd_sc_mcu7t5v0__nor2_1
*CAP
1 *1834:D 0.000292215
2 *1761:ZN 0.000292215
3 *1834:D *1760:A2 0
4 *1834:D *1890:CLK 3.01487e-05
5 *1834:D *472:60 0
*RES
1 *1761:ZN *1834:D 10.8 
*END

*D_NET *98 0.000355119
*CONN
*I *1835:D I *D gf180mcu_fd_sc_mcu7t5v0__dffq_1
*I *1762:ZN O *D gf180mcu_fd_sc_mcu7t5v0__nor2_1
*CAP
1 *1835:D 0.00010205
2 *1762:ZN 0.00010205
3 *1835:D *1428:A1 0
4 *1835:D *474:36 2.32821e-05
5 *1885:D *1835:D 0.000127736
*RES
1 *1762:ZN *1835:D 9.99 
*END

*D_NET *99 0.000849697
*CONN
*I *1836:D I *D gf180mcu_fd_sc_mcu7t5v0__dffq_1
*I *1763:Z O *D gf180mcu_fd_sc_mcu7t5v0__and2_1
*CAP
1 *1836:D 0.00034335
2 *1763:Z 0.00034335
3 *1836:D *1599:B1 0
4 *1836:D *1599:B2 2.84807e-05
5 *1836:D *1763:A2 6.317e-05
6 *1836:D *485:18 7.01651e-05
7 *1836:D *569:21 1.18076e-06
*RES
1 *1763:Z *1836:D 20.7 
*END

*D_NET *100 0.00547425
*CONN
*I *1837:D I *D gf180mcu_fd_sc_mcu7t5v0__dffq_1
*I *1766:ZN O *D gf180mcu_fd_sc_mcu7t5v0__nor2_1
*CAP
1 *1837:D 0.000670377
2 *1766:ZN 0.000670377
3 *1837:D *1766:A2 0.00279237
4 *1837:D *1769:B1 9.85004e-05
5 *1837:D *1769:B2 0.000156008
6 *1837:D *1771:A1 0.0006118
7 *1837:D *1838:CLK 0.000162027
8 *1837:D *1842:D 2.16372e-05
9 *1837:D *1875:CLK 6.17613e-06
10 *1837:D *450:10 0
11 *1837:D *518:58 0.000284981
*RES
1 *1766:ZN *1837:D 27.54 
*END

*D_NET *101 0.00703228
*CONN
*I *1838:D I *D gf180mcu_fd_sc_mcu7t5v0__dffq_1
*I *1768:ZN O *D gf180mcu_fd_sc_mcu7t5v0__nor2_1
*CAP
1 *1838:D 0.000925811
2 *1768:ZN 0.000925811
3 *1838:D *1564:A3 0.000937687
4 *1838:D *1765:A1 0.000979744
5 *1838:D *1765:B2 0
6 *1838:D *1768:A2 0.000737988
7 *1838:D *1838:CLK 0
8 *1838:D *1842:D 0
9 *1838:D *1875:CLK 0
10 *1838:D *449:66 2.35868e-05
11 *1838:D *476:53 0.00055271
12 *1838:D *476:55 0.00127197
13 *1838:D *476:61 0.000676974
*RES
1 *1768:ZN *1838:D 30.24 
*END

*D_NET *102 0.00159743
*CONN
*I *1839:D I *D gf180mcu_fd_sc_mcu7t5v0__dffq_1
*I *1770:ZN O *D gf180mcu_fd_sc_mcu7t5v0__nor2_1
*CAP
1 *1839:D 0.000225133
2 *1770:ZN 0.000225133
3 *1839:D *1559:A2 0.000109531
4 *1839:D *1561:B 0.000235035
5 *1839:D *1770:A1 9.63432e-05
6 *1839:D *1841:CLK 9.61923e-06
7 *1839:D *447:159 0.000459253
8 *1839:D *448:94 3.62187e-05
9 *1839:D *450:49 9.16342e-05
10 *10:24 *1839:D 0.000109531
*RES
1 *1770:ZN *1839:D 20.79 
*END

*D_NET *103 0.00364521
*CONN
*I *1840:D I *D gf180mcu_fd_sc_mcu7t5v0__dffq_1
*I *1772:ZN O *D gf180mcu_fd_sc_mcu7t5v0__nor2_1
*CAP
1 *1840:D 0.000660808
2 *1772:ZN 0.000660808
3 *1840:D *1571:B2 6.71071e-05
4 *1840:D *1776:A2 0.000101415
5 *1840:D *1780:A2 0.000533016
6 *1840:D *1840:CLK 2.32292e-05
7 *1840:D *1843:D 0
8 *1840:D *452:8 0.00023711
9 *1840:D *492:6 0.000618493
10 *1840:D *492:15 0.000743222
*RES
1 *1772:ZN *1840:D 25.2 
*END

*D_NET *104 0.000913572
*CONN
*I *1841:D I *D gf180mcu_fd_sc_mcu7t5v0__dffq_1
*I *1774:ZN O *D gf180mcu_fd_sc_mcu7t5v0__nor2_1
*CAP
1 *1841:D 0.00034266
2 *1774:ZN 0.00034266
3 *1841:D *1559:A2 2.30981e-05
4 *1841:D *1570:A1 8.69576e-05
5 *1841:D *1571:A2 4.6635e-05
6 *1841:D *242:12 0
7 *1841:D *262:23 3.29504e-05
8 *10:24 *1841:D 3.86102e-05
*RES
1 *1774:ZN *1841:D 11.34 
*END

*D_NET *105 0.007225
*CONN
*I *1842:D I *D gf180mcu_fd_sc_mcu7t5v0__dffq_1
*I *1776:ZN O *D gf180mcu_fd_sc_mcu7t5v0__nor2_1
*CAP
1 *1842:D 0.00210646
2 *1776:ZN 0.00210646
3 *1842:D *1563:A4 0.000946625
4 *1842:D *1567:A2 0.000145212
5 *1842:D *1765:B2 0.000390584
6 *1842:D *1766:A2 0.000274632
7 *1842:D *1769:A2 8.43025e-06
8 *1842:D *1769:B1 0.000304291
9 *1842:D *1769:B2 1.28865e-05
10 *1842:D *1770:A2 0.000186514
11 *1842:D *1771:A1 0.000225621
12 *1842:D *1771:B1 6.57646e-05
13 *1842:D *149:12 8.67164e-05
14 *1842:D *242:32 6.87129e-05
15 *1842:D *251:23 0
16 *1842:D *450:59 9.16438e-06
17 *1842:D *492:25 0.000152367
18 *1842:D *495:12 0
19 *1837:D *1842:D 2.16372e-05
20 *1838:D *1842:D 0
21 *1892:I *1842:D 0.00011291
*RES
1 *1776:ZN *1842:D 45.36 
*END

*D_NET *106 0.00521181
*CONN
*I *1843:D I *D gf180mcu_fd_sc_mcu7t5v0__dffq_1
*I *1778:ZN O *D gf180mcu_fd_sc_mcu7t5v0__nor2_1
*CAP
1 *1843:D 0.000841539
2 *1778:ZN 0.000841539
3 *1843:D *1771:A2 0.000423952
4 *1843:D *1774:A2 2.36813e-05
5 *1843:D *1777:B2 6.30159e-05
6 *1843:D *1778:A2 0.000634542
7 *1843:D *1780:A2 2.81538e-05
8 *1843:D *1841:CLK 0.000164908
9 *1843:D *1844:D 8.84826e-05
10 *1843:D *1954:I 0
11 *1843:D *279:55 6.34976e-05
12 *1843:D *477:31 0.000828216
13 *1843:D *477:33 0.000231242
14 *1843:D *498:12 0.000198053
15 *1843:D *518:31 0.000223398
16 *1843:D *518:33 0.00055759
17 *1840:D *1843:D 0
*RES
1 *1778:ZN *1843:D 27.45 
*END

*D_NET *107 0.00205951
*CONN
*I *1844:D I *D gf180mcu_fd_sc_mcu7t5v0__dffq_1
*I *1780:ZN O *D gf180mcu_fd_sc_mcu7t5v0__nor2_1
*CAP
1 *1844:D 0.000249383
2 *1780:ZN 0.000249383
3 *1844:D *1777:B2 9.01347e-05
4 *1844:D *1841:CLK 2.86596e-05
5 *1844:D *1954:I 0.000659533
6 *1844:D *499:14 0.000693934
7 *1843:D *1844:D 8.84826e-05
*RES
1 *1780:ZN *1844:D 21.69 
*END

*D_NET *108 0.00807291
*CONN
*I *1845:D I *D gf180mcu_fd_sc_mcu7t5v0__dffq_1
*I *1783:ZN O *D gf180mcu_fd_sc_mcu7t5v0__nor2_1
*CAP
1 *1845:D 0.000691336
2 *1783:ZN 0.000691336
3 *1845:D *1502:S 1.63574e-05
4 *1845:D *1512:I1 2.89001e-05
5 *1845:D *1512:S 0.000442915
6 *1845:D *1532:A2 0.000153256
7 *1845:D *1782:B2 0
8 *1845:D *1783:A2 0.00395691
9 *1845:D *1784:B2 0.000279246
10 *1845:D *1786:B2 0.000700268
11 *1845:D *1788:A1 0.000153256
12 *1845:D *176:37 2.54542e-05
13 *1845:D *179:104 1.33014e-05
14 *1845:D *208:35 0.000729165
15 *1845:D *559:37 0.000191207
*RES
1 *1783:ZN *1845:D 30.69 
*END

*D_NET *109 0.00748108
*CONN
*I *1846:D I *D gf180mcu_fd_sc_mcu7t5v0__dffq_1
*I *1785:ZN O *D gf180mcu_fd_sc_mcu7t5v0__nor2_1
*CAP
1 *1846:D 0.000765702
2 *1785:ZN 0.000765702
3 *1846:D *1527:B 0.000431338
4 *1846:D *1532:A2 0
5 *1846:D *1532:B 0.000182722
6 *1846:D *1782:B2 0.00206407
7 *1846:D *1784:A1 5.15895e-05
8 *1846:D *1785:A2 0.00274704
9 *1846:D *1786:A2 5.69932e-05
10 *1846:D *1786:B2 4.99804e-05
11 *1846:D *1790:A1 0
12 *1846:D *1914:I 2.54542e-05
13 *1846:D *434:111 7.13859e-06
14 *1846:D *492:247 0.000163092
15 *1846:D *518:116 9.08209e-05
16 *1846:D *518:130 6.66828e-06
17 *1846:D *518:205 1.44494e-05
18 *1846:D *574:14 5.83222e-05
*RES
1 *1785:ZN *1846:D 30.33 
*END

*D_NET *110 0.0086859
*CONN
*I *1847:D I *D gf180mcu_fd_sc_mcu7t5v0__dffq_1
*I *1787:ZN O *D gf180mcu_fd_sc_mcu7t5v0__nor2_1
*CAP
1 *1847:D 0.00167971
2 *1787:ZN 0.00167971
3 *1847:D *1499:B2 0.00023712
4 *1847:D *1501:A1 0.000734448
5 *1847:D *1501:B 0.000669057
6 *1847:D *1506:B 7.77604e-05
7 *1847:D *1787:A2 0.000129564
8 *1847:D *1790:A1 0
9 *1847:D *1849:D 0.00131479
10 *1847:D *141:80 0.000179678
11 *1847:D *141:82 0.000417937
12 *1847:D *141:84 0.000150143
13 *1847:D *179:104 1.18477e-05
14 *1847:D *492:277 9.06417e-05
15 *1847:D *507:12 0
16 *1847:D *559:12 0
17 *1864:D *1847:D 0.000987443
18 *1865:D *1847:D 0.000326062
*RES
1 *1787:ZN *1847:D 36.36 
*END

*D_NET *111 0.00467204
*CONN
*I *1848:D I *D gf180mcu_fd_sc_mcu7t5v0__dffq_1
*I *1789:ZN O *D gf180mcu_fd_sc_mcu7t5v0__nor2_1
*CAP
1 *1848:D 0.00118697
2 *1789:ZN 0.00118697
3 *1848:D *1533:I0 0.000839654
4 *1848:D *1676:S 0
5 *1848:D *1789:A2 0.000575646
6 *1848:D *1790:A1 0
7 *1848:D *1849:D 0.000763739
8 *1848:D *1917:I 0
9 *1848:D *1921:I 0.000119046
*RES
1 *1789:ZN *1848:D 29.88 
*END

*D_NET *112 0.00876495
*CONN
*I *1849:D I *D gf180mcu_fd_sc_mcu7t5v0__dffq_1
*I *1791:ZN O *D gf180mcu_fd_sc_mcu7t5v0__nor2_1
*CAP
1 *1849:D 0.00149765
2 *1791:ZN 0.00149765
3 *1849:D *1527:B 0.000210264
4 *1849:D *1784:A1 2.1622e-05
5 *1849:D *1786:A1 0.00113882
6 *1849:D *1787:A2 0.00014836
7 *1849:D *1790:A1 0
8 *1849:D *1846:CLK 3.7996e-05
9 *1849:D *1849:CLK 4.78445e-05
10 *1849:D *1923:I 0.00016327
11 *1849:D *1965:I 0
12 *1849:D *1966:I 0.00116039
13 *1849:D *479:10 2.88199e-05
14 *1849:D *510:10 0.000733735
15 *1847:D *1849:D 0.00131479
16 *1848:D *1849:D 0.000763739
*RES
1 *1791:ZN *1849:D 35.37 
*END

*D_NET *113 0.0139648
*CONN
*I *1850:D I *D gf180mcu_fd_sc_mcu7t5v0__dffq_1
*I *1793:ZN O *D gf180mcu_fd_sc_mcu7t5v0__nor2_1
*CAP
1 *1850:D 0.00190502
2 *1793:ZN 0.00190502
3 *1850:D *1446:A3 0.00012512
4 *1850:D *1528:I1 0.000285507
5 *1850:D *1632:I0 6.13018e-05
6 *1850:D *1790:B2 0.000682689
7 *1850:D *1813:CLK 0.000122888
8 *1850:D *1851:D 0.000148829
9 *1850:D *1852:D 0.000436469
10 *1850:D *1854:D 0.00548243
11 *1850:D *1854:CLK 6.99936e-05
12 *1850:D *1858:CLK 9.85004e-05
13 *1850:D *1927:I 0.000230003
14 *1850:D *142:203 0.000163347
15 *1850:D *462:19 0.00149704
16 *1850:D *492:331 8.10176e-05
17 *1850:D *492:343 4.83522e-05
18 *1850:D *560:10 0
19 *1850:D *562:39 0.000557753
20 *1850:D *578:6 6.35387e-05
*RES
1 *1793:ZN *1850:D 46.17 
*END

*D_NET *114 0.00882699
*CONN
*I *1851:D I *D gf180mcu_fd_sc_mcu7t5v0__dffq_1
*I *1795:ZN O *D gf180mcu_fd_sc_mcu7t5v0__nor2_1
*CAP
1 *1851:D 0.000865013
2 *1795:ZN 0.000865013
3 *1851:D *1790:B2 0.000101016
4 *1851:D *1813:CLK 0.000220064
5 *1851:D *1852:D 0.00321553
6 *1851:D *1854:D 1.69308e-05
7 *1851:D *479:66 4.92278e-05
8 *1851:D *479:75 1.17652e-05
9 STB_O *1851:D 0.00327763
10 *1810:D *1851:D 1.27919e-05
11 *1813:D *1851:D 4.31745e-05
12 *1850:D *1851:D 0.000148829
*RES
1 *1795:ZN *1851:D 32.58 
*END

*D_NET *115 0.010246
*CONN
*I *1852:D I *D gf180mcu_fd_sc_mcu7t5v0__dffq_1
*I *1797:ZN O *D gf180mcu_fd_sc_mcu7t5v0__nor2_1
*CAP
1 *1852:D 0.000874655
2 *1797:ZN 0.000874655
3 *1852:D *1450:A1 9.94441e-06
4 *1852:D *1451:A3 9.20679e-05
5 *1852:D *1797:A1 2.93938e-05
6 *1852:D *1797:A2 0.000698196
7 *1852:D *1800:A1 0.000237428
8 *1852:D *1800:B 0.000567672
9 *1852:D *1801:A2 2.19668e-05
10 *1852:D *1813:CLK 0.00089507
11 *1852:D *492:313 0.000335943
12 *1852:D *492:317 0.000533849
13 *1852:D *563:12 9.01546e-05
14 CYC_O *1852:D 0.000954968
15 STB_O *1852:D 0.000378053
16 *1850:D *1852:D 0.000436469
17 *1851:D *1852:D 0.00321553
*RES
1 *1797:ZN *1852:D 37.44 
*END

*D_NET *116 0.00390155
*CONN
*I *1853:D I *D gf180mcu_fd_sc_mcu7t5v0__dffq_1
*I *1799:ZN O *D gf180mcu_fd_sc_mcu7t5v0__aoi21_1
*CAP
1 *1853:D 0.000708437
2 *1799:ZN 0.000708437
3 *1853:D *1571:B1 0.00010528
4 *1853:D *1576:A2 0.000373918
5 *1853:D *1577:A2 0.000317701
6 *1853:D *1580:A2 0.000275517
7 *1853:D *1581:A2 0.000283705
8 *1853:D *1764:B 9.05508e-05
9 *1853:D *1772:A2 0.00023732
10 *1853:D *1778:A1 0.000466036
11 *1853:D *1779:B2 4.79098e-05
12 *1853:D *1971:I 6.05455e-05
13 *1853:D *279:8 3.65101e-05
14 *1853:D *279:19 0
15 *1853:D *279:34 0
16 *1853:D *454:10 0
17 *1853:D *492:25 0.000129087
18 *1853:D *492:198 6.05946e-05
19 *1853:D *518:10 0
*RES
1 *1799:ZN *1853:D 26.64 
*END

*D_NET *117 0.0101351
*CONN
*I *1854:D I *D gf180mcu_fd_sc_mcu7t5v0__dffq_1
*I *1801:ZN O *D gf180mcu_fd_sc_mcu7t5v0__nor2_1
*CAP
1 *1854:D 0.000912611
2 *1801:ZN 0.000912611
3 *1854:D *1450:A1 6.20781e-05
4 *1854:D *1457:A1 0.000406468
5 *1854:D *1854:CLK 0.000125987
6 *1854:D *1927:I 0.000264763
7 *1854:D *142:203 0.000744726
8 *1854:D *492:317 0
9 *1854:D *562:50 9.35086e-05
10 *1854:D *564:44 0.000124534
11 CYC_O *1854:D 0
12 *1813:D *1854:D 0.000535715
13 *1814:D *1854:D 0.000452756
14 *1850:D *1854:D 0.00548243
15 *1851:D *1854:D 1.69308e-05
*RES
1 *1801:ZN *1854:D 35.28 
*END

*D_NET *118 0.000386085
*CONN
*I *1855:D I *D gf180mcu_fd_sc_mcu7t5v0__dffq_1
*I *1803:ZN O *D gf180mcu_fd_sc_mcu7t5v0__aoi21_1
*CAP
1 *1855:D 0.000166399
2 *1803:ZN 0.000166399
3 *1855:D *1552:A1 4.1068e-05
4 *1855:D *1803:A1 7.55765e-06
5 *1855:D *1803:A2 4.6613e-06
6 *1855:D *361:71 0
*RES
1 *1803:ZN *1855:D 10.08 
*END

*D_NET *119 0.00219645
*CONN
*I *1856:D I *D gf180mcu_fd_sc_mcu7t5v0__dffq_1
*I *1805:ZN O *D gf180mcu_fd_sc_mcu7t5v0__oai211_1
*CAP
1 *1856:D 0.000597116
2 *1805:ZN 0.000597116
3 *1856:D *1397:I 7.40965e-05
4 *1856:D *1805:C 0.000244009
5 *1856:D *1896:I 0
6 *1856:D *120:19 0.000640176
7 *1856:D *160:40 1.0415e-05
8 *1856:D *160:49 2.95687e-05
9 *1811:D *1856:D 3.95339e-06
*RES
1 *1805:ZN *1856:D 23.13 
*END

*D_NET *120 0.00744241
*CONN
*I *1498:A1 I *D gf180mcu_fd_sc_mcu7t5v0__and4_1
*I *1805:A1 I *D gf180mcu_fd_sc_mcu7t5v0__oai211_1
*I *1649:A1 I *D gf180mcu_fd_sc_mcu7t5v0__nand2_1
*I *1397:ZN O *D gf180mcu_fd_sc_mcu7t5v0__clkinv_1
*CAP
1 *1498:A1 0.000506964
2 *1805:A1 0
3 *1649:A1 0.00020165
4 *1397:ZN 0
5 *120:19 0.000763078
6 *120:6 0.000457765
7 *1498:A1 *1633:A2 0.000206869
8 *1498:A1 *1805:B 0.00028126
9 *1498:A1 *1805:C 0.00072578
10 *1498:A1 *1896:I 0
11 *1498:A1 *152:77 1.61174e-05
12 *1498:A1 *152:84 5.5916e-05
13 *1649:A1 *1414:I 0.000223407
14 *1649:A1 *1660:A2 0.000528649
15 *1649:A1 *1753:A1 3.0177e-06
16 *1649:A1 *1896:I 0
17 *1649:A1 *137:14 9.55009e-05
18 *1649:A1 *316:81 0.0013904
19 *120:19 *1633:A2 0.000103798
20 *120:19 *1677:A2 0.000684683
21 *120:19 *1805:B 0.000109323
22 *120:19 *1805:C 0.000174506
23 *120:19 *1896:I 0
24 *120:19 *316:81 0.000273552
25 *1856:D *120:19 0.000640176
*RES
1 *1397:ZN *120:6 9 
2 *120:6 *1649:A1 13.14 
3 *120:6 *120:19 4.77 
4 *120:19 *1805:A1 9 
5 *120:19 *1498:A1 14.22 
*END

*D_NET *121 0.0116432
*CONN
*I *1674:A1 I *D gf180mcu_fd_sc_mcu7t5v0__oai21_1
*I *1552:A1 I *D gf180mcu_fd_sc_mcu7t5v0__oai221_1
*I *1398:ZN O *D gf180mcu_fd_sc_mcu7t5v0__clkinv_1
*CAP
1 *1674:A1 0.000416472
2 *1552:A1 0.00286178
3 *1398:ZN 3.42711e-05
4 *121:6 0.00331252
5 *1552:A1 *1398:I 6.96564e-06
6 *1552:A1 *1538:A4 2.3259e-05
7 *1552:A1 *1549:A2 4.77814e-05
8 *1552:A1 *1549:B2 0.00103644
9 *1552:A1 *1585:A2 0
10 *1552:A1 *1588:A1 1.23715e-05
11 *1552:A1 *1588:A2 0.000205471
12 *1552:A1 *1588:B1 3.73774e-06
13 *1552:A1 *1588:B2 0
14 *1552:A1 *1590:A2 1.51153e-05
15 *1552:A1 *1695:I1 3.98088e-05
16 *1552:A1 *1802:A2 2.0324e-05
17 *1552:A1 *1803:A1 8.05869e-05
18 *1552:A1 *1803:A2 1.27836e-05
19 *1552:A1 *122:8 0
20 *1552:A1 *128:19 0
21 *1552:A1 *144:14 9.98816e-05
22 *1552:A1 *160:14 0.000206069
23 *1552:A1 *160:40 6.19151e-05
24 *1552:A1 *361:71 0
25 *1552:A1 *475:103 0
26 *1552:A1 *492:140 0
27 *1552:A1 *557:8 0.000192021
28 *1552:A1 *565:6 1.64264e-05
29 *1552:A1 *565:23 0.00122509
30 *1552:A1 *585:8 8.12023e-06
31 *1552:A1 *585:14 0.000215887
32 *1674:A1 *1633:A2 0
33 *1674:A1 *1673:A2 3.48522e-05
34 *1674:A1 *1677:A3 0.000100113
35 *1674:A1 *1678:A2 0.000719491
36 *1674:A1 *1808:CLK 0.000101685
37 *1674:A1 *475:103 4.67543e-05
38 *121:6 *1398:I 3.46409e-05
39 *1808:D *1674:A1 9.30289e-05
40 *1855:D *1552:A1 4.1068e-05
41 *1872:D *1552:A1 2.20665e-05
42 *1880:D *1552:A1 0.000294431
*RES
1 *1398:ZN *121:6 4.77 
2 *121:6 *1552:A1 30.96 
3 *121:6 *1674:A1 17.1 
*END

*D_NET *122 0.0121699
*CONN
*I *1803:A1 I *D gf180mcu_fd_sc_mcu7t5v0__aoi21_1
*I *1672:A1 I *D gf180mcu_fd_sc_mcu7t5v0__oai21_1
*I *1549:B2 I *D gf180mcu_fd_sc_mcu7t5v0__oai221_1
*I *1399:ZN O *D gf180mcu_fd_sc_mcu7t5v0__clkinv_1
*CAP
1 *1803:A1 0.00014766
2 *1672:A1 0.00018401
3 *1549:B2 0.00193107
4 *1399:ZN 0
5 *122:8 0.00263433
6 *122:4 0.000666909
7 *1549:B2 *1458:A2 8.88935e-06
8 *1549:B2 *1549:A2 0.000406879
9 *1549:B2 *1549:C 0.000237866
10 *1549:B2 *1550:A2 3.7357e-05
11 *1549:B2 *1551:A1 6.25797e-06
12 *1549:B2 *1551:A2 0
13 *1549:B2 *1552:B1 8.0425e-05
14 *1549:B2 *1552:C 5.80909e-05
15 *1549:B2 *1695:I1 2.31089e-05
16 *1549:B2 *1700:A1 4.04291e-05
17 *1549:B2 *1701:A1 0.00016979
18 *1549:B2 *128:6 0.000156008
19 *1549:B2 *128:19 3.34767e-05
20 *1549:B2 *172:10 2.53811e-05
21 *1549:B2 *250:30 0.000234117
22 *1549:B2 *361:30 5.17662e-05
23 *1549:B2 *361:39 1.0415e-05
24 *1549:B2 *447:51 0
25 *1549:B2 *447:62 0
26 *1549:B2 *473:21 0.000296565
27 *1549:B2 *473:32 0.000958039
28 *1549:B2 *473:45 0
29 *1549:B2 *492:120 6.35387e-05
30 *1549:B2 *565:23 6.60189e-05
31 *1549:B2 *565:34 2.7993e-05
32 *1549:B2 *565:38 4.10149e-05
33 *1549:B2 *585:14 0.000132094
34 *1672:A1 *1884:CLK 0.000518371
35 *1672:A1 *361:30 0
36 *1803:A1 *1399:I 5.30888e-06
37 *1803:A1 *361:71 0
38 *122:8 *1399:I 0.000155486
39 *122:8 *361:39 0.0001937
40 *122:8 *361:71 0.000128169
41 *1552:A1 *1549:B2 0.00103644
42 *1552:A1 *1803:A1 8.05869e-05
43 *1552:A1 *122:8 0
44 *1855:D *1803:A1 7.55765e-06
45 *1879:D *1549:B2 0.00131479
*RES
1 *1399:ZN *122:4 4.5 
2 *122:4 *122:8 4.14 
3 *122:8 *1549:B2 34.92 
4 *122:8 *1672:A1 14.85 
5 *122:4 *1803:A1 5.94 
*END

*D_NET *123 0.0185226
*CONN
*I *1620:A1 I *D gf180mcu_fd_sc_mcu7t5v0__nand2_1
*I *1610:A1 I *D gf180mcu_fd_sc_mcu7t5v0__nor3_1
*I *1603:A1 I *D gf180mcu_fd_sc_mcu7t5v0__nor3_1
*I *1625:A1 I *D gf180mcu_fd_sc_mcu7t5v0__nand2_1
*I *1612:A1 I *D gf180mcu_fd_sc_mcu7t5v0__nor4_1
*I *1601:A1 I *D gf180mcu_fd_sc_mcu7t5v0__nor2_1
*I *1746:B I *D gf180mcu_fd_sc_mcu7t5v0__oai21_1
*I *1621:A1 I *D gf180mcu_fd_sc_mcu7t5v0__aoi21_1
*I *1703:A1 I *D gf180mcu_fd_sc_mcu7t5v0__aoi21_1
*I *1400:ZN O *D gf180mcu_fd_sc_mcu7t5v0__clkinv_1
*CAP
1 *1620:A1 5.58011e-05
2 *1610:A1 0
3 *1603:A1 0
4 *1625:A1 0.000238326
5 *1612:A1 1.97211e-05
6 *1601:A1 1.54327e-05
7 *1746:B 9.26767e-05
8 *1621:A1 0
9 *1703:A1 0.000509322
10 *1400:ZN 0
11 *123:95 0.000573071
12 *123:85 0.000555441
13 *123:74 0.000370432
14 *123:72 0.000286556
15 *123:57 0.000696448
16 *123:44 0.000773935
17 *123:10 0.00118422
18 *123:4 0.000775878
19 *1601:A1 *1721:A1 0.000104268
20 *1601:A1 *1729:A2 0.000240538
21 *1612:A1 *1721:A1 0.000162554
22 *1612:A1 *304:16 1.61174e-05
23 *1625:A1 *1603:A3 4.6613e-06
24 *1625:A1 *1625:A2 1.51086e-05
25 *1625:A1 *1691:A1 5.05718e-05
26 *1625:A1 *1691:A2 1.07281e-05
27 *1625:A1 *1693:A3 0.000293663
28 *1625:A1 *1710:A2 0.000532185
29 *1625:A1 *1721:A1 0
30 *1625:A1 *295:8 0.000905787
31 *1625:A1 *300:22 0.000473735
32 *1625:A1 *359:25 0.000225543
33 *1703:A1 *1616:A1 0.000460458
34 *1703:A1 *1616:A3 0.000130381
35 *1703:A1 *1621:B 4.843e-05
36 *1703:A1 *1623:A3 0.000105364
37 *1703:A1 *1623:B1 0.000289443
38 *1703:A1 *1628:A2 3.22122e-05
39 *1703:A1 *1685:A1 0.00033718
40 *1703:A1 *1703:A2 0.000115564
41 *1703:A1 *1703:B 0.000643498
42 *1703:A1 *299:26 2.87341e-05
43 *1703:A1 *382:6 9.84908e-05
44 *1746:B *301:8 0.000428433
45 *1746:B *385:27 4.62939e-05
46 *1746:B *480:28 2.30981e-05
47 *123:10 *1400:I 3.55118e-05
48 *123:10 *1611:A2 0
49 *123:10 *1623:A3 0.000241883
50 *123:10 *1623:B1 6.13133e-05
51 *123:10 *1706:A1 9.21518e-05
52 *123:10 *1706:A3 1.47297e-05
53 *123:10 *385:27 0.000184352
54 *123:10 *403:14 8.37558e-05
55 *123:10 *483:63 0.000862594
56 *123:44 *305:12 9.44609e-06
57 *123:44 *486:63 0.000289436
58 *123:57 *1608:A1 2.59465e-05
59 *123:57 *1622:A3 9.90193e-05
60 *123:57 *1710:A2 2.26987e-05
61 *123:57 *1744:B1 6.02234e-05
62 *123:57 *124:33 0.00014044
63 *123:57 *305:12 3.53326e-05
64 *123:57 *316:99 0.000123229
65 *123:57 *356:42 0
66 *123:57 *480:28 0.000136094
67 *123:57 *485:64 2.08042e-05
68 *123:57 *486:63 0.000212972
69 *123:57 *488:49 0.00102762
70 *123:72 *1620:A2 0.000169515
71 *123:72 *1622:A1 3.02306e-05
72 *123:72 *1721:A1 0.00027605
73 *123:72 *316:99 5.46383e-05
74 *123:72 *356:42 0
75 *123:74 *1622:A1 3.29477e-05
76 *123:74 *1689:B 0
77 *123:74 *1721:A1 0.00052747
78 *123:74 *316:125 0
79 *123:85 *1689:B 0.000115096
80 *123:85 *304:16 0.000666489
81 *123:95 *1603:A3 3.37977e-05
82 *123:95 *1610:A3 0.000289427
83 *123:95 *1689:B 2.38983e-05
84 *123:95 *1693:A1 0
85 *123:95 *1710:A2 2.28956e-05
86 *123:95 *302:18 0.000155486
87 *123:95 *304:16 0.000200267
88 *123:95 *489:68 0.000174506
*RES
1 *1400:ZN *123:4 4.5 
2 *123:4 *123:10 9.72 
3 *123:10 *1703:A1 23.94 
4 *123:10 *1621:A1 9 
5 *123:4 *123:44 5.31 
6 *123:44 *1746:B 10.17 
7 *123:44 *123:57 6.3 
8 *123:57 *1601:A1 9.63 
9 *123:57 *123:72 5.94 
10 *123:72 *123:74 1.53 
11 *123:74 *1612:A1 4.95 
12 *123:74 *123:85 2.7 
13 *123:85 *123:95 11.79 
14 *123:95 *1625:A1 18.72 
15 *123:95 *1603:A1 4.5 
16 *123:85 *1610:A1 4.5 
17 *123:72 *1620:A1 4.95 
*END

*D_NET *124 0.0172319
*CONN
*I *1633:A1 I *D gf180mcu_fd_sc_mcu7t5v0__nand2_1
*I *1743:A1 I *D gf180mcu_fd_sc_mcu7t5v0__aoi21_1
*I *1611:A1 I *D gf180mcu_fd_sc_mcu7t5v0__nand3_1
*I *1604:A1 I *D gf180mcu_fd_sc_mcu7t5v0__nand4_1
*I *1615:A1 I *D gf180mcu_fd_sc_mcu7t5v0__nand4_1
*I *1692:A3 I *D gf180mcu_fd_sc_mcu7t5v0__nand4_1
*I *1613:A3 I *D gf180mcu_fd_sc_mcu7t5v0__nand4_1
*I *1401:ZN O *D gf180mcu_fd_sc_mcu7t5v0__clkinv_1
*CAP
1 *1633:A1 0.000163068
2 *1743:A1 0.000545301
3 *1611:A1 0.000306424
4 *1604:A1 0
5 *1615:A1 7.54146e-05
6 *1692:A3 0.000366203
7 *1613:A3 8.38846e-05
8 *1401:ZN 0
9 *124:83 0.00115398
10 *124:37 0.000514538
11 *124:35 0.000365713
12 *124:33 0.00102465
13 *124:10 0.000748498
14 *124:4 0.000684793
15 *1611:A1 *1707:C 0.000305206
16 *1611:A1 *356:42 5.78317e-05
17 *1611:A1 *485:64 0.00154675
18 *1613:A3 *1613:A1 4.66871e-05
19 *1613:A3 *1748:A1 0.000220857
20 *1613:A3 *300:81 1.0415e-05
21 *1613:A3 *385:38 0.000158798
22 *1615:A1 *1605:A3 1.07374e-05
23 *1615:A1 *1615:A2 3.33106e-05
24 *1615:A1 *1706:A1 0.000275217
25 *1615:A1 *480:42 0.000272042
26 *1615:A1 *480:44 2.89427e-06
27 *1615:A1 *487:68 0.000153256
28 *1633:A1 *1635:A2 3.46409e-05
29 *1633:A1 *1660:B 3.46409e-05
30 *1633:A1 *1662:A2 0
31 *1633:A1 *352:12 0
32 *1692:A3 *1686:A1 0.000427038
33 *1692:A3 *1702:A3 8.69576e-05
34 *1692:A3 *1751:A1 8.69576e-05
35 *1692:A3 *294:8 2.76752e-05
36 *1692:A3 *307:22 0
37 *1692:A3 *309:31 0
38 *1692:A3 *366:12 3.84635e-06
39 *1692:A3 *487:68 0.000378965
40 *1692:A3 *487:72 7.10228e-05
41 *1692:A3 *487:74 8.43025e-06
42 *1692:A3 *488:68 0.000145212
43 *1692:A3 *567:51 0.00016326
44 *1692:A3 *567:60 0.000420092
45 *1743:A1 *1662:A2 0
46 *1743:A1 *1743:B 5.54524e-05
47 *1743:A1 *352:12 0
48 *1743:A1 *359:86 7.40965e-05
49 *124:10 *1613:A1 1.30288e-05
50 *124:10 *1660:B 2.67052e-05
51 *124:10 *1745:A2 8.45636e-05
52 *124:10 *1748:A1 0.00113271
53 *124:10 *300:81 5.30918e-06
54 *124:10 *487:51 0.000835195
55 *124:10 *487:141 0.000627694
56 *124:10 *489:33 7.73059e-05
57 *124:33 *1613:A1 0.000158788
58 *124:33 *1746:A2 2.60524e-05
59 *124:33 *125:10 0.000283686
60 *124:33 *125:34 0.000122565
61 *124:33 *300:81 0.000227032
62 *124:33 *305:8 0.000334562
63 *124:33 *385:38 7.99949e-06
64 *124:33 *480:28 0.000127292
65 *124:33 *487:51 0.000117089
66 *124:33 *488:49 0
67 *124:35 *125:34 0.000274353
68 *124:35 *309:48 0
69 *124:35 *488:68 6.2979e-05
70 *124:37 *1683:A2 2.26729e-05
71 *124:37 *309:48 0
72 *124:37 *366:12 2.64061e-06
73 *124:37 *488:68 0.000261573
74 *124:83 *1635:A1 1.19491e-05
75 *124:83 *1635:A2 9.04376e-05
76 *124:83 *1660:B 0.000190414
77 *124:83 *1662:A2 9.07783e-05
78 *124:83 *309:48 0
79 *124:83 *489:33 5.5916e-05
80 *1823:D *1743:A1 0.000675405
81 *123:57 *124:33 0.00014044
*RES
1 *1401:ZN *124:4 4.5 
2 *124:4 *124:10 9.36 
3 *124:10 *1613:A3 10.08 
4 *124:10 *124:33 17.91 
5 *124:33 *124:35 2.25 
6 *124:35 *124:37 0.81 
7 *124:37 *1692:A3 17.82 
8 *124:37 *1615:A1 14.76 
9 *124:35 *1604:A1 4.5 
10 *124:33 *1611:A1 17.73 
11 *124:4 *124:83 8.19 
12 *124:83 *1743:A1 13.32 
13 *124:83 *1633:A1 10.08 
*END

*D_NET *125 0.00683877
*CONN
*I *1604:A2 I *D gf180mcu_fd_sc_mcu7t5v0__nand4_1
*I *1615:A2 I *D gf180mcu_fd_sc_mcu7t5v0__nand4_1
*I *1735:A1 I *D gf180mcu_fd_sc_mcu7t5v0__nor2_1
*I *1609:A1 I *D gf180mcu_fd_sc_mcu7t5v0__nand2_1
*I *1402:ZN O *D gf180mcu_fd_sc_mcu7t5v0__clkinv_1
*CAP
1 *1604:A2 0
2 *1615:A2 0.000228025
3 *1735:A1 2.724e-05
4 *1609:A1 0
5 *1402:ZN 0.000173889
6 *125:34 0.000584341
7 *125:16 0.00010694
8 *125:10 0.000609905
9 *1615:A2 *480:42 0.000313405
10 *1615:A2 *480:44 1.0415e-05
11 *1615:A2 *487:51 0.000169524
12 *1615:A2 *487:68 4.51648e-05
13 *1615:A2 *488:68 0.000207647
14 *1615:A2 *490:91 1.34992e-05
15 *1735:A1 *1609:A2 7.93835e-05
16 *1735:A1 *403:14 0.000100105
17 *1735:A1 *403:33 0.000131337
18 *125:10 *385:27 7.88345e-05
19 *125:10 *385:38 4.6613e-06
20 *125:10 *487:51 2.24475e-05
21 *125:16 *1609:A2 4.83522e-05
22 *125:16 *1736:A4 2.36152e-06
23 *125:16 *1746:A2 0.000210747
24 *125:16 *1747:A1 0.000167298
25 *125:16 *305:12 0.000698984
26 *125:16 *403:14 9.85004e-05
27 *125:34 *1744:A1 0.000146939
28 *125:34 *1745:B 2.1573e-06
29 *125:34 *1747:A1 0.000255367
30 *125:34 *305:12 0.000113228
31 *125:34 *487:51 0.00137566
32 *125:34 *488:49 0
33 *125:34 *488:68 9.84908e-05
34 *1615:A1 *1615:A2 3.33106e-05
35 *124:33 *125:10 0.000283686
36 *124:33 *125:34 0.000122565
37 *124:35 *125:34 0.000274353
*RES
1 *1402:ZN *125:10 10.44 
2 *125:10 *125:16 6.66 
3 *125:16 *1609:A1 4.5 
4 *125:16 *1735:A1 5.13 
5 *125:10 *125:34 9.36 
6 *125:34 *1615:A2 15.39 
7 *125:34 *1604:A2 4.5 
*END

*D_NET *126 0.00518068
*CONN
*I *1732:B I *D gf180mcu_fd_sc_mcu7t5v0__oai21_1
*I *1735:A2 I *D gf180mcu_fd_sc_mcu7t5v0__nor2_1
*I *1609:A2 I *D gf180mcu_fd_sc_mcu7t5v0__nand2_1
*I *1731:B2 I *D gf180mcu_fd_sc_mcu7t5v0__aoi22_1
*I *1403:ZN O *D gf180mcu_fd_sc_mcu7t5v0__clkinv_1
*CAP
1 *1732:B 0
2 *1735:A2 0
3 *1609:A2 0.000100296
4 *1731:B2 0.000128583
5 *1403:ZN 0
6 *126:25 0.000281766
7 *126:21 0.000341052
8 *126:6 0.000288166
9 *1609:A2 *403:33 8.22492e-05
10 *1609:A2 *483:63 0.000576793
11 *1731:B2 *1739:A3 0
12 *1731:B2 *292:18 1.09807e-05
13 *1731:B2 *316:43 1.34934e-05
14 *1731:B2 *316:58 7.82949e-05
15 *126:21 *1403:I 6.59892e-05
16 *126:21 *1737:A1 2.75317e-05
17 *126:21 *292:18 6.21988e-06
18 *126:21 *316:58 1.4273e-05
19 *126:21 *404:28 0.000218157
20 *126:25 *1727:A2 0.00073359
21 *126:25 *1732:A1 0.000142874
22 *126:25 *403:33 0.000406991
23 *126:25 *404:6 1.23607e-05
24 *126:25 *404:28 4.6613e-06
25 *126:25 *483:63 0.00151862
26 *1735:A1 *1609:A2 7.93835e-05
27 *125:16 *1609:A2 4.83522e-05
*RES
1 *1403:ZN *126:6 9 
2 *126:6 *1731:B2 9.9 
3 *126:6 *126:21 5.85 
4 *126:21 *126:25 4.68 
5 *126:25 *1609:A2 6.3 
6 *126:25 *1735:A2 4.5 
7 *126:21 *1732:B 4.5 
*END

*D_NET *127 0.00301258
*CONN
*I *1761:A1 I *D gf180mcu_fd_sc_mcu7t5v0__nor2_1
*I *1716:A1 I *D gf180mcu_fd_sc_mcu7t5v0__nand2_1
*I *1404:ZN O *D gf180mcu_fd_sc_mcu7t5v0__clkinv_1
*CAP
1 *1761:A1 0
2 *1716:A1 0.00038935
3 *1404:ZN 0.000393259
4 *127:14 0.000782609
5 *1716:A1 *1760:A1 0
6 *1716:A1 *472:38 0.000215083
7 *127:14 *1404:I 0.000383704
8 *127:14 *1760:A2 0
9 *127:14 *1889:CLK 0
10 *127:14 *1890:CLK 0.000612112
11 *1819:D *1716:A1 8.04753e-05
12 *1819:D *127:14 0.000155989
*RES
1 *1404:ZN *127:14 17.55 
2 *127:14 *1716:A1 16.11 
3 *127:14 *1761:A1 4.5 
*END

*D_NET *128 0.00452999
*CONN
*I *1538:A1 I *D gf180mcu_fd_sc_mcu7t5v0__nand4_1
*I *1433:A1 I *D gf180mcu_fd_sc_mcu7t5v0__nand2_1
*I *1537:A1 I *D gf180mcu_fd_sc_mcu7t5v0__and4_1
*I *1701:A1 I *D gf180mcu_fd_sc_mcu7t5v0__aoi211_1
*I *1405:ZN O *D gf180mcu_fd_sc_mcu7t5v0__clkinv_1
*CAP
1 *1538:A1 0.000177719
2 *1433:A1 4.7444e-05
3 *1537:A1 0
4 *1701:A1 0.000498193
5 *1405:ZN 0.00022189
6 *128:28 0.000252449
7 *128:19 0.000211943
8 *128:6 0.00090474
9 *1433:A1 *143:8 7.84239e-05
10 *1433:A1 *153:8 0.000237101
11 *1433:A1 *565:38 6.85018e-05
12 *1538:A1 *1537:A2 2.06035e-05
13 *1538:A1 *1537:A3 0.00013126
14 *1538:A1 *143:8 1.07354e-05
15 *1538:A1 *143:28 2.55518e-05
16 *1538:A1 *153:8 0.000351582
17 *1538:A1 *244:10 0.000286386
18 *1701:A1 *1537:A4 3.31517e-06
19 *1701:A1 *1700:A1 0
20 *1701:A1 *1701:B 0.000101615
21 *1701:A1 *1818:CLK 0
22 *1701:A1 *565:38 1.75781e-05
23 *128:6 *1475:A4 0
24 *128:6 *1930:I 0.000302466
25 *128:6 *244:10 2.5688e-05
26 *128:6 *473:94 0
27 *128:19 *1537:A4 8.68281e-06
28 *128:19 *1538:A4 9.04462e-05
29 *128:19 *244:10 2.20694e-05
30 *128:28 *1537:A2 1.0415e-05
31 *128:28 *1537:A4 2.89427e-06
32 *128:28 *1538:A4 6.02974e-05
33 *128:28 *244:10 7.191e-07
34 *1549:B2 *1701:A1 0.00016979
35 *1549:B2 *128:6 0.000156008
36 *1549:B2 *128:19 3.34767e-05
37 *1552:A1 *128:19 0
*RES
1 *1405:ZN *128:6 6.75 
2 *128:6 *1701:A1 17.37 
3 *128:6 *128:19 1.35 
4 *128:19 *1537:A1 4.5 
5 *128:19 *128:28 4.77 
6 *128:28 *1433:A1 9.99 
7 *128:28 *1538:A1 10.98 
*END

*D_NET *129 0.00428316
*CONN
*I *1590:B3 I *D gf180mcu_fd_sc_mcu7t5v0__oai33_1
*I *1589:A1 I *D gf180mcu_fd_sc_mcu7t5v0__nor2_1
*I *1406:ZN O *D gf180mcu_fd_sc_mcu7t5v0__clkinv_1
*CAP
1 *1590:B3 0
2 *1589:A1 0.000191361
3 *1406:ZN 0.000351471
4 *129:12 0.000542831
5 *1589:A1 *1585:A1 3.04341e-05
6 *1589:A1 *1585:A2 4.08207e-05
7 *1589:A1 *1588:A1 9.2838e-05
8 *1589:A1 *492:133 3.55118e-05
9 *1589:A1 *492:140 0.000853515
10 *129:12 *1431:A1 2.1573e-06
11 *129:12 *1588:A1 3.24315e-05
12 *129:12 *1590:A1 0.00051709
13 *129:12 *1911:I 3.55118e-05
14 *129:12 *142:97 6.85746e-06
15 *129:12 *142:114 0.000196981
16 *129:12 *150:42 0
17 *129:12 *150:61 0
18 *129:12 *154:35 0.000656894
19 *129:12 *245:10 0.000506211
20 *129:12 *492:133 0.000190246
*RES
1 *1406:ZN *129:12 18.18 
2 *129:12 *1589:A1 7.29 
3 *129:12 *1590:B3 4.5 
*END

*D_NET *130 0.00515763
*CONN
*I *1585:A1 I *D gf180mcu_fd_sc_mcu7t5v0__nor2_1
*I *1588:A1 I *D gf180mcu_fd_sc_mcu7t5v0__oai32_1
*I *1407:ZN O *D gf180mcu_fd_sc_mcu7t5v0__clkinv_1
*CAP
1 *1585:A1 0.00030691
2 *1588:A1 0.000416453
3 *1407:ZN 0
4 *130:4 0.000723364
5 *1585:A1 *1883:CLK 0.000479138
6 *1585:A1 *1884:CLK 9.04462e-05
7 *1585:A1 *150:61 0.000132382
8 *1585:A1 *492:140 0
9 *1588:A1 *1407:I 0.000365445
10 *1588:A1 *1588:A2 0.00115696
11 *1588:A1 *1588:B1 0.000119192
12 *1588:A1 *1590:A1 7.61404e-05
13 *1588:A1 *1590:A2 0.00047198
14 *1588:A1 *150:61 1.35011e-05
15 *1588:A1 *245:10 0
16 *1588:A1 *282:8 0.000460092
17 *1552:A1 *1588:A1 1.23715e-05
18 *1589:A1 *1585:A1 3.04341e-05
19 *1589:A1 *1588:A1 9.2838e-05
20 *1883:D *1585:A1 0.000177559
21 *129:12 *1588:A1 3.24315e-05
*RES
1 *1407:ZN *130:4 4.5 
2 *130:4 *1588:A1 19.71 
3 *130:4 *1585:A1 8.19 
*END

*D_NET *131 0.0182338
*CONN
*I *1566:A1 I *D gf180mcu_fd_sc_mcu7t5v0__oai32_1
*I *1448:A1 I *D gf180mcu_fd_sc_mcu7t5v0__aoi21_1
*I *1678:A1 I *D gf180mcu_fd_sc_mcu7t5v0__oai21_1
*I *1408:ZN O *D gf180mcu_fd_sc_mcu7t5v0__clkinv_1
*CAP
1 *1566:A1 0
2 *1448:A1 0.000373305
3 *1678:A1 0.000527087
4 *1408:ZN 0
5 *131:44 0.00463635
6 *131:12 0.00155428
7 *131:6 0.00529025
8 *1448:A1 *1677:A1 0
9 *1448:A1 *160:49 0.000126901
10 *1678:A1 *1677:A1 3.12455e-05
11 *1678:A1 *1896:I 0
12 *1678:A1 *160:40 0
13 *1678:A1 *160:49 0
14 *1678:A1 *475:95 0.000182582
15 *1678:A1 *475:103 0.000237227
16 *1678:A1 *488:127 4.22217e-05
17 *131:12 *1896:I 0
18 *131:12 *488:127 0.00033108
19 *131:12 *561:12 0.0001102
20 *131:44 *1474:A2 0.00012939
21 *131:44 *1476:A2 0.00032797
22 *131:44 *1565:A2 1.02497e-05
23 *131:44 *1566:A2 0.000330204
24 *131:44 *1566:B1 0.000135171
25 *131:44 *176:20 0
26 *131:44 *448:71 0.000167288
27 *131:44 *448:84 0.0010629
28 *131:44 *448:94 1.92547e-05
29 *131:44 *450:61 0.000112069
30 *131:44 *450:63 0.000153044
31 *131:44 *471:15 0.00146313
32 *131:44 *492:164 2.09156e-05
33 *1811:D *1678:A1 0.000823918
34 *1875:D *131:44 3.55118e-05
*RES
1 *1408:ZN *131:6 9 
2 *131:6 *131:12 5.49 
3 *131:12 *1678:A1 14.4 
4 *131:12 *1448:A1 11.61 
5 *131:6 *131:44 47.25 
6 *131:44 *1566:A1 4.5 
*END

*D_NET *132 0.00975174
*CONN
*I *1652:A1 I *D gf180mcu_fd_sc_mcu7t5v0__nand2_1
*I *1503:A1 I *D gf180mcu_fd_sc_mcu7t5v0__and4_1
*I *1443:A1 I *D gf180mcu_fd_sc_mcu7t5v0__aoi21_1
*I *1653:A1 I *D gf180mcu_fd_sc_mcu7t5v0__aoi22_1
*I *1409:ZN O *D gf180mcu_fd_sc_mcu7t5v0__clkinv_1
*CAP
1 *1652:A1 0.000259018
2 *1503:A1 0.000487956
3 *1443:A1 4.808e-05
4 *1653:A1 0.000467807
5 *1409:ZN 0
6 *132:35 0.00110272
7 *132:25 0.000847653
8 *132:4 0.000489761
9 *1443:A1 *161:8 5.78854e-06
10 *1443:A1 *161:25 4.6613e-06
11 *1503:A1 *1443:B 0.000320262
12 *1503:A1 *1518:A2 0.000116914
13 *1503:A1 *1793:A2 3.25976e-05
14 *1503:A1 *142:170 0.000556473
15 *1503:A1 *159:12 4.26703e-05
16 *1503:A1 *161:8 0
17 *1503:A1 *561:12 0.000170691
18 *1503:A1 *561:25 9.06009e-05
19 *1652:A1 *1409:I 3.01487e-05
20 *1652:A1 *1650:A1 2.93938e-05
21 *1652:A1 *1650:A2 6.2979e-05
22 *1652:A1 *1651:A2 0.000124657
23 *1652:A1 *1655:A4 1.94599e-05
24 *1653:A1 *1409:I 9.84908e-05
25 *1653:A1 *1650:A2 0.000323694
26 *1653:A1 *1651:A1 6.82048e-06
27 *1653:A1 *1655:A2 0.000906852
28 *1653:A1 *1896:I 0
29 *1653:A1 *1935:I 0.000536655
30 *1653:A1 *456:24 3.53257e-05
31 *1653:A1 *475:18 1.77471e-05
32 *1653:A1 *488:127 0.000142777
33 *132:25 *1409:I 0.000286386
34 *132:25 *1650:A2 0.000264282
35 *132:35 *1448:A2 0
36 *132:35 *1448:B 2.39814e-05
37 *132:35 *1793:A2 0.000309524
38 *132:35 *142:170 5.13763e-05
39 *132:35 *475:22 0.000364888
40 *132:35 *488:127 0.000265313
41 *1857:D *132:35 0.000807339
*RES
1 *1409:ZN *132:4 4.5 
2 *132:4 *1653:A1 28.71 
3 *132:4 *132:25 0.81 
4 *132:25 *132:35 11.34 
5 *132:35 *1443:A1 9.27 
6 *132:35 *1503:A1 14.13 
7 *132:25 *1652:A1 6.39 
*END

*D_NET *133 0.00496672
*CONN
*I *1428:A1 I *D gf180mcu_fd_sc_mcu7t5v0__and2_1
*I *1427:A1 I *D gf180mcu_fd_sc_mcu7t5v0__nor2_1
*I *1762:A1 I *D gf180mcu_fd_sc_mcu7t5v0__nor2_1
*I *1410:ZN O *D gf180mcu_fd_sc_mcu7t5v0__clkinv_1
*CAP
1 *1428:A1 0.000519173
2 *1427:A1 0
3 *1762:A1 7.02313e-05
4 *1410:ZN 0.000436199
5 *133:18 0.000127851
6 *133:16 0.00101299
7 *1428:A1 *1427:A2 7.84041e-05
8 *1428:A1 *1428:A2 0.000697001
9 *1428:A1 *1910:I 0
10 *1428:A1 *567:20 0.000256675
11 *1762:A1 *474:25 0.000473735
12 *133:16 *474:21 0.000351183
13 *133:16 *474:25 0.000434734
14 *133:16 *483:16 1.86464e-05
15 *133:18 *474:25 0.000283821
16 *1829:D *133:16 0.00020608
17 *1835:D *1428:A1 0
*RES
1 *1410:ZN *133:16 12.87 
2 *133:16 *133:18 0.81 
3 *133:18 *1762:A1 10.17 
4 *133:18 *1427:A1 9 
5 *133:16 *1428:A1 14.31 
*END

*D_NET *134 0.00514711
*CONN
*I *1707:B2 I *D gf180mcu_fd_sc_mcu7t5v0__oai221_1
*I *1690:B2 I *D gf180mcu_fd_sc_mcu7t5v0__oai22_1
*I *1624:A1 I *D gf180mcu_fd_sc_mcu7t5v0__nor2_1
*I *1736:A3 I *D gf180mcu_fd_sc_mcu7t5v0__nor4_1
*I *1411:ZN O *D gf180mcu_fd_sc_mcu7t5v0__clkinv_1
*CAP
1 *1707:B2 0
2 *1690:B2 0.000148045
3 *1624:A1 0
4 *1736:A3 0.000357495
5 *1411:ZN 6.44813e-05
6 *134:38 0.000291735
7 *134:14 0.00047594
8 *134:8 0.000326616
9 *1690:B2 *1623:A1 7.69881e-05
10 *1690:B2 *1623:B1 0
11 *1690:B2 *1707:B1 0.000354284
12 *1690:B2 *1728:B 0.000255088
13 *1690:B2 *301:12 0.000231483
14 *1690:B2 *485:55 0
15 *1690:B2 *490:52 0.000275217
16 *1690:B2 *490:76 0.000147005
17 *1736:A3 *1624:A2 0.000126645
18 *1736:A3 *1736:A4 2.69292e-05
19 *1736:A3 *1737:A3 2.87447e-05
20 *1736:A3 *305:12 6.53133e-05
21 *1736:A3 *490:29 5.63592e-06
22 *1736:A3 *490:46 7.20436e-05
23 *134:8 *1616:A3 0.000162562
24 *134:8 *567:30 3.55118e-05
25 *134:14 *1628:A2 0.000273755
26 *134:14 *567:20 0.000365445
27 *134:14 *567:30 0.000177559
28 *134:38 *1616:A3 0.000193141
29 *134:38 *1623:A1 7.20436e-05
30 *134:38 *1628:A2 0.000537405
31 *1824:D *1736:A3 0
*RES
1 *1411:ZN *134:8 5.22 
2 *134:8 *134:14 2.25 
3 *134:14 *1736:A3 16.02 
4 *134:14 *1624:A1 4.5 
5 *134:8 *134:38 2.43 
6 *134:38 *1690:B2 15.75 
7 *134:38 *1707:B2 4.5 
*END

*D_NET *135 0.00214124
*CONN
*I *1610:A2 I *D gf180mcu_fd_sc_mcu7t5v0__nor3_1
*I *1612:A4 I *D gf180mcu_fd_sc_mcu7t5v0__nor4_1
*I *1683:A1 I *D gf180mcu_fd_sc_mcu7t5v0__oai21_1
*I *1412:ZN O *D gf180mcu_fd_sc_mcu7t5v0__clkinv_1
*CAP
1 *1610:A2 0.000200556
2 *1612:A4 0
3 *1683:A1 0.000185201
4 *1412:ZN 0
5 *135:19 0.000267944
6 *135:6 0.00025259
7 *1610:A2 *1603:A3 3.31517e-06
8 *1610:A2 *1612:A2 0
9 *1610:A2 *1721:A1 0.000215887
10 *1610:A2 *304:16 0.000507492
11 *1610:A2 *356:42 0
12 *1610:A2 *489:49 5.13763e-05
13 *1683:A1 *1684:A2 2.73771e-05
14 *1683:A1 *299:16 9.52721e-05
15 *1683:A1 *480:42 7.43878e-05
16 *1683:A1 *489:49 0.000101415
17 *135:19 *1603:A3 1.1402e-05
18 *135:19 *1684:A2 1.39841e-05
19 *135:19 *489:49 0.000133037
*RES
1 *1412:ZN *135:6 9 
2 *135:6 *1683:A1 10.8 
3 *135:6 *135:19 0.81 
4 *135:19 *1612:A4 9 
5 *135:19 *1610:A2 11.52 
*END

*D_NET *136 0.00675941
*CONN
*I *1752:A2 I *D gf180mcu_fd_sc_mcu7t5v0__oai21_1
*I *1650:A1 I *D gf180mcu_fd_sc_mcu7t5v0__nand2_1
*I *1653:B1 I *D gf180mcu_fd_sc_mcu7t5v0__aoi22_1
*I *1413:ZN O *D gf180mcu_fd_sc_mcu7t5v0__clkinv_1
*CAP
1 *1752:A2 0.000609352
2 *1650:A1 0.000233806
3 *1653:B1 0.000206743
4 *1413:ZN 0
5 *136:8 0.000501718
6 *136:4 0.00067052
7 *1650:A1 *1650:A2 9.04462e-05
8 *1650:A1 *475:22 0.00057535
9 *1650:A1 *475:24 0.000922269
10 *1650:A1 *488:127 0.000302997
11 *1653:B1 *1651:A1 0.000220943
12 *1653:B1 *1655:A2 0.000213957
13 *1653:B1 *1895:I 3.75219e-06
14 *1653:B1 *341:12 0.000174129
15 *1752:A2 *1413:I 3.01487e-05
16 *1752:A2 *1652:A2 0
17 *1752:A2 *1655:A4 3.73774e-06
18 *1752:A2 *1823:CLK 2.59134e-05
19 *1752:A2 *1832:CLK 9.04462e-05
20 *1752:A2 *341:12 9.3226e-06
21 *1752:A2 *422:56 4.31676e-05
22 *1752:A2 *465:14 1.56779e-05
23 *1752:A2 *465:34 8.68281e-06
24 *1752:A2 *475:24 0.000937696
25 *1752:A2 *475:26 9.39061e-05
26 *136:8 *475:24 0.000372606
27 *136:8 *488:127 7.02619e-05
28 *1652:A1 *1650:A1 2.93938e-05
29 *1826:D *1752:A2 0.000302466
*RES
1 *1413:ZN *136:4 4.5 
2 *136:4 *136:8 5.49 
3 *136:8 *1653:B1 11.16 
4 *136:8 *1650:A1 13.32 
5 *136:4 *1752:A2 18.99 
*END

*D_NET *137 0.00543633
*CONN
*I *1651:A1 I *D gf180mcu_fd_sc_mcu7t5v0__nand2_1
*I *1754:A2 I *D gf180mcu_fd_sc_mcu7t5v0__oai21_1
*I *1414:ZN O *D gf180mcu_fd_sc_mcu7t5v0__clkinv_1
*CAP
1 *1651:A1 0.000924395
2 *1754:A2 0.000115711
3 *1414:ZN 0.000343325
4 *137:14 0.00138343
5 *1651:A1 *1653:A2 3.94291e-05
6 *1651:A1 *1654:A3 0.000496776
7 *1651:A1 *1654:A4 2.08301e-05
8 *1651:A1 *1655:A2 8.9944e-05
9 *1651:A1 *1655:A4 6.34901e-05
10 *1651:A1 *1659:A3 9.65355e-06
11 *1651:A1 *1895:I 8.7104e-05
12 *1651:A1 *1935:I 2.49787e-05
13 *1651:A1 *341:12 1.10145e-05
14 *1651:A1 *343:6 0.000248193
15 *1651:A1 *456:24 1.71254e-05
16 *1651:A1 *465:14 3.72498e-05
17 *1651:A1 *469:27 0
18 *1651:A1 *488:127 7.66319e-06
19 *1651:A1 *519:12 3.77882e-05
20 *1754:A2 *1753:A1 0
21 *1754:A2 *465:14 5.32494e-05
22 *1754:A2 *488:127 1.0571e-05
23 *137:14 *1414:I 4.72994e-05
24 *137:14 *1649:A2 0.000696333
25 *137:14 *1660:B 0
26 *137:14 *1754:B 0
27 *137:14 *309:48 2.03826e-05
28 *137:14 *465:14 0.000227025
29 *1649:A1 *137:14 9.55009e-05
30 *1653:A1 *1651:A1 6.82048e-06
31 *1653:B1 *1651:A1 0.000220943
32 *1827:D *1754:A2 0.000100105
*RES
1 *1414:ZN *137:14 12.78 
2 *137:14 *1754:A2 9.9 
3 *137:14 *1651:A1 15.93 
*END

*D_NET *138 0.010593
*CONN
*I *1627:A1 I *D gf180mcu_fd_sc_mcu7t5v0__nand2_1
*I *1606:A1 I *D gf180mcu_fd_sc_mcu7t5v0__nor2_1
*I *1666:A1 I *D gf180mcu_fd_sc_mcu7t5v0__nand2_1
*I *1687:A1 I *D gf180mcu_fd_sc_mcu7t5v0__nor3_1
*I *1617:A1 I *D gf180mcu_fd_sc_mcu7t5v0__nor2_1
*I *1749:A1 I *D gf180mcu_fd_sc_mcu7t5v0__nor4_1
*I *1717:C I *D gf180mcu_fd_sc_mcu7t5v0__aoi211_1
*I *1415:ZN O *D gf180mcu_fd_sc_mcu7t5v0__clkinv_1
*CAP
1 *1627:A1 0
2 *1606:A1 0.000156452
3 *1666:A1 0.000304013
4 *1687:A1 0.00012591
5 *1617:A1 0
6 *1749:A1 0
7 *1717:C 0.000337954
8 *1415:ZN 0.000373668
9 *138:73 0.000473849
10 *138:38 0.000164707
11 *138:36 0.000469312
12 *138:20 0.000409699
13 *138:16 0.000970168
14 *138:12 0.00146299
15 *1606:A1 *1606:A2 0.000223407
16 *1606:A1 *139:12 0
17 *1666:A1 *1666:A2 0.000554286
18 *1666:A1 *1670:A2 1.0415e-05
19 *1666:A1 *1744:A2 0.000288297
20 *1666:A1 *292:8 0
21 *1666:A1 *297:30 0.000228716
22 *1666:A1 *317:12 6.51414e-06
23 *1687:A1 *1687:A2 0.000204502
24 *1687:A1 *1744:A2 0.000133728
25 *1687:A1 *292:8 0
26 *1687:A1 *309:12 7.50811e-05
27 *1717:C *1687:A3 0.000120172
28 *1717:C *1717:B 2.08301e-05
29 *1717:C *1718:C 7.65946e-06
30 *1717:C *1719:B 8.00533e-05
31 *1717:C *1750:S 0.000362773
32 *1717:C *1901:I 6.89669e-05
33 *1717:C *139:53 7.84041e-05
34 *1717:C *317:36 5.60661e-06
35 *1717:C *360:6 1.61174e-05
36 *1717:C *422:30 3.55118e-05
37 *138:12 *1618:A1 0.000771774
38 *138:12 *1618:A2 3.22348e-05
39 *138:12 *1619:A1 0.000172683
40 *138:12 *1715:A2 4.1068e-05
41 *138:12 *311:12 3.55118e-05
42 *138:12 *485:43 8.02407e-05
43 *138:12 *486:20 3.06557e-05
44 *138:16 *1713:A3 0
45 *138:16 *1714:A2 0.000339824
46 *138:16 *1715:A3 5.70321e-05
47 *138:16 *1739:A2 4.22217e-05
48 *138:16 *139:36 7.84385e-05
49 *138:16 *297:30 8.9944e-05
50 *138:16 *356:10 0
51 *138:16 *388:18 0
52 *138:16 *486:114 1.38506e-05
53 *138:20 *1687:A3 1.23607e-05
54 *138:20 *360:6 8.3795e-05
55 *138:20 *422:30 0.000212538
56 *138:36 *1669:A2 3.29946e-05
57 *138:36 *1739:A2 6.2083e-06
58 *138:36 *292:8 0
59 *138:36 *297:30 4.011e-05
60 *138:36 *309:12 5.01515e-05
61 *138:36 *422:30 0.000334837
62 *138:73 *1713:A3 2.08284e-05
63 *138:73 *1715:A2 3.89217e-05
64 *138:73 *139:12 0
65 *138:73 *139:36 0
66 *138:73 *311:12 0.000205026
*RES
1 *1415:ZN *138:12 8.64 
2 *138:12 *138:16 10.17 
3 *138:16 *138:20 5.31 
4 *138:20 *1717:C 7.74 
5 *138:20 *1749:A1 4.5 
6 *138:16 *138:36 1.35 
7 *138:36 *138:38 0.27 
8 *138:38 *1617:A1 9 
9 *138:38 *1687:A1 10.98 
10 *138:36 *1666:A1 12.6 
11 *138:12 *138:73 6.66 
12 *138:73 *1606:A1 10.08 
13 *138:73 *1627:A1 9 
*END

*D_NET *139 0.0254295
*CONN
*I *1718:A2 I *D gf180mcu_fd_sc_mcu7t5v0__aoi211_1
*I *1660:B I *D gf180mcu_fd_sc_mcu7t5v0__oai21_1
*I *1730:A1 I *D gf180mcu_fd_sc_mcu7t5v0__aoi21_1
*I *1682:A1 I *D gf180mcu_fd_sc_mcu7t5v0__nand2_1
*I *1717:B I *D gf180mcu_fd_sc_mcu7t5v0__aoi211_1
*I *1665:A1 I *D gf180mcu_fd_sc_mcu7t5v0__nor2_1
*I *1606:A2 I *D gf180mcu_fd_sc_mcu7t5v0__nor2_1
*I *1627:A2 I *D gf180mcu_fd_sc_mcu7t5v0__nand2_1
*I *1416:ZN O *D gf180mcu_fd_sc_mcu7t5v0__clkinv_1
*CAP
1 *1718:A2 8.1785e-05
2 *1660:B 0.000755499
3 *1730:A1 0
4 *1682:A1 0
5 *1717:B 5.37272e-05
6 *1665:A1 7.05462e-05
7 *1606:A2 9.06259e-05
8 *1627:A2 0
9 *1416:ZN 0
10 *139:103 0.00235787
11 *139:76 0.00188662
12 *139:72 0.000675016
13 *139:53 0.000755096
14 *139:36 0.000866916
15 *139:12 0.000356625
16 *139:6 0.000669981
17 *1606:A2 *485:43 0.000180788
18 *1660:B *1414:I 7.191e-07
19 *1660:B *1633:A2 0.000297517
20 *1660:B *1635:A1 0.000436478
21 *1660:B *1635:A2 3.56823e-05
22 *1660:B *1635:B 0.000654113
23 *1660:B *351:26 0.000587741
24 *1660:B *489:33 9.6501e-06
25 *1665:A1 *1618:A1 0.00037349
26 *1665:A1 *356:10 0.000294421
27 *1665:A1 *485:22 1.23523e-05
28 *1665:A1 *486:8 0
29 *1665:A1 *486:20 5.05993e-05
30 *1717:B *317:36 1.0415e-05
31 *1717:B *486:103 3.01487e-05
32 *1718:A2 *1670:A2 1.0415e-05
33 *1718:A2 *1718:B 2.89427e-06
34 *1718:A2 *1718:C 1.68677e-06
35 *1718:A2 *1719:A2 4.61945e-05
36 *1718:A2 *1744:A2 0.000100224
37 *139:12 *485:43 0.000183662
38 *139:12 *486:20 0.000101624
39 *139:36 *1715:A1 2.40933e-06
40 *139:36 *1715:A2 7.55765e-06
41 *139:36 *356:10 3.60134e-05
42 *139:36 *394:6 0
43 *139:36 *463:8 2.38064e-05
44 *139:36 *486:20 0.000728102
45 *139:53 *1719:B 0.000708085
46 *139:53 *463:21 0.000124476
47 *139:53 *472:12 8.43025e-06
48 *139:53 *486:20 5.33485e-05
49 *139:53 *486:103 0.000161555
50 *139:72 *1670:A2 0.000207343
51 *139:72 *1687:A3 2.16781e-05
52 *139:72 *1719:A2 0.000133728
53 *139:72 *317:29 0.000218664
54 *139:72 *472:12 0.000444199
55 *139:76 *1682:A2 0.000372615
56 *139:76 *1697:S 3.53802e-05
57 *139:76 *1698:A2 0
58 *139:76 *1700:A4 6.41301e-05
59 *139:76 *317:29 0
60 *139:76 *356:88 7.28135e-05
61 *139:76 *361:30 0
62 *139:103 *1608:A1 2.08301e-05
63 *139:103 *1634:B 0.000499457
64 *139:103 *1671:A1 0.000757427
65 *139:103 *1672:B 0
66 *139:103 *1689:A2 1.56779e-05
67 *139:103 *1689:B 0.000162728
68 *139:103 *1697:S 0.000135033
69 *139:103 *1700:A4 0.00145373
70 *139:103 *1745:A2 1.71254e-05
71 *139:103 *1807:CLK 6.39097e-05
72 *139:103 *291:14 0.000121054
73 *139:103 *300:16 0.00346065
74 *139:103 *300:62 2.42051e-05
75 *139:103 *300:81 7.34904e-05
76 *139:103 *302:18 7.32062e-06
77 *139:103 *316:97 0.000271813
78 *139:103 *361:30 0
79 *139:103 *372:10 3.92905e-06
80 *139:103 *484:71 0.000489048
81 *139:103 *487:141 0.000178791
82 *139:103 *487:156 0.00012775
83 *1606:A1 *1606:A2 0.000223407
84 *1606:A1 *139:12 0
85 *1633:A1 *1660:B 3.46409e-05
86 *1717:C *1717:B 2.08301e-05
87 *1717:C *139:53 7.84041e-05
88 *1816:D *139:103 5.33941e-05
89 *1825:D *1665:A1 0.000292006
90 *1825:D *139:12 0
91 *1825:D *139:53 0.00108179
92 *124:10 *1660:B 2.67052e-05
93 *124:83 *1660:B 0.000190414
94 *137:14 *1660:B 0
95 *138:16 *139:36 7.84385e-05
96 *138:73 *139:12 0
97 *138:73 *139:36 0
*RES
1 *1416:ZN *139:6 9 
2 *139:6 *139:12 6.66 
3 *139:12 *1627:A2 4.5 
4 *139:12 *1606:A2 5.76 
5 *139:6 *139:36 12.87 
6 *139:36 *1665:A1 10.8 
7 *139:36 *139:53 9.54 
8 *139:53 *1717:B 5.13 
9 *139:53 *139:72 12.78 
10 *139:72 *139:76 7.11 
11 *139:76 *1682:A1 9 
12 *139:76 *139:103 35.19 
13 *139:103 *1730:A1 4.5 
14 *139:103 *1660:B 12.78 
15 *139:72 *1718:A2 5.31 
*END

*D_NET *140 0.0181448
*CONN
*I *1515:A1 I *D gf180mcu_fd_sc_mcu7t5v0__nand4_1
*I *1500:A1 I *D gf180mcu_fd_sc_mcu7t5v0__nand4_1
*I *1521:A1 I *D gf180mcu_fd_sc_mcu7t5v0__and4_1
*I *1526:A1 I *D gf180mcu_fd_sc_mcu7t5v0__nand4_1
*I *1495:A1 I *D gf180mcu_fd_sc_mcu7t5v0__and4_1
*I *1510:A1 I *D gf180mcu_fd_sc_mcu7t5v0__nand4_1
*I *1531:A1 I *D gf180mcu_fd_sc_mcu7t5v0__nand4_1
*I *1505:A1 I *D gf180mcu_fd_sc_mcu7t5v0__nand4_1
*I *1478:A1 I *D gf180mcu_fd_sc_mcu7t5v0__aoi21_1
*I *1437:A1 I *D gf180mcu_fd_sc_mcu7t5v0__nand2_1
*I *1493:A1 I *D gf180mcu_fd_sc_mcu7t5v0__nand3_1
*I *1494:C I *D gf180mcu_fd_sc_mcu7t5v0__oai211_1
*I *1486:B I *D gf180mcu_fd_sc_mcu7t5v0__oai211_1
*I *1781:A1 I *D gf180mcu_fd_sc_mcu7t5v0__nor3_1
*I *1417:ZN O *D gf180mcu_fd_sc_mcu7t5v0__clkinv_1
*CAP
1 *1515:A1 0.000131165
2 *1500:A1 0
3 *1521:A1 0.000140293
4 *1526:A1 0
5 *1495:A1 0.000182036
6 *1510:A1 0
7 *1531:A1 0.000133241
8 *1505:A1 0
9 *1478:A1 0.000256136
10 *1437:A1 4.39557e-05
11 *1493:A1 0
12 *1494:C 0
13 *1486:B 0.000232531
14 *1781:A1 2.51176e-05
15 *1417:ZN 0.000196581
16 *140:142 0.000243286
17 *140:133 0.000406825
18 *140:127 0.000299232
19 *140:110 0.000246904
20 *140:108 0.000280913
21 *140:77 0.000341835
22 *140:75 0.00021894
23 *140:73 0.000120392
24 *140:41 0.000499538
25 *140:33 0.000685739
26 *140:27 0.000818864
27 *140:14 0.000490037
28 *140:12 0.000345434
29 *1437:A1 *1437:A2 3.01487e-05
30 *1437:A1 *1883:CLK 0.000161479
31 *1437:A1 *581:42 3.73774e-06
32 *1478:A1 *1478:A2 0.000246769
33 *1478:A1 *1582:A1 9.68902e-05
34 *1478:A1 *581:52 9.3226e-06
35 *1478:A1 *583:8 1.58082e-05
36 *1486:B *1486:C 0.000253879
37 *1486:B *1494:A2 3.56481e-05
38 *1486:B *1494:B 9.84908e-05
39 *1486:B *152:31 2.14848e-05
40 *1486:B *175:30 5.78854e-06
41 *1486:B *200:12 9.84908e-05
42 *1486:B *208:22 2.36914e-05
43 *1495:A1 *1500:A4 0.000817278
44 *1495:A1 *1510:A4 0
45 *1495:A1 *477:81 0.000103139
46 *1495:A1 *477:89 5.78854e-06
47 *1495:A1 *581:131 0.00010273
48 *1515:A1 *1511:B 0.000506768
49 *1515:A1 *1515:A2 0.00017207
50 *1515:A1 *1516:B 1.07374e-05
51 *1515:A1 *1790:B2 0
52 *1515:A1 *491:45 1.19491e-05
53 *1521:A1 *1521:A2 0.000157911
54 *1521:A1 *1526:A2 1.61174e-05
55 *1521:A1 *1526:A3 4.76142e-05
56 *1521:A1 *1527:B 1.79237e-05
57 *1521:A1 *477:100 5.78854e-06
58 *1531:A1 *1478:A2 0.000217302
59 *1531:A1 *1506:B 0.00049724
60 *1781:A1 *1569:A2 7.30414e-05
61 *1781:A1 *1594:A2 0.000223398
62 *1781:A1 *434:16 0.000100105
63 *140:12 *1417:I 3.01487e-05
64 *140:12 *1506:B 0.000280854
65 *140:12 *1569:A2 4.54603e-06
66 *140:12 *581:46 6.39045e-05
67 *140:12 *584:8 5.59262e-05
68 *140:14 *1478:A2 4.08007e-05
69 *140:14 *581:78 1.20708e-05
70 *140:14 *583:10 7.584e-06
71 *140:27 *1496:C 0.000247927
72 *140:27 *1594:A1 6.219e-05
73 *140:27 *583:10 0
74 *140:33 *1436:A2 0
75 *140:33 *1493:A2 1.0415e-05
76 *140:33 *1493:A3 5.78854e-06
77 *140:33 *1496:C 0.000163338
78 *140:33 *1584:A2 9.11911e-05
79 *140:33 *1594:A1 1.47998e-05
80 *140:33 *207:6 0.000151417
81 *140:33 *282:8 0
82 *140:33 *581:31 0.000871233
83 *140:41 *1482:C 0
84 *140:41 *1494:B 0.000243827
85 *140:41 *152:31 2.95601e-05
86 *140:41 *194:8 3.42213e-05
87 *140:41 *208:22 0.000111618
88 *140:41 *282:8 0.00143828
89 *140:73 *1478:A2 4.91433e-05
90 *140:77 *1478:A2 5.73758e-05
91 *140:77 *1506:B 0.000284981
92 *140:77 *1511:B 0
93 *140:108 *1478:A2 5.44009e-05
94 *140:108 *581:91 0.00014556
95 *140:110 *1511:B 0.000283705
96 *140:110 *1515:A2 6.7989e-05
97 *140:110 *581:93 5.30751e-05
98 *140:127 *1496:C 0.000150744
99 *140:127 *1505:A3 9.08599e-05
100 *140:127 *1510:A4 0.000247379
101 *140:127 *491:49 7.55765e-06
102 *140:127 *491:73 1.68605e-05
103 *140:127 *492:235 6.75054e-06
104 *140:127 *581:99 0.00037944
105 *140:127 *583:73 3.97987e-05
106 *140:133 *1510:A4 0.000624311
107 *140:133 *1521:A2 9.24957e-06
108 *140:133 *491:73 0.00012775
109 *140:142 *1521:A2 3.98088e-05
110 *140:142 *1526:A2 2.93938e-05
111 *140:142 *477:89 6.78417e-05
112 *140:142 *581:131 0.000175108
113 *1881:D *140:127 6.17613e-06
114 *1882:D *140:14 0.000129042
115 *1882:D *140:27 0.000153615
116 *1882:D *140:73 5.92385e-05
117 *1882:D *140:108 0.000288458
118 *1882:D *140:127 0
*RES
1 *1417:ZN *140:12 10.71 
2 *140:12 *140:14 0.99 
3 *140:14 *1781:A1 9.63 
4 *140:14 *140:27 2.52 
5 *140:27 *140:33 9.18 
6 *140:33 *140:41 13.5 
7 *140:41 *1486:B 6.75 
8 *140:41 *1494:C 4.5 
9 *140:33 *1493:A1 4.5 
10 *140:27 *1437:A1 9.45 
11 *140:12 *140:73 0.45 
12 *140:73 *140:75 4.5 
13 *140:75 *140:77 0.99 
14 *140:77 *1478:A1 6.66 
15 *140:77 *1505:A1 4.5 
16 *140:75 *1531:A1 6.3 
17 *140:73 *140:108 6.21 
18 *140:108 *140:110 0.99 
19 *140:110 *1510:A1 4.5 
20 *140:110 *140:127 11.7 
21 *140:127 *140:133 10.71 
22 *140:133 *1495:A1 6.93 
23 *140:133 *140:142 1.35 
24 *140:142 *1526:A1 4.5 
25 *140:142 *1521:A1 5.85 
26 *140:127 *1500:A1 4.5 
27 *140:108 *1515:A1 6.3 
*END

*D_NET *141 0.0350214
*CONN
*I *1437:A2 I *D gf180mcu_fd_sc_mcu7t5v0__nand2_1
*I *1478:A2 I *D gf180mcu_fd_sc_mcu7t5v0__aoi21_1
*I *1530:B1 I *D gf180mcu_fd_sc_mcu7t5v0__oai22_1
*I *1514:B1 I *D gf180mcu_fd_sc_mcu7t5v0__oai22_1
*I *1525:B1 I *D gf180mcu_fd_sc_mcu7t5v0__oai22_1
*I *1499:B1 I *D gf180mcu_fd_sc_mcu7t5v0__oai22_1
*I *1469:A2 I *D gf180mcu_fd_sc_mcu7t5v0__oai221_1
*I *1520:A2 I *D gf180mcu_fd_sc_mcu7t5v0__oai221_1
*I *1504:B1 I *D gf180mcu_fd_sc_mcu7t5v0__oai22_1
*I *1509:B1 I *D gf180mcu_fd_sc_mcu7t5v0__oai22_1
*I *1486:C I *D gf180mcu_fd_sc_mcu7t5v0__oai211_1
*I *1477:B I *D gf180mcu_fd_sc_mcu7t5v0__oai21_1
*I *1418:ZN O *D gf180mcu_fd_sc_mcu7t5v0__clkinv_1
*CAP
1 *1437:A2 9.59483e-05
2 *1478:A2 0.000560948
3 *1530:B1 0.000142451
4 *1514:B1 0.000388263
5 *1525:B1 0
6 *1499:B1 1.87855e-05
7 *1469:A2 0.000479265
8 *1520:A2 9.37062e-05
9 *1504:B1 0
10 *1509:B1 0
11 *1486:C 0.000132285
12 *1477:B 0.000167851
13 *1418:ZN 0
14 *141:153 0.000962221
15 *141:129 0.00154116
16 *141:84 0.00076315
17 *141:82 0.000460823
18 *141:80 0.00189469
19 *141:65 0.000601077
20 *141:58 0.00015477
21 *141:54 0.000687845
22 *141:26 0.000905917
23 *141:6 0.00106482
24 *141:4 0.000169592
25 *1437:A2 *1883:CLK 2.93938e-05
26 *1437:A2 *581:42 8.12856e-06
27 *1469:A2 *1470:A1 0.000761048
28 *1469:A2 *1863:CLK 1.34992e-05
29 *1469:A2 *582:22 1.61174e-05
30 *1469:A2 *582:43 0.000267065
31 *1477:B *1406:I 0
32 *1477:B *1494:A1 0.00013986
33 *1477:B *1494:B 7.50811e-05
34 *1477:B *142:114 0.000245846
35 *1477:B *154:44 3.55118e-05
36 *1477:B *175:30 3.98088e-05
37 *1477:B *282:8 0
38 *1478:A2 *1506:B 0.000137885
39 *1478:A2 *1511:B 2.18725e-05
40 *1478:A2 *1531:A2 0.000146022
41 *1478:A2 *1531:A4 3.7357e-05
42 *1478:A2 *581:78 9.84061e-05
43 *1478:A2 *581:91 3.64412e-05
44 *1478:A2 *584:8 0.000234117
45 *1478:A2 *584:12 0.000397541
46 *1486:C *152:31 5.46176e-05
47 *1499:B1 *1499:B2 0.000156001
48 *1499:B1 *1632:S0 0.000156001
49 *1514:B1 *1511:A1 0.000553243
50 *1514:B1 *1514:A1 7.73059e-05
51 *1514:B1 *1514:A2 3.94926e-05
52 *1514:B1 *1514:B2 0.000347906
53 *1514:B1 *1528:I1 5.47143e-05
54 *1514:B1 *1632:I1 0.00103712
55 *1514:B1 *1920:I 0.000966303
56 *1514:B1 *1927:I 1.56942e-05
57 *1514:B1 *1966:I 0.000294421
58 *1514:B1 *560:10 0.000331204
59 *1514:B1 *560:16 0.000637669
60 *1520:A2 *1633:A2 8.67164e-05
61 *1520:A2 *179:104 1.44365e-05
62 *1520:A2 *179:110 8.43025e-06
63 *1520:A2 *180:10 0.000674629
64 *1520:A2 *478:14 0.00066753
65 *1530:B1 *1506:B 4.25031e-05
66 *1530:B1 *1511:B 0
67 *1530:B1 *1512:I0 1.0415e-05
68 *1530:B1 *1516:B 0
69 *1530:B1 *1532:A2 1.61174e-05
70 *141:6 *1883:CLK 1.47489e-05
71 *141:6 *581:42 9.30128e-05
72 *141:26 *1436:A1 0.000611671
73 *141:26 *1494:B 0.000194417
74 *141:26 *1496:A2 7.98425e-05
75 *141:26 *1496:C 0.000226185
76 *141:26 *1522:C 0.00132234
77 *141:26 *142:114 0.000165681
78 *141:26 *152:31 0.000321927
79 *141:26 *156:8 9.09976e-05
80 *141:26 *208:22 0.000365448
81 *141:26 *581:25 9.34988e-05
82 *141:26 *581:31 0.000257305
83 *141:26 *581:42 6.96564e-06
84 *141:54 *1417:I 3.0177e-06
85 *141:54 *1425:I 5.74356e-06
86 *141:54 *1522:C 1.96079e-05
87 *141:54 *1883:CLK 0.000136696
88 *141:54 *559:67 0
89 *141:54 *582:120 0.000321182
90 *141:54 *582:128 1.16196e-05
91 *141:54 *582:165 4.49689e-05
92 *141:58 *1569:A2 0.000268036
93 *141:58 *1574:A2 0.000268036
94 *141:65 *1569:A2 0.000897399
95 *141:65 *1574:A2 0.000867251
96 *141:80 *1506:B 9.33378e-05
97 *141:80 *1569:A2 0.00144572
98 *141:80 *1574:A2 0.000598281
99 *141:82 *1506:B 0.000148945
100 *141:82 *1633:A2 0.000286424
101 *141:84 *1633:A2 0.00153508
102 *141:84 *179:104 3.70094e-05
103 *141:129 *1511:A1 9.84908e-05
104 *141:129 *1527:A2 0.000353147
105 *141:129 *1632:I1 9.84908e-05
106 *141:129 *1899:I 9.2594e-05
107 *141:129 *492:313 0
108 *141:129 *564:16 0
109 *141:153 *1417:I 7.25982e-05
110 *141:153 *1522:C 5.29961e-06
111 *141:153 *1530:B2 3.488e-05
112 *141:153 *1788:B2 0.000433567
113 *141:153 *582:165 4.21678e-05
114 *1437:A1 *1437:A2 3.01487e-05
115 *1478:A1 *1478:A2 0.000246769
116 *1486:B *1486:C 0.000253879
117 *1531:A1 *1478:A2 0.000217302
118 *1847:D *141:80 0.000179678
119 *1847:D *141:82 0.000417937
120 *1847:D *141:84 0.000150143
121 *1864:D *141:84 0.000979725
122 *1892:I *141:26 1.14128e-05
123 *1892:I *141:54 0
124 *140:14 *1478:A2 4.08007e-05
125 *140:73 *1478:A2 4.91433e-05
126 *140:77 *1478:A2 5.73758e-05
127 *140:108 *1478:A2 5.44009e-05
*RES
1 *1418:ZN *141:4 4.5 
2 *141:4 *141:6 0.63 
3 *141:6 *141:26 23.49 
4 *141:26 *1477:B 10.98 
5 *141:26 *1486:C 10.26 
6 *141:6 *141:54 7.92 
7 *141:54 *141:58 5.31 
8 *141:58 *1509:B1 4.5 
9 *141:58 *141:65 2.61 
10 *141:65 *1504:B1 4.5 
11 *141:65 *141:80 10.62 
12 *141:80 *141:82 2.79 
13 *141:82 *141:84 4.23 
14 *141:84 *1520:A2 11.16 
15 *141:84 *1469:A2 22.32 
16 *141:82 *1499:B1 9.45 
17 *141:80 *141:129 20.88 
18 *141:129 *1525:B1 4.5 
19 *141:129 *1514:B1 21.15 
20 *141:54 *141:153 6.39 
21 *141:153 *1530:B1 5.31 
22 *141:153 *1478:A2 19.26 
23 *141:4 *1437:A2 5.4 
*END

*D_NET *142 0.0608972
*CONN
*I *1446:A1 I *D gf180mcu_fd_sc_mcu7t5v0__nand3_1
*I *1457:A1 I *D gf180mcu_fd_sc_mcu7t5v0__nand3_1
*I *1451:A1 I *D gf180mcu_fd_sc_mcu7t5v0__nand3_1
*I *1447:B I *D gf180mcu_fd_sc_mcu7t5v0__oai21_1
*I *1452:B I *D gf180mcu_fd_sc_mcu7t5v0__oai21_1
*I *1442:B I *D gf180mcu_fd_sc_mcu7t5v0__oai21_1
*I *1805:C I *D gf180mcu_fd_sc_mcu7t5v0__oai211_1
*I *1802:B I *D gf180mcu_fd_sc_mcu7t5v0__oai21_1
*I *1482:C I *D gf180mcu_fd_sc_mcu7t5v0__oai211_1
*I *1480:A1 I *D gf180mcu_fd_sc_mcu7t5v0__nand2_1
*I *1587:A4 I *D gf180mcu_fd_sc_mcu7t5v0__nand4_1
*I *1586:A2 I *D gf180mcu_fd_sc_mcu7t5v0__nand2_1
*I *1669:A2 I *D gf180mcu_fd_sc_mcu7t5v0__nand2_1
*I *1763:A1 I *D gf180mcu_fd_sc_mcu7t5v0__and2_1
*I *1667:B I *D gf180mcu_fd_sc_mcu7t5v0__oai21_1
*I *1760:A1 I *D gf180mcu_fd_sc_mcu7t5v0__and2_1
*I *1419:ZN O *D gf180mcu_fd_sc_mcu7t5v0__clkinv_1
*CAP
1 *1446:A1 3.25596e-05
2 *1457:A1 0.000155072
3 *1451:A1 3.85423e-05
4 *1447:B 0
5 *1452:B 0.000366314
6 *1442:B 0
7 *1805:C 0.000208672
8 *1802:B 0
9 *1482:C 0.00040954
10 *1480:A1 2.30686e-05
11 *1587:A4 0.000113624
12 *1586:A2 4.85629e-05
13 *1669:A2 4.38036e-05
14 *1763:A1 0.000295938
15 *1667:B 0
16 *1760:A1 0.000790736
17 *1419:ZN 0.000243702
18 *142:203 0.000257399
19 *142:199 0.000517149
20 *142:170 0.000479063
21 *142:114 0.00111746
22 *142:97 0.000954076
23 *142:84 0.00177947
24 *142:80 0.00244476
25 *142:78 0.00166946
26 *142:74 0.000861556
27 *142:68 0.000384296
28 *142:64 0.00111959
29 *142:33 0.000509593
30 *142:18 0.00236182
31 *142:14 0.00395563
32 *142:10 0.00327006
33 *1451:A1 *1451:A2 2.89427e-06
34 *1451:A1 *1451:A3 3.73774e-06
35 *1451:A1 *1801:A2 3.01487e-05
36 *1451:A1 *458:10 2.08301e-05
37 *1452:B *1454:A1 1.26644e-05
38 *1452:B *161:25 0
39 *1452:B *561:25 0.00142469
40 *1457:A1 *1797:A2 0.000365454
41 *1457:A1 *1800:A2 8.6117e-05
42 *1457:A1 *1801:A2 0.000101624
43 *1457:A1 *1862:CLK 1.0415e-05
44 *1457:A1 *492:317 0
45 *1480:A1 *1480:A2 0.000177559
46 *1480:A1 *156:8 2.40587e-06
47 *1480:A1 *205:22 0.000232503
48 *1482:C *1482:A1 3.33106e-05
49 *1482:C *1482:B 1.07374e-05
50 *1482:C *1494:B 1.86249e-05
51 *1482:C *1536:A3 1.84368e-05
52 *1482:C *194:8 3.1612e-05
53 *1482:C *200:12 0.000109076
54 *1482:C *204:6 1.96863e-05
55 *1482:C *204:12 0.000191637
56 *1482:C *583:26 0.000238712
57 *1586:A2 *1911:I 3.1297e-05
58 *1586:A2 *144:27 3.04847e-05
59 *1587:A4 *150:42 0.000278763
60 *1587:A4 *154:16 7.75544e-05
61 *1587:A4 *179:41 0.000476546
62 *1760:A1 *1404:I 3.69932e-05
63 *1760:A1 *1724:A2 6.85018e-05
64 *1760:A1 *1724:B 0.000453907
65 *1760:A1 *1760:A2 3.99345e-05
66 *1760:A1 *1912:I 9.28208e-06
67 *1760:A1 *472:38 0
68 *1760:A1 *483:67 0
69 *1763:A1 *1599:B1 8.89418e-05
70 *1763:A1 *1599:B2 0.000382866
71 *1763:A1 *1763:A2 0.000966074
72 *1763:A1 *1817:CLK 0
73 *1763:A1 *289:23 0.00023578
74 *1763:A1 *569:10 0.000127778
75 *1763:A1 *569:21 0.000247389
76 *1805:C *1896:I 0
77 *1805:C *160:40 9.89629e-06
78 *142:10 *1419:I 0.000496785
79 *142:10 *1831:CLK 9.07783e-05
80 *142:10 *1910:I 0.000118691
81 *142:10 *467:40 9.89629e-06
82 *142:10 *474:17 0
83 *142:10 *492:343 0.000215722
84 *142:14 *1739:A2 0.00183922
85 *142:14 *309:12 0.000401206
86 *142:14 *309:31 0.000942195
87 *142:14 *356:14 0.000984908
88 *142:14 *356:27 0.00299986
89 *142:14 *422:30 0.00147742
90 *142:18 *356:14 0.000627061
91 *142:18 *422:30 3.9608e-05
92 *142:33 *1595:A1 3.08806e-06
93 *142:33 *1724:B 0.000126221
94 *142:33 *289:23 5.13763e-05
95 *142:33 *483:67 6.76807e-05
96 *142:33 *569:10 0.000382875
97 *142:64 *1646:A2 0.00100799
98 *142:64 *1647:A2 0.000311954
99 *142:64 *1659:A1 0.000133143
100 *142:64 *1755:I0 4.24123e-05
101 *142:64 *1858:CLK 0.000355058
102 *142:64 *1910:I 4.80033e-05
103 *142:64 *338:12 2.36954e-05
104 *142:64 *459:14 0.000106629
105 *142:64 *460:16 0.000150922
106 *142:64 *461:25 7.38282e-05
107 *142:64 *492:343 0.00433121
108 *142:68 *1793:A2 0.00112744
109 *142:68 *1857:CLK 5.97457e-06
110 *142:68 *161:25 1.32397e-05
111 *142:68 *459:10 0.000104986
112 *142:68 *478:77 2.32821e-05
113 *142:74 *1793:A2 0.000365454
114 *142:74 *1857:CLK 0.000107298
115 *142:74 *158:29 0.00010614
116 *142:74 *161:8 7.47548e-06
117 *142:74 *488:127 3.68029e-05
118 *142:97 *1486:A1 0.00035461
119 *142:97 *1911:I 2.51776e-05
120 *142:97 *144:27 3.29954e-05
121 *142:97 *245:10 2.38529e-05
122 *142:114 *1486:A1 0.000131886
123 *142:114 *1494:A1 3.29954e-05
124 *142:114 *1494:A2 9.50022e-05
125 *142:114 *1494:B 0.000106416
126 *142:114 *150:42 0.000266418
127 *142:114 *154:35 9.48268e-05
128 *142:114 *179:41 0.000289482
129 *142:114 *200:12 0.000586939
130 *142:170 *1443:B 2.36954e-05
131 *142:170 *488:127 0.000443358
132 *142:170 *561:25 0.000161479
133 *142:199 *1446:A2 0.000471873
134 *142:199 *1449:A1 5.97457e-06
135 *142:199 *1451:A2 0
136 *142:199 *1455:A1 0.000168918
137 *142:199 *1513:A2 1.18477e-05
138 *142:199 *1793:A2 1.30918e-05
139 *142:199 *161:25 0.000347114
140 *142:199 *161:32 7.10237e-05
141 *142:199 *459:14 0.000126457
142 *142:199 *460:8 2.90324e-05
143 *142:199 *460:16 1.18477e-05
144 *142:199 *460:36 6.67701e-05
145 *142:203 *1801:A2 0.000664126
146 *142:203 *492:325 5.13763e-05
147 *142:203 *492:331 0.000320271
148 *1477:B *142:114 0.000245846
149 *1498:A1 *1805:C 0.00072578
150 *1503:A1 *142:170 0.000556473
151 *1716:A1 *1760:A1 0
152 *1811:D *1805:C 0.000160412
153 *1820:D *1760:A1 0.00054691
154 *1828:D *142:64 0
155 *1850:D *142:203 0.000163347
156 *1854:D *1457:A1 0.000406468
157 *1854:D *142:203 0.000744726
158 *1856:D *1805:C 0.000244009
159 *1857:D *142:74 9.29472e-05
160 *1857:D *142:170 0.0004548
161 *1858:D *1446:A1 6.2979e-05
162 *1858:D *142:199 0.000106536
163 *1861:D *1452:B 4.7531e-05
164 *1892:I *1482:C 0.000167317
165 *120:19 *1805:C 0.000174506
166 *129:12 *142:97 6.85746e-06
167 *129:12 *142:114 0.000196981
168 *132:35 *142:170 5.13763e-05
169 *138:36 *1669:A2 3.29946e-05
170 *140:41 *1482:C 0
171 *141:26 *142:114 0.000165681
*RES
1 *1419:ZN *142:10 12.06 
2 *142:10 *142:14 33.93 
3 *142:14 *142:18 12.33 
4 *142:18 *1760:A1 15.39 
5 *142:18 *142:33 2.79 
6 *142:33 *1667:B 9 
7 *142:33 *1763:A1 13.5 
8 *142:14 *1669:A2 13.77 
9 *142:10 *142:64 13.41 
10 *142:64 *142:68 7.65 
11 *142:68 *142:74 6.48 
12 *142:74 *142:78 8.73 
13 *142:78 *142:80 5.67 
14 *142:80 *142:84 13.41 
15 *142:84 *1586:A2 9.45 
16 *142:84 *142:97 6.03 
17 *142:97 *1587:A4 6.3 
18 *142:97 *142:114 12.87 
19 *142:114 *1480:A1 9.63 
20 *142:114 *1482:C 21.6 
21 *142:80 *1802:B 13.5 
22 *142:78 *1805:C 16.2 
23 *142:74 *142:170 7.74 
24 *142:170 *1442:B 4.5 
25 *142:170 *1452:B 8.64 
26 *142:68 *1447:B 4.5 
27 *142:64 *142:199 9 
28 *142:199 *142:203 7.29 
29 *142:203 *1451:A1 9.27 
30 *142:203 *1457:A1 11.16 
31 *142:199 *1446:A1 4.77 
*END

*D_NET *143 0.00838858
*CONN
*I *1432:A1 I *D gf180mcu_fd_sc_mcu7t5v0__nand2_1
*I *1471:B1 I *D gf180mcu_fd_sc_mcu7t5v0__aoi22_1
*I *1483:A1 I *D gf180mcu_fd_sc_mcu7t5v0__nor2_1
*I *1462:B1 I *D gf180mcu_fd_sc_mcu7t5v0__aoi22_1
*I *1434:A1 I *D gf180mcu_fd_sc_mcu7t5v0__nand3_1
*I *1538:A2 I *D gf180mcu_fd_sc_mcu7t5v0__nand4_1
*I *1537:A2 I *D gf180mcu_fd_sc_mcu7t5v0__and4_1
*I *1420:ZN O *D gf180mcu_fd_sc_mcu7t5v0__clkinv_1
*CAP
1 *1432:A1 3.23304e-05
2 *1471:B1 0.00027846
3 *1483:A1 0
4 *1462:B1 0.000562559
5 *1434:A1 0
6 *1538:A2 0
7 *1537:A2 0.000128698
8 *1420:ZN 0.000137446
9 *143:39 0.000841019
10 *143:37 0.000323022
11 *143:28 0.000347058
12 *143:10 0.000128698
13 *143:8 0.000193813
14 *1432:A1 *1486:A2 0.000331936
15 *1432:A1 *1492:A1 0.000160736
16 *1462:B1 *1462:A1 4.6613e-06
17 *1462:B1 *1462:B2 0.00109776
18 *1462:B1 *1486:A2 2.60586e-05
19 *1462:B1 *1542:A4 0.000156001
20 *1462:B1 *150:36 2.76521e-06
21 *1462:B1 *175:30 0.000161578
22 *1462:B1 *447:115 2.09122e-05
23 *1462:B1 *556:83 8.51741e-06
24 *1471:B1 *1471:B2 0.00016526
25 *1471:B1 *1486:A2 1.61174e-05
26 *1471:B1 *150:36 3.03894e-05
27 *1471:B1 *175:30 1.63382e-05
28 *1471:B1 *556:83 1.56862e-05
29 *1471:B1 *556:96 1.1858e-05
30 *1537:A2 *1537:A3 0.000303443
31 *1537:A2 *1538:A4 2.69053e-05
32 *143:8 *1537:A3 5.92385e-05
33 *143:8 *556:25 0.000244819
34 *143:8 *556:34 0.000419316
35 *143:8 *556:60 0.000132926
36 *143:8 *565:34 2.6575e-05
37 *143:8 *565:38 3.08806e-06
38 *143:28 *153:8 4.71078e-05
39 *143:28 *556:60 0.000453188
40 *143:37 *1486:A2 0.000163622
41 *143:37 *1492:A1 0.000273585
42 *143:37 *1540:C 3.53326e-05
43 *143:37 *1586:A1 9.34442e-05
44 *143:37 *153:8 2.16372e-05
45 *143:37 *556:60 0.000382875
46 *143:37 *556:66 0.000356062
47 *1433:A1 *143:8 7.84239e-05
48 *1538:A1 *1537:A2 2.06035e-05
49 *1538:A1 *143:8 1.07354e-05
50 *1538:A1 *143:28 2.55518e-05
51 *128:28 *1537:A2 1.0415e-05
*RES
1 *1420:ZN *143:8 11.07 
2 *143:8 *143:10 4.5 
3 *143:10 *1537:A2 5.85 
4 *143:10 *1538:A2 4.5 
5 *143:8 *143:28 1.17 
6 *143:28 *1434:A1 9 
7 *143:28 *143:37 3.69 
8 *143:37 *143:39 4.5 
9 *143:39 *1462:B1 10.26 
10 *143:39 *1483:A1 4.5 
11 *143:39 *1471:B1 6.84 
12 *143:37 *1432:A1 9.99 
*END

*D_NET *144 0.00374409
*CONN
*I *1431:A1 I *D gf180mcu_fd_sc_mcu7t5v0__nor2_1
*I *1587:A3 I *D gf180mcu_fd_sc_mcu7t5v0__nand4_1
*I *1484:A1 I *D gf180mcu_fd_sc_mcu7t5v0__nand2_1
*I *1421:ZN O *D gf180mcu_fd_sc_mcu7t5v0__clkinv_1
*CAP
1 *1431:A1 0.000211006
2 *1587:A3 3.811e-05
3 *1484:A1 0
4 *1421:ZN 0.000284392
5 *144:27 0.000393279
6 *144:14 0.000428556
7 *1431:A1 *1431:A2 2.8136e-05
8 *1431:A1 *1486:A1 0.000417707
9 *1431:A1 *1911:I 0
10 *1431:A1 *154:16 0.000276849
11 *1587:A3 *1431:A2 1.31271e-05
12 *1587:A3 *154:16 4.57861e-05
13 *144:14 *1485:A2 1.71254e-05
14 *144:14 *1586:A1 0.000150744
15 *144:14 *1588:B2 2.89427e-06
16 *144:14 *556:34 0
17 *144:14 *556:60 0
18 *144:14 *585:8 9.84908e-05
19 *144:14 *585:14 9.39061e-05
20 *144:14 *585:34 0.000434734
21 *144:14 *585:45 6.51736e-05
22 *144:27 *1485:A2 2.05328e-05
23 *144:27 *1486:A1 2.2902e-05
24 *144:27 *1586:A1 8.49143e-05
25 *144:27 *1587:A2 0.000174497
26 *144:27 *1588:B2 0.000245037
27 *144:27 *1911:I 0
28 *144:27 *492:133 4.34199e-06
29 *144:27 *585:45 2.63343e-05
30 *1552:A1 *144:14 9.98816e-05
31 *1586:A2 *144:27 3.04847e-05
32 *129:12 *1431:A1 2.1573e-06
33 *142:97 *144:27 3.29954e-05
*RES
1 *1421:ZN *144:14 16.47 
2 *144:14 *1484:A1 4.5 
3 *144:14 *144:27 10.8 
4 *144:27 *1587:A3 4.77 
5 *144:27 *1431:A1 6.84 
*END

*D_NET *145 0.00159325
*CONN
*I *1464:A1 I *D gf180mcu_fd_sc_mcu7t5v0__nor2_1
*I *1422:ZN O *D gf180mcu_fd_sc_mcu7t5v0__clkinv_1
*CAP
1 *1464:A1 0.000221221
2 *1422:ZN 0.000221221
3 *1464:A1 *1422:I 8.49208e-05
4 *1464:A1 *1465:A3 0.000416248
5 *1464:A1 *1566:A2 0
6 *1464:A1 *149:12 3.73774e-06
7 *1464:A1 *250:14 0.000643006
8 *1464:A1 *251:8 2.89427e-06
*RES
1 *1422:ZN *1464:A1 11.61 
*END

*D_NET *146 0.00713041
*CONN
*I *1461:A2 I *D gf180mcu_fd_sc_mcu7t5v0__nand4_1
*I *1460:A1 I *D gf180mcu_fd_sc_mcu7t5v0__and4_1
*I *1553:A1 I *D gf180mcu_fd_sc_mcu7t5v0__nor2_1
*I *1557:A1 I *D gf180mcu_fd_sc_mcu7t5v0__aoi211_1
*I *1430:A3 I *D gf180mcu_fd_sc_mcu7t5v0__nand4_1
*I *1423:ZN O *D gf180mcu_fd_sc_mcu7t5v0__clkinv_1
*CAP
1 *1461:A2 0
2 *1460:A1 0.00021179
3 *1553:A1 0.000191365
4 *1557:A1 1.2905e-05
5 *1430:A3 0.000239885
6 *1423:ZN 0.000106964
7 *146:45 0.000713827
8 *146:36 0.000856937
9 *146:23 0.000270308
10 *146:8 0.000440718
11 *1430:A3 *448:21 0.000289598
12 *1430:A3 *449:40 0.000230529
13 *1460:A1 *149:16 0.000118197
14 *1460:A1 *149:18 0.000497347
15 *1460:A1 *149:20 0.000290134
16 *1460:A1 *450:63 0.000131374
17 *1460:A1 *450:65 1.91893e-05
18 *1553:A1 *1557:B 5.23357e-05
19 *1553:A1 *1566:A3 5.06104e-06
20 *1553:A1 *246:10 2.24298e-05
21 *1553:A1 *492:164 9.14077e-06
22 *1557:A1 *1547:A2 9.79925e-05
23 *1557:A1 *253:10 3.92279e-05
24 *146:8 *1423:I 1.61174e-05
25 *146:8 *448:21 0.000136101
26 *146:8 *449:40 0.000394976
27 *146:23 *1543:A3 0.000104575
28 *146:23 *492:52 6.70549e-05
29 *146:36 *1543:A3 8.97548e-05
30 *146:36 *1557:B 0.00052864
31 *146:36 *247:8 0.00028429
32 *146:36 *492:52 0.000123239
33 *146:45 *1460:A4 1.73106e-05
34 *146:45 *1461:A3 0.000114135
35 *146:45 *1474:A4 0
36 *146:45 *1557:B 5.78854e-06
37 *146:45 *1557:C 0
38 *146:45 *175:30 0.000169515
39 *146:45 *246:10 0.000231655
*RES
1 *1423:ZN *146:8 5.94 
2 *146:8 *1430:A3 7.11 
3 *146:8 *146:23 5.31 
4 *146:23 *1557:A1 9.27 
5 *146:23 *146:36 7.11 
6 *146:36 *1553:A1 5.67 
7 *146:36 *146:45 3.69 
8 *146:45 *1460:A1 15.93 
9 *146:45 *1461:A2 4.5 
*END

*D_NET *147 0.000358579
*CONN
*I *1523:B2 I *D gf180mcu_fd_sc_mcu7t5v0__aoi22_1
*I *1424:ZN O *D gf180mcu_fd_sc_mcu7t5v0__clkinv_1
*CAP
1 *1523:B2 2.77765e-05
2 *1424:ZN 2.77765e-05
3 *1523:B2 *1424:I 4.79378e-05
4 *1523:B2 *1442:A2 0.000255088
*RES
1 *1424:ZN *1523:B2 18.63 
*END

*D_NET *148 0.000717398
*CONN
*I *1497:B1 I *D gf180mcu_fd_sc_mcu7t5v0__aoi22_1
*I *1425:ZN O *D gf180mcu_fd_sc_mcu7t5v0__clkinv_1
*CAP
1 *1497:B1 0.000115262
2 *1425:ZN 0.000115262
3 *1497:B1 *208:22 7.77106e-05
4 *1497:B1 *361:47 0.000115427
5 *1497:B1 *487:156 0.000293736
*RES
1 *1425:ZN *1497:B1 19.71 
*END

*D_NET *149 0.0129316
*CONN
*I *1465:A1 I *D gf180mcu_fd_sc_mcu7t5v0__nand3_1
*I *1461:A1 I *D gf180mcu_fd_sc_mcu7t5v0__nand4_1
*I *1462:A1 I *D gf180mcu_fd_sc_mcu7t5v0__aoi22_1
*I *1474:A3 I *D gf180mcu_fd_sc_mcu7t5v0__and4_1
*I *1430:A2 I *D gf180mcu_fd_sc_mcu7t5v0__nand4_1
*I *1475:A3 I *D gf180mcu_fd_sc_mcu7t5v0__nand4_1
*I *1429:ZN O *D gf180mcu_fd_sc_mcu7t5v0__nor4_1
*CAP
1 *1465:A1 0
2 *1461:A1 0
3 *1462:A1 0.000151601
4 *1474:A3 0.000179012
5 *1430:A2 0.000165091
6 *1475:A3 0.000253812
7 *1429:ZN 0.000421962
8 *149:57 0.000151601
9 *149:20 0.000567144
10 *149:18 0.000361786
11 *149:16 0.000144479
12 *149:12 0.000531908
13 *1430:A2 *1430:A4 3.38463e-05
14 *1430:A2 *1546:A1 4.6613e-06
15 *1430:A2 *1547:A1 8.5878e-05
16 *1430:A2 *1893:I 2.75448e-05
17 *1430:A2 *150:8 0.000174029
18 *1430:A2 *473:94 1.77471e-05
19 *1462:A1 *1460:A3 0
20 *1462:A1 *1462:A2 0.000222828
21 *1462:A1 *175:30 3.99169e-05
22 *1474:A3 *1460:A2 0.000250191
23 *1474:A3 *1460:A3 3.01487e-05
24 *1474:A3 *1460:A4 8.47108e-05
25 *1474:A3 *1474:A4 2.30981e-05
26 *1474:A3 *248:18 0.000204385
27 *1475:A3 *1475:A2 3.63444e-05
28 *1475:A3 *1475:A4 0.000903105
29 *1475:A3 *1546:A3 0.000101615
30 *1475:A3 *1893:I 0
31 *1475:A3 *447:62 1.27647e-05
32 *1475:A3 *473:94 0.00089507
33 *149:12 *1465:A3 4.99408e-05
34 *149:12 *1566:A2 4.6807e-05
35 *149:12 *1567:A1 0.000458327
36 *149:12 *1567:A2 0.000403531
37 *149:12 *1567:A3 3.44094e-05
38 *149:12 *1774:A1 4.83237e-05
39 *149:12 *1776:A2 0.000306921
40 *149:12 *251:23 0
41 *149:12 *448:84 4.25101e-05
42 *149:12 *450:59 0.000262305
43 *149:12 *450:61 0.000706192
44 *149:12 *452:12 0.000174506
45 *149:12 *492:33 0.000333447
46 *149:16 *1567:A3 0.000583544
47 *149:16 *179:8 0.000933245
48 *149:16 *447:126 1.52092e-05
49 *149:16 *450:61 1.20708e-05
50 *149:16 *450:63 1.66633e-05
51 *149:18 *179:8 0.000528649
52 *149:20 *1475:A2 2.26987e-05
53 *149:20 *1546:A3 0.000706899
54 *149:20 *179:8 0.000127778
55 *149:20 *450:65 4.05146e-05
56 *1460:A1 *149:16 0.000118197
57 *1460:A1 *149:18 0.000497347
58 *1460:A1 *149:20 0.000290134
59 *1462:B1 *1462:A1 4.6613e-06
60 *1464:A1 *149:12 3.73774e-06
61 *1842:D *149:12 8.67164e-05
*RES
1 *1429:ZN *149:12 20.16 
2 *149:12 *149:16 7.11 
3 *149:16 *149:18 1.35 
4 *149:18 *149:20 2.25 
5 *149:20 *1475:A3 12.6 
6 *149:20 *1430:A2 10.8 
7 *149:18 *1474:A3 11.07 
8 *149:16 *149:57 4.5 
9 *149:57 *1462:A1 5.58 
10 *149:57 *1461:A1 4.5 
11 *149:12 *1465:A1 4.5 
*END

*D_NET *150 0.0225851
*CONN
*I *1471:A1 I *D gf180mcu_fd_sc_mcu7t5v0__aoi22_1
*I *1470:A1 I *D gf180mcu_fd_sc_mcu7t5v0__nand2_1
*I *1438:A1 I *D gf180mcu_fd_sc_mcu7t5v0__nor4_1
*I *1440:A1 I *D gf180mcu_fd_sc_mcu7t5v0__nor4_1
*I *1439:A1 I *D gf180mcu_fd_sc_mcu7t5v0__or4_1
*I *1441:A1 I *D gf180mcu_fd_sc_mcu7t5v0__or4_1
*I *1539:A1 I *D gf180mcu_fd_sc_mcu7t5v0__nand3_1
*I *1542:A1 I *D gf180mcu_fd_sc_mcu7t5v0__nand4_1
*I *1546:A4 I *D gf180mcu_fd_sc_mcu7t5v0__nand4_1
*I *1430:ZN O *D gf180mcu_fd_sc_mcu7t5v0__nand4_1
*CAP
1 *1471:A1 9.3762e-05
2 *1470:A1 0.000431374
3 *1438:A1 0
4 *1440:A1 0
5 *1439:A1 8.26538e-05
6 *1441:A1 0
7 *1539:A1 2.94878e-05
8 *1542:A1 2.95062e-05
9 *1546:A4 0
10 *1430:ZN 0.00011022
11 *150:90 0.000478151
12 *150:79 0.000116073
13 *150:63 0.000249132
14 *150:61 0.00124465
15 *150:42 0.00128255
16 *150:36 0.00068005
17 *150:19 0.00074617
18 *150:8 0.000484786
19 *1470:A1 *1438:A4 2.36954e-05
20 *1470:A1 *1469:C 2.08301e-05
21 *1470:A1 *1634:A1 0
22 *1470:A1 *1863:CLK 1.43368e-05
23 *1470:A1 *1934:I 7.63913e-05
24 *1470:A1 *152:52 4.45729e-05
25 *1470:A1 *154:65 0.000148363
26 *1470:A1 *157:77 0.000240532
27 *1470:A1 *175:40 0.000887016
28 *1470:A1 *176:20 7.69936e-06
29 *1470:A1 *179:77 3.55118e-05
30 *1470:A1 *179:104 0.000405522
31 *1470:A1 *558:27 0.000193103
32 *1470:A1 *582:22 8.15565e-05
33 *1471:A1 *1486:A1 6.72821e-05
34 *1471:A1 *1494:A2 8.49143e-05
35 *1471:A1 *1587:A2 0.000270982
36 *1471:A1 *175:30 3.84635e-06
37 *1539:A1 *154:16 1.61174e-05
38 *1542:A1 *1893:I 1.36825e-05
39 *1542:A1 *179:31 9.04462e-05
40 *150:8 *1475:A2 0.000135955
41 *150:8 *473:94 1.91951e-05
42 *150:19 *1475:A1 0.000291865
43 *150:19 *1475:A2 0.00089507
44 *150:19 *1542:A3 0
45 *150:19 *1546:A1 1.69023e-06
46 *150:19 *1546:A2 3.31358e-05
47 *150:19 *189:10 1.0415e-05
48 *150:19 *243:8 0
49 *150:19 *244:10 0.000791931
50 *150:19 *473:94 5.30751e-05
51 *150:36 *1462:B2 9.06729e-06
52 *150:36 *1471:B2 0.000416248
53 *150:36 *1485:B 0.000161479
54 *150:36 *1486:A2 3.33082e-05
55 *150:36 *1494:A2 1.06822e-05
56 *150:36 *1542:A3 2.15254e-05
57 *150:36 *1542:A4 0.000894532
58 *150:36 *157:73 0.000485258
59 *150:36 *175:30 0
60 *150:36 *179:31 0.00113716
61 *150:36 *244:10 0.000123345
62 *150:42 *1486:A1 0.000143601
63 *150:42 *1587:A2 0.000686324
64 *150:42 *154:16 0.000744421
65 *150:42 *179:41 0.000153353
66 *150:42 *179:50 0.000139375
67 *150:61 *1407:I 4.76605e-05
68 *150:61 *1467:A1 2.37143e-05
69 *150:61 *1467:A2 0.000304765
70 *150:61 *179:50 0.0019047
71 *150:61 *447:76 0.000695875
72 *150:63 *1439:A2 4.68143e-05
73 *150:63 *1439:A3 1.68677e-06
74 *150:63 *1440:A4 5.58082e-06
75 *150:63 *1441:A2 0.000416312
76 *150:63 *1441:A3 3.38463e-05
77 *150:79 *1439:A3 1.86887e-06
78 *150:79 *447:76 8.65898e-05
79 *150:90 *1439:A3 5.60661e-06
80 *150:90 *154:65 0.000199701
81 *150:90 *154:69 0.000320271
82 *150:90 *157:77 0.00016583
83 *150:90 *157:81 0.000385445
84 *1430:A2 *150:8 0.000174029
85 *1462:B1 *150:36 2.76521e-06
86 *1469:A2 *1470:A1 0.000761048
87 *1471:B1 *150:36 3.03894e-05
88 *1585:A1 *150:61 0.000132382
89 *1587:A4 *150:42 0.000278763
90 *1588:A1 *150:61 1.35011e-05
91 *1883:D *150:61 0.000102561
92 *129:12 *150:42 0
93 *129:12 *150:61 0
94 *142:114 *150:42 0.000266418
*RES
1 *1430:ZN *150:8 5.94 
2 *150:8 *1546:A4 4.5 
3 *150:8 *150:19 9.36 
4 *150:19 *1542:A1 9.27 
5 *150:19 *150:36 14.76 
6 *150:36 *150:42 8.82 
7 *150:42 *1539:A1 4.77 
8 *150:42 *150:61 10.44 
9 *150:61 *150:63 1.89 
10 *150:63 *1441:A1 4.5 
11 *150:63 *1439:A1 5.13 
12 *150:61 *150:79 0.72 
13 *150:79 *1440:A1 4.5 
14 *150:79 *150:90 6.12 
15 *150:90 *1438:A1 9 
16 *150:90 *1470:A1 15.66 
17 *150:36 *1471:A1 10.08 
*END

*D_NET *151 0.00315399
*CONN
*I *1486:A1 I *D gf180mcu_fd_sc_mcu7t5v0__oai211_1
*I *1431:ZN O *D gf180mcu_fd_sc_mcu7t5v0__nor2_1
*CAP
1 *1486:A1 0.000500084
2 *1431:ZN 0.000500084
3 *1486:A1 *1431:A2 8.22041e-06
4 *1486:A1 *1494:A2 0.000510317
5 *1486:A1 *1587:A2 0.000127677
6 *1486:A1 *1911:I 0.000357824
7 *1486:A1 *200:12 1.17934e-05
8 *1431:A1 *1486:A1 0.000417707
9 *1471:A1 *1486:A1 6.72821e-05
10 *142:97 *1486:A1 0.00035461
11 *142:114 *1486:A1 0.000131886
12 *144:27 *1486:A1 2.2902e-05
13 *150:42 *1486:A1 0.000143601
*RES
1 *1431:ZN *1486:A1 23.94 
*END

*D_NET *152 0.0178838
*CONN
*I *1540:B I *D gf180mcu_fd_sc_mcu7t5v0__aoi211_1
*I *1466:A1 I *D gf180mcu_fd_sc_mcu7t5v0__nand3_1
*I *1503:A2 I *D gf180mcu_fd_sc_mcu7t5v0__and4_1
*I *1519:A1 I *D gf180mcu_fd_sc_mcu7t5v0__nand3_1
*I *1498:A2 I *D gf180mcu_fd_sc_mcu7t5v0__and4_1
*I *1468:A1 I *D gf180mcu_fd_sc_mcu7t5v0__nand3_1
*I *1472:A1 I *D gf180mcu_fd_sc_mcu7t5v0__nand2_1
*I *1485:A1 I *D gf180mcu_fd_sc_mcu7t5v0__aoi21_1
*I *1432:ZN O *D gf180mcu_fd_sc_mcu7t5v0__nand2_1
*CAP
1 *1540:B 9.49815e-05
2 *1466:A1 0
3 *1503:A2 6.70451e-05
4 *1519:A1 0.000313017
5 *1498:A2 0
6 *1468:A1 0
7 *1472:A1 7.14226e-05
8 *1485:A1 0.000311001
9 *1432:ZN 0
10 *152:84 0.000416761
11 *152:77 0.000279612
12 *152:69 0.000699872
13 *152:52 0.000889619
14 *152:31 0.00166944
15 *152:8 0.00153433
16 *152:4 0.000152958
17 *1472:A1 *1472:A2 0.000111994
18 *1472:A1 *175:30 0
19 *1485:A1 *1471:A2 6.83142e-05
20 *1485:A1 *1492:A1 2.29722e-05
21 *1485:A1 *1587:A2 1.86097e-05
22 *1485:A1 *157:50 0.000826131
23 *1485:A1 *179:31 0.000227025
24 *1485:A1 *179:41 1.3026e-05
25 *1485:A1 *189:14 5.61812e-05
26 *1503:A2 *1503:A3 0.00022651
27 *1519:A1 *1518:A1 0.000569076
28 *1519:A1 *1519:A2 0.000768119
29 *1519:A1 *1523:A2 2.65444e-06
30 *1519:A1 *1633:A2 1.53768e-06
31 *1519:A1 *1899:I 0
32 *1519:A1 *159:12 1.27919e-05
33 *1519:A1 *175:55 7.54425e-05
34 *1519:A1 *179:117 0.000297533
35 *1519:A1 *434:40 2.26729e-05
36 *1540:B *1486:A2 0.000244955
37 *1540:B *157:50 1.59383e-05
38 *1540:B *175:30 0.000500167
39 *1540:B *246:10 0.000303527
40 *152:8 *1486:A2 6.87124e-05
41 *152:8 *175:30 9.88612e-05
42 *152:31 *1476:A1 0
43 *152:31 *1476:A2 0
44 *152:31 *1486:A2 0
45 *152:31 *1488:A1 0
46 *152:31 *1488:A2 2.37143e-05
47 *152:31 *1492:A1 0.000105027
48 *152:31 *1492:A2 0
49 *152:31 *1522:A2 6.2979e-05
50 *152:31 *1587:A2 3.09496e-05
51 *152:31 *156:8 7.8888e-05
52 *152:31 *157:50 0.000270991
53 *152:31 *190:16 0.000354728
54 *152:31 *195:14 0
55 *152:31 *208:22 9.23528e-05
56 *152:31 *471:82 1.1941e-06
57 *152:52 *1472:A2 0.000718635
58 *152:52 *176:20 0.000155552
59 *152:52 *179:77 7.55765e-06
60 *152:52 *208:22 1.52852e-05
61 *152:52 *361:47 0.000103592
62 *152:52 *471:15 7.74517e-05
63 *152:52 *487:156 0.000774454
64 *152:52 *582:22 0.000831097
65 *152:69 *1438:A4 0
66 *152:69 *1634:A1 4.58556e-05
67 *152:69 *1934:I 0.000161479
68 *152:69 *157:73 0
69 *152:69 *175:40 0.000826412
70 *152:69 *175:51 3.55118e-05
71 *152:69 *176:37 0.00018172
72 *152:77 *1439:A4 0.000177559
73 *152:77 *1503:A3 3.55118e-05
74 *152:77 *1633:A2 2.04445e-05
75 *152:77 *159:12 0.00013423
76 *152:77 *179:110 0.000446199
77 *152:77 *558:27 0.000282357
78 *152:84 *1503:A3 0.00023506
79 *1470:A1 *152:52 4.45729e-05
80 *1486:B *152:31 2.14848e-05
81 *1486:C *152:31 5.46176e-05
82 *1498:A1 *152:77 1.61174e-05
83 *1498:A1 *152:84 5.5916e-05
84 *140:41 *152:31 2.95601e-05
85 *141:26 *152:31 0.000321927
*RES
1 *1432:ZN *152:4 4.5 
2 *152:4 *152:8 5.13 
3 *152:8 *1485:A1 12.24 
4 *152:8 *152:31 14.31 
5 *152:31 *1472:A1 5.4 
6 *152:31 *152:52 19.53 
7 *152:52 *1468:A1 9 
8 *152:52 *152:69 9.18 
9 *152:69 *152:77 12.42 
10 *152:77 *1498:A2 4.5 
11 *152:77 *152:84 0.63 
12 *152:84 *1519:A1 17.55 
13 *152:84 *1503:A2 5.13 
14 *152:69 *1466:A1 4.5 
15 *152:4 *1540:B 6.48 
*END

*D_NET *153 0.00367872
*CONN
*I *1540:C I *D gf180mcu_fd_sc_mcu7t5v0__aoi211_1
*I *1434:A2 I *D gf180mcu_fd_sc_mcu7t5v0__nand3_1
*I *1433:ZN O *D gf180mcu_fd_sc_mcu7t5v0__nand2_1
*CAP
1 *1540:C 0.000246977
2 *1434:A2 0.000149272
3 *1433:ZN 0.000119918
4 *153:8 0.000516167
5 *1434:A2 *244:10 4.15093e-05
6 *1434:A2 *447:76 0
7 *1434:A2 *556:66 2.86227e-05
8 *1540:C *1542:A4 0.000274929
9 *1540:C *243:8 0.000710908
10 *1540:C *556:66 0.000228111
11 *153:8 *1537:A4 0.000375166
12 *153:8 *243:8 0.000119878
13 *153:8 *565:38 0.000174497
14 *1433:A1 *153:8 0.000237101
15 *1538:A1 *153:8 0.000351582
16 *143:28 *153:8 4.71078e-05
17 *143:37 *1540:C 3.53326e-05
18 *143:37 *153:8 2.16372e-05
*RES
1 *1433:ZN *153:8 11.61 
2 *153:8 *1434:A2 9.99 
3 *153:8 *1540:C 13.41 
*END

*D_NET *154 0.0137651
*CONN
*I *1435:I I *D gf180mcu_fd_sc_mcu7t5v0__clkinv_1
*I *1439:A2 I *D gf180mcu_fd_sc_mcu7t5v0__or4_1
*I *1441:A2 I *D gf180mcu_fd_sc_mcu7t5v0__or4_1
*I *1440:A2 I *D gf180mcu_fd_sc_mcu7t5v0__nor4_1
*I *1438:A2 I *D gf180mcu_fd_sc_mcu7t5v0__nor4_1
*I *1477:A1 I *D gf180mcu_fd_sc_mcu7t5v0__oai21_1
*I *1590:A1 I *D gf180mcu_fd_sc_mcu7t5v0__oai33_1
*I *1434:ZN O *D gf180mcu_fd_sc_mcu7t5v0__nand3_1
*CAP
1 *1435:I 3.44897e-05
2 *1439:A2 0.000106738
3 *1441:A2 0.000106374
4 *1440:A2 0
5 *1438:A2 0
6 *1477:A1 0
7 *1590:A1 0.000420781
8 *1434:ZN 0.000420386
9 *154:69 0.000129434
10 *154:65 0.000250886
11 *154:54 0.00114577
12 *154:44 0.00138755
13 *154:35 0.00059537
14 *154:16 0.00110815
15 *1439:A2 *1439:A3 0.000487336
16 *1441:A2 *1441:A3 0.000203423
17 *1590:A1 *1590:A2 0.000130887
18 *1590:A1 *1590:A3 0.0001078
19 *1590:A1 *1590:B1 3.12451e-05
20 *1590:A1 *245:10 0.000289812
21 *1590:A1 *282:8 2.08933e-05
22 *154:16 *1431:A2 5.79792e-06
23 *154:16 *1586:A1 0
24 *154:16 *447:76 4.88176e-05
25 *154:35 *1477:A2 0.000260436
26 *154:35 *1494:A1 0.000109323
27 *154:35 *282:8 2.39362e-05
28 *154:44 *1406:I 2.16166e-05
29 *154:44 *1913:I 8.35196e-05
30 *154:44 *157:73 0
31 *154:44 *175:30 0.00021843
32 *154:54 *1439:A4 1.56436e-05
33 *154:54 *1913:I 3.01487e-05
34 *154:54 *157:73 0.000973422
35 *154:54 *175:30 0.000341547
36 *154:54 *447:76 0
37 *154:54 *471:15 0.000132049
38 *154:65 *1439:A4 0.000150744
39 *154:65 *158:12 0.000164228
40 *154:65 *558:27 3.21222e-05
41 *154:69 *157:81 5.53074e-05
42 *154:69 *158:12 0.000448049
43 *1431:A1 *154:16 0.000276849
44 *1470:A1 *154:65 0.000148363
45 *1477:B *154:44 3.55118e-05
46 *1539:A1 *154:16 1.61174e-05
47 *1587:A3 *154:16 4.57861e-05
48 *1587:A4 *154:16 7.75544e-05
49 *1588:A1 *1590:A1 7.61404e-05
50 *129:12 *1590:A1 0.00051709
51 *129:12 *154:35 0.000656894
52 *142:114 *154:35 9.48268e-05
53 *150:42 *154:16 0.000744421
54 *150:63 *1439:A2 4.68143e-05
55 *150:63 *1441:A2 0.000416312
56 *150:90 *154:65 0.000199701
57 *150:90 *154:69 0.000320271
*RES
1 *1434:ZN *154:16 13.41 
2 *154:16 *1590:A1 13.32 
3 *154:16 *154:35 7.47 
4 *154:35 *1477:A1 4.5 
5 *154:35 *154:44 2.88 
6 *154:44 *154:54 8.73 
7 *154:54 *1438:A2 4.5 
8 *154:54 *154:65 5.94 
9 *154:65 *154:69 5.67 
10 *154:69 *1440:A2 4.5 
11 *154:69 *1441:A2 6.12 
12 *154:65 *1439:A2 10.35 
13 *154:44 *1435:I 4.77 
*END

*D_NET *155 0.000518041
*CONN
*I *1476:A1 I *D gf180mcu_fd_sc_mcu7t5v0__aoi21_1
*I *1435:ZN O *D gf180mcu_fd_sc_mcu7t5v0__clkinv_1
*CAP
1 *1476:A1 0.000196874
2 *1435:ZN 0.000196874
3 *1476:A1 *1476:A2 1.07374e-05
4 *1476:A1 *1883:CLK 6.30049e-05
5 *1476:A1 *175:30 1.51153e-05
6 *1476:A1 *190:16 3.54345e-05
7 *1476:A1 *282:8 0
8 *152:31 *1476:A1 0
*RES
1 *1435:ZN *1476:A1 19.53 
*END

*D_NET *156 0.00607099
*CONN
*I *1482:A2 I *D gf180mcu_fd_sc_mcu7t5v0__oai211_1
*I *1488:B I *D gf180mcu_fd_sc_mcu7t5v0__aoi21_1
*I *1587:A2 I *D gf180mcu_fd_sc_mcu7t5v0__nand4_1
*I *1436:ZN O *D gf180mcu_fd_sc_mcu7t5v0__nor2_1
*CAP
1 *1482:A2 6.45666e-05
2 *1488:B 5.14254e-05
3 *1587:A2 0.000781471
4 *1436:ZN 0.000412368
5 *156:23 0.000208503
6 *156:8 0.00128635
7 *1482:A2 *1480:A2 8.9944e-05
8 *1482:A2 *1536:A3 8.49143e-05
9 *1482:A2 *193:10 2.36954e-05
10 *1482:A2 *193:27 8.49143e-05
11 *1482:A2 *195:14 0.000260704
12 *1488:B *1488:A1 0.000153256
13 *1488:B *195:14 2.36914e-05
14 *1488:B *205:22 7.91275e-05
15 *1587:A2 *1471:A2 0.000197029
16 *1587:A2 *1485:A2 0.00010781
17 *1587:A2 *179:41 0.000185696
18 *1587:A2 *200:12 2.9077e-05
19 *1587:A2 *471:82 0.000107376
20 *156:8 *1480:A2 5.89474e-05
21 *156:8 *1488:A1 5.20027e-05
22 *156:8 *205:8 0
23 *156:23 *1480:A2 1.18477e-05
24 *156:23 *1488:A1 8.68398e-06
25 *156:23 *195:14 0.00015651
26 *156:23 *200:12 1.63535e-05
27 *156:23 *471:82 5.33919e-05
28 *1471:A1 *1587:A2 0.000270982
29 *1480:A1 *156:8 2.40587e-06
30 *1485:A1 *1587:A2 1.86097e-05
31 *1486:A1 *1587:A2 0.000127677
32 *141:26 *156:8 9.09976e-05
33 *144:27 *1587:A2 0.000174497
34 *150:42 *1587:A2 0.000686324
35 *152:31 *1587:A2 3.09496e-05
36 *152:31 *156:8 7.8888e-05
*RES
1 *1436:ZN *156:8 11.97 
2 *156:8 *1587:A2 16.65 
3 *156:8 *156:23 0.99 
4 *156:23 *1488:B 9.63 
5 *156:23 *1482:A2 10.08 
*END

*D_NET *157 0.0272852
*CONN
*I *1535:A1 I *D gf180mcu_fd_sc_mcu7t5v0__nand2_1
*I *1489:A1 I *D gf180mcu_fd_sc_mcu7t5v0__nand2_1
*I *1534:A1 I *D gf180mcu_fd_sc_mcu7t5v0__and2_1
*I *1545:A1 I *D gf180mcu_fd_sc_mcu7t5v0__aoi21_1
*I *1438:A3 I *D gf180mcu_fd_sc_mcu7t5v0__nor4_1
*I *1439:A3 I *D gf180mcu_fd_sc_mcu7t5v0__or4_1
*I *1441:A3 I *D gf180mcu_fd_sc_mcu7t5v0__or4_1
*I *1440:A3 I *D gf180mcu_fd_sc_mcu7t5v0__nor4_1
*I *1485:B I *D gf180mcu_fd_sc_mcu7t5v0__aoi21_1
*I *1540:A1 I *D gf180mcu_fd_sc_mcu7t5v0__aoi211_1
*I *1578:A1 I *D gf180mcu_fd_sc_mcu7t5v0__nand3_1
*I *1437:ZN O *D gf180mcu_fd_sc_mcu7t5v0__nand2_1
*CAP
1 *1535:A1 0.000122891
2 *1489:A1 0.000235875
3 *1534:A1 0.000121843
4 *1545:A1 0.000111703
5 *1438:A3 0
6 *1439:A3 0.000200689
7 *1441:A3 0.000148088
8 *1440:A3 0
9 *1485:B 1.00589e-05
10 *1540:A1 0
11 *1578:A1 9.77582e-05
12 *1437:ZN 0.000301939
13 *157:81 0.000189804
14 *157:77 0.000311094
15 *157:73 0.00191181
16 *157:50 0.00220674
17 *157:37 0.000373277
18 *157:33 0.000276557
19 *157:31 0.000562922
20 *157:27 0.000647527
21 *157:23 0.000238599
22 *157:10 0.000399697
23 *1439:A3 *1439:A4 0.000132811
24 *1441:A3 *1440:A4 3.55118e-05
25 *1441:A3 *1441:A4 0.00013423
26 *1441:A3 *160:12 0.000158798
27 *1441:A3 *161:8 1.61174e-05
28 *1441:A3 *558:6 0
29 *1485:B *179:31 0.000169524
30 *1489:A1 *1493:A2 7.191e-07
31 *1489:A1 *1536:A1 3.88286e-05
32 *1489:A1 *1883:CLK 0
33 *1489:A1 *195:14 6.87524e-05
34 *1489:A1 *204:12 3.06746e-05
35 *1534:A1 *1534:A2 0.000364412
36 *1534:A1 *1579:B1 6.85018e-05
37 *1534:A1 *1883:CLK 3.97987e-05
38 *1534:A1 *504:33 0
39 *1535:A1 *1574:A2 7.381e-05
40 *1535:A1 *1578:A2 0.000233245
41 *1535:A1 *1898:I 5.5983e-05
42 *1535:A1 *193:97 1.61174e-05
43 *1535:A1 *241:8 0.000227032
44 *1535:A1 *241:14 0.000255131
45 *1545:A1 *1545:B 8.16641e-05
46 *1545:A1 *206:8 0.000557073
47 *1545:A1 *246:10 0
48 *1578:A1 *1579:A3 0.000201749
49 *1578:A1 *1883:CLK 5.32499e-05
50 *1578:A1 *559:67 0.000424712
51 *157:10 *1574:A2 2.61464e-05
52 *157:10 *1591:A1 0.000208277
53 *157:10 *1591:A2 4.5501e-05
54 *157:10 *1883:CLK 0.00125698
55 *157:10 *193:115 6.16286e-05
56 *157:10 *559:67 0.00137687
57 *157:27 *1898:I 4.19981e-05
58 *157:27 *241:14 0.000773576
59 *157:27 *471:82 0.000142501
60 *157:31 *1536:A1 2.46572e-06
61 *157:31 *1883:CLK 0
62 *157:31 *204:12 5.04823e-05
63 *157:31 *242:12 4.1068e-05
64 *157:33 *1534:A2 0.00135564
65 *157:33 *1540:A2 0.000118018
66 *157:33 *1542:A4 0.000933828
67 *157:33 *241:14 0
68 *157:33 *242:12 4.84186e-05
69 *157:33 *504:33 0
70 *157:37 *1540:A2 0.000454468
71 *157:37 *1542:A4 0.000592533
72 *157:37 *243:8 4.71736e-05
73 *157:50 *1486:A2 0.000143632
74 *157:50 *1492:A1 0.000233928
75 *157:50 *1492:A2 0
76 *157:50 *206:8 0
77 *157:50 *246:10 3.97987e-05
78 *157:50 *556:96 0.000455757
79 *157:73 *1406:I 2.36813e-05
80 *157:73 *1438:A4 8.49208e-05
81 *157:73 *1477:A2 3.54696e-05
82 *157:73 *1494:A2 1.32106e-05
83 *157:73 *1634:A1 0
84 *157:73 *1913:I 6.54075e-05
85 *157:73 *1934:I 0
86 *157:73 *175:30 0.000106536
87 *157:73 *176:37 0
88 *157:73 *179:31 0.000320493
89 *157:73 *189:14 0.000188451
90 *157:73 *447:76 0.000437503
91 *157:73 *471:15 5.26231e-05
92 *157:73 *557:32 0.000164416
93 *157:77 *1438:A4 0.000215927
94 *157:77 *447:89 0.000193494
95 *157:81 *1440:A4 0.000363851
96 *157:81 *158:12 3.88059e-05
97 *157:81 *447:89 0.000308353
98 *1439:A2 *1439:A3 0.000487336
99 *1441:A2 *1441:A3 0.000203423
100 *1470:A1 *157:77 0.000240532
101 *1485:A1 *157:50 0.000826131
102 *1540:B *157:50 1.59383e-05
103 *150:36 *1485:B 0.000161479
104 *150:36 *157:73 0.000485258
105 *150:63 *1439:A3 1.68677e-06
106 *150:63 *1441:A3 3.38463e-05
107 *150:79 *1439:A3 1.86887e-06
108 *150:90 *1439:A3 5.60661e-06
109 *150:90 *157:77 0.00016583
110 *150:90 *157:81 0.000385445
111 *152:31 *157:50 0.000270991
112 *152:69 *157:73 0
113 *154:44 *157:73 0
114 *154:54 *157:73 0.000973422
115 *154:69 *157:81 5.53074e-05
*RES
1 *1437:ZN *157:10 10.53 
2 *157:10 *1578:A1 6.03 
3 *157:10 *157:23 4.5 
4 *157:23 *157:27 6.57 
5 *157:27 *157:31 6.39 
6 *157:31 *157:33 3.87 
7 *157:33 *157:37 6.03 
8 *157:37 *1540:A1 4.5 
9 *157:37 *157:50 13.5 
10 *157:50 *1485:B 4.95 
11 *157:50 *157:73 24.12 
12 *157:73 *157:77 5.67 
13 *157:77 *157:81 6.21 
14 *157:81 *1440:A3 4.5 
15 *157:81 *1441:A3 6.48 
16 *157:77 *1439:A3 10.98 
17 *157:73 *1438:A3 4.5 
18 *157:33 *1545:A1 10.53 
19 *157:31 *1534:A1 10.62 
20 *157:27 *1489:A1 6.03 
21 *157:23 *1535:A1 10.89 
*END

*D_NET *158 0.016036
*CONN
*I *1456:A2 I *D gf180mcu_fd_sc_mcu7t5v0__nand2_1
*I *1450:A2 I *D gf180mcu_fd_sc_mcu7t5v0__nand2_1
*I *1445:A2 I *D gf180mcu_fd_sc_mcu7t5v0__nand2_1
*I *1804:A2 I *D gf180mcu_fd_sc_mcu7t5v0__nand2_1
*I *1438:ZN O *D gf180mcu_fd_sc_mcu7t5v0__nor4_1
*CAP
1 *1456:A2 0.000324702
2 *1450:A2 0.000526488
3 *1445:A2 0.000114006
4 *1804:A2 0
5 *1438:ZN 0.000345331
6 *158:42 0.000870991
7 *158:29 0.00115907
8 *158:12 0.0013706
9 *1445:A2 *1455:A1 0.000161838
10 *1445:A2 *458:22 1.4382e-06
11 *1445:A2 *462:19 2.3312e-06
12 *1445:A2 *462:21 1.23e-05
13 *1445:A2 *492:343 6.68757e-05
14 *1445:A2 *560:16 0.000525635
15 *1450:A2 *1446:A2 0.000673448
16 *1450:A2 *1793:A2 5.11456e-05
17 *1450:A2 *1797:A1 0
18 *1450:A2 *1858:CLK 7.718e-05
19 *1450:A2 *460:8 0.000108527
20 *1456:A2 *1455:A1 0.000219114
21 *1456:A2 *1457:A2 0.000381064
22 *1456:A2 *1796:B2 6.68757e-05
23 *1456:A2 *1797:A2 6.68757e-05
24 *1456:A2 *462:19 2.93809e-06
25 *1456:A2 *560:16 0.00182527
26 *158:12 *1440:A4 5.60242e-06
27 *158:12 *1441:A4 2.38358e-05
28 *158:12 *1804:A1 0.000768119
29 *158:12 *160:12 0.000517072
30 *158:12 *161:8 0
31 *158:12 *558:6 0.000164036
32 *158:12 *558:27 0.00053963
33 *158:29 *1447:A1 0.000876715
34 *158:29 *1793:A2 0.00149829
35 *158:29 *1804:A1 7.10237e-05
36 *158:29 *1858:CLK 0.000718444
37 *158:29 *160:40 5.78854e-06
38 *158:29 *160:49 0.000380895
39 *158:29 *161:8 0
40 *158:42 *1455:A1 0.000288831
41 *158:42 *560:16 0.000262851
42 *1858:D *1450:A2 0.000203623
43 *142:74 *158:29 0.00010614
44 *154:65 *158:12 0.000164228
45 *154:69 *158:12 0.000448049
46 *157:81 *158:12 3.88059e-05
*RES
1 *1438:ZN *158:12 19.26 
2 *158:12 *1804:A2 4.5 
3 *158:12 *158:29 16.11 
4 *158:29 *1445:A2 10.62 
5 *158:29 *158:42 0.81 
6 *158:42 *1450:A2 14.13 
7 *158:42 *1456:A2 14.4 
*END

*D_NET *159 0.00419189
*CONN
*I *1453:A1 I *D gf180mcu_fd_sc_mcu7t5v0__nor2_1
*I *1442:A1 I *D gf180mcu_fd_sc_mcu7t5v0__oai21_1
*I *1439:Z O *D gf180mcu_fd_sc_mcu7t5v0__or4_1
*CAP
1 *1453:A1 0.000281321
2 *1442:A1 0
3 *1439:Z 0.000467248
4 *159:12 0.000748568
5 *1453:A1 *1442:A2 1.0415e-05
6 *1453:A1 *1453:A2 2.18454e-05
7 *1453:A1 *1518:A2 0.000605868
8 *1453:A1 *434:40 0
9 *1453:A1 *434:47 0
10 *1453:A1 *478:99 1.56862e-05
11 *1453:A1 *562:81 4.34467e-06
12 *159:12 *1424:I 0.000233586
13 *159:12 *1442:A2 0.000141794
14 *159:12 *1503:A3 0.000427038
15 *159:12 *1518:A1 0.000177202
16 *159:12 *1518:A2 0.000382352
17 *159:12 *1519:A3 0.000134003
18 *159:12 *1520:B2 1.32722e-05
19 *159:12 *179:110 0.000141794
20 *159:12 *179:117 0.000195859
21 *159:12 *434:40 0
22 *1503:A1 *159:12 4.26703e-05
23 *1519:A1 *159:12 1.27919e-05
24 *152:77 *159:12 0.00013423
*RES
1 *1439:Z *159:12 11.16 
2 *159:12 *1442:A1 4.5 
3 *159:12 *1453:A1 7.29 
*END

*D_NET *160 0.00976281
*CONN
*I *1452:A2 I *D gf180mcu_fd_sc_mcu7t5v0__oai21_1
*I *1448:A2 I *D gf180mcu_fd_sc_mcu7t5v0__aoi21_1
*I *1447:A2 I *D gf180mcu_fd_sc_mcu7t5v0__oai21_1
*I *1805:A2 I *D gf180mcu_fd_sc_mcu7t5v0__oai211_1
*I *1803:A2 I *D gf180mcu_fd_sc_mcu7t5v0__aoi21_1
*I *1802:A2 I *D gf180mcu_fd_sc_mcu7t5v0__oai21_1
*I *1440:ZN O *D gf180mcu_fd_sc_mcu7t5v0__nor4_1
*CAP
1 *1452:A2 0.000538455
2 *1448:A2 0.000203507
3 *1447:A2 0
4 *1805:A2 3.33002e-05
5 *1803:A2 0.000269934
6 *1802:A2 6.20681e-05
7 *1440:ZN 0.000182087
8 *160:49 0.00151493
9 *160:40 0.00112427
10 *160:14 0.000574902
11 *160:12 0.000742986
12 *1448:A2 *1448:B 0.000247379
13 *1452:A2 *1447:A1 0.000351196
14 *1452:A2 *461:25 0.00105005
15 *1452:A2 *478:77 3.45237e-05
16 *1802:A2 *1467:A1 0
17 *1802:A2 *1802:A1 1.0415e-05
18 *1803:A2 *1634:A1 0.000140263
19 *1803:A2 *1803:B 0.000180463
20 *1803:A2 *361:71 7.96333e-06
21 *1803:A2 *557:10 2.10158e-05
22 *1805:A2 *1398:I 0
23 *160:12 *1398:I 4.03554e-05
24 *160:12 *1440:A4 6.2083e-06
25 *160:12 *1441:A4 0.000158798
26 *160:12 *1634:A1 0
27 *160:12 *558:27 9.01083e-06
28 *160:14 *1440:A4 0
29 *160:14 *1802:A1 8.69576e-05
30 *160:14 *558:6 3.97987e-05
31 *160:40 *1398:I 0.00017161
32 *160:40 *1804:A1 0.000278159
33 *160:40 *558:6 9.77802e-05
34 *160:49 *1447:A1 1.0415e-05
35 *1441:A3 *160:12 0.000158798
36 *1448:A1 *160:49 0.000126901
37 *1552:A1 *1802:A2 2.0324e-05
38 *1552:A1 *1803:A2 1.27836e-05
39 *1552:A1 *160:14 0.000206069
40 *1552:A1 *160:40 6.19151e-05
41 *1678:A1 *160:40 0
42 *1678:A1 *160:49 0
43 *1805:C *160:40 9.89629e-06
44 *1811:D *160:40 1.95119e-05
45 *1811:D *160:49 9.41715e-06
46 *1855:D *1803:A2 4.6613e-06
47 *1856:D *160:40 1.0415e-05
48 *1856:D *160:49 2.95687e-05
49 *1859:D *1452:A2 0
50 *132:35 *1448:A2 0
51 *158:12 *160:12 0.000517072
52 *158:29 *160:40 5.78854e-06
53 *158:29 *160:49 0.000380895
*RES
1 *1440:ZN *160:12 15.84 
2 *160:12 *160:14 2.25 
3 *160:14 *1802:A2 4.95 
4 *160:14 *1803:A2 15.66 
5 *160:12 *160:40 3.33 
6 *160:40 *1805:A2 4.77 
7 *160:40 *160:49 6.03 
8 *160:49 *1447:A2 4.5 
9 *160:49 *1448:A2 15.21 
10 *160:49 *1452:A2 18.54 
*END

*D_NET *161 0.00711005
*CONN
*I *1449:A1 I *D gf180mcu_fd_sc_mcu7t5v0__nand2_1
*I *1455:A1 I *D gf180mcu_fd_sc_mcu7t5v0__nand2_1
*I *1444:A1 I *D gf180mcu_fd_sc_mcu7t5v0__nand2_1
*I *1443:A2 I *D gf180mcu_fd_sc_mcu7t5v0__aoi21_1
*I *1441:Z O *D gf180mcu_fd_sc_mcu7t5v0__or4_1
*CAP
1 *1449:A1 0.00012383
2 *1455:A1 0.000195358
3 *1444:A1 0
4 *1443:A2 0
5 *1441:Z 0.00112744
6 *161:32 0.000336448
7 *161:25 0.000658768
8 *161:8 0.00176895
9 *1455:A1 *1451:A2 0
10 *1455:A1 *1457:A2 0.000196197
11 *1455:A1 *462:19 1.97308e-05
12 *161:8 *1441:A4 4.83522e-05
13 *161:8 *1857:CLK 1.0415e-05
14 *161:8 *561:12 5.94224e-05
15 *161:25 *1449:A2 8.68281e-06
16 *161:25 *1454:A1 2.8525e-05
17 *161:25 *1857:CLK 0.000168648
18 *161:25 *459:10 0.000457975
19 *161:25 *478:77 0.000507492
20 *161:32 *1451:A2 0
21 *1441:A3 *161:8 1.61174e-05
22 *1443:A1 *161:8 5.78854e-06
23 *1443:A1 *161:25 4.6613e-06
24 *1445:A2 *1455:A1 0.000161838
25 *1452:B *161:25 0
26 *1456:A2 *1455:A1 0.000219114
27 *1503:A1 *161:8 0
28 *1861:D *161:25 8.37156e-05
29 *142:68 *161:25 1.32397e-05
30 *142:74 *161:8 7.47548e-06
31 *142:199 *1449:A1 5.97457e-06
32 *142:199 *1455:A1 0.000168918
33 *142:199 *161:25 0.000347114
34 *142:199 *161:32 7.10237e-05
35 *158:12 *161:8 0
36 *158:29 *161:8 0
37 *158:42 *1455:A1 0.000288831
*RES
1 *1441:Z *161:8 11.7 
2 *161:8 *1443:A2 4.5 
3 *161:8 *161:25 6.48 
4 *161:25 *1444:A1 4.5 
5 *161:25 *161:32 0.27 
6 *161:32 *1455:A1 15.84 
7 *161:32 *1449:A1 5.49 
*END

*D_NET *162 0.000936806
*CONN
*I *1443:B I *D gf180mcu_fd_sc_mcu7t5v0__aoi21_1
*I *1442:ZN O *D gf180mcu_fd_sc_mcu7t5v0__oai21_1
*CAP
1 *1443:B 0.000110976
2 *1442:ZN 0.000110976
3 *1443:B *1793:A2 0.000317431
4 *1443:B *488:127 5.34652e-05
5 *1503:A1 *1443:B 0.000320262
6 *142:170 *1443:B 2.36954e-05
*RES
1 *1442:ZN *1443:B 19.89 
*END

*D_NET *163 0.00152858
*CONN
*I *1446:A2 I *D gf180mcu_fd_sc_mcu7t5v0__nand3_1
*I *1444:ZN O *D gf180mcu_fd_sc_mcu7t5v0__nand2_1
*CAP
1 *1446:A2 0.000127224
2 *1444:ZN 0.000127224
3 *1446:A2 *460:8 2.22704e-05
4 *1450:A2 *1446:A2 0.000673448
5 *1858:D *1446:A2 0.000106536
6 *142:199 *1446:A2 0.000471873
*RES
1 *1444:ZN *1446:A2 11.25 
*END

*D_NET *164 0.00131993
*CONN
*I *1446:A3 I *D gf180mcu_fd_sc_mcu7t5v0__nand3_1
*I *1445:ZN O *D gf180mcu_fd_sc_mcu7t5v0__nand2_1
*CAP
1 *1446:A3 0.000326697
2 *1445:ZN 0.000326697
3 *1446:A3 *1637:A2 0
4 *1446:A3 *1656:B2 1.61174e-05
5 *1446:A3 *462:19 9.94441e-06
6 *1446:A3 *462:21 4.91131e-05
7 *1446:A3 *492:331 0.000382884
8 *1446:A3 *492:343 8.33579e-05
9 *1850:D *1446:A3 0.00012512
*RES
1 *1445:ZN *1446:A3 20.7 
*END

*D_NET *165 0.000394466
*CONN
*I *1448:B I *D gf180mcu_fd_sc_mcu7t5v0__aoi21_1
*I *1447:ZN O *D gf180mcu_fd_sc_mcu7t5v0__oai21_1
*CAP
1 *1448:B 6.15525e-05
2 *1447:ZN 6.15525e-05
3 *1448:A2 *1448:B 0.000247379
4 *132:35 *1448:B 2.39814e-05
*RES
1 *1447:ZN *1448:B 18.81 
*END

*D_NET *166 0.00124499
*CONN
*I *1451:A2 I *D gf180mcu_fd_sc_mcu7t5v0__nand3_1
*I *1449:ZN O *D gf180mcu_fd_sc_mcu7t5v0__nand2_1
*CAP
1 *1451:A2 0.000566635
2 *1449:ZN 0.000566635
3 *1451:A2 *1451:A3 3.01487e-05
4 *1451:A2 *458:10 7.46964e-06
5 *1451:A1 *1451:A2 2.89427e-06
6 *1455:A1 *1451:A2 0
7 *1860:D *1451:A2 7.12056e-05
8 *142:199 *1451:A2 0
9 *161:32 *1451:A2 0
*RES
1 *1449:ZN *1451:A2 12.6 
*END

*D_NET *167 0.00184902
*CONN
*I *1451:A3 I *D gf180mcu_fd_sc_mcu7t5v0__nand3_1
*I *1450:ZN O *D gf180mcu_fd_sc_mcu7t5v0__nand2_1
*CAP
1 *1451:A3 0.000377354
2 *1450:ZN 0.000377354
3 *1451:A3 *1450:A1 0.000204527
4 *1451:A3 *1797:A1 0.000286386
5 *1451:A3 *1801:A2 3.59866e-05
6 *1451:A3 *492:317 1.3026e-05
7 *1451:A3 *492:325 0.000428433
8 *1451:A1 *1451:A3 3.73774e-06
9 *1451:A2 *1451:A3 3.01487e-05
10 *1852:D *1451:A3 9.20679e-05
*RES
1 *1450:ZN *1451:A3 21.96 
*END

*D_NET *168 0.000308561
*CONN
*I *1454:A1 I *D gf180mcu_fd_sc_mcu7t5v0__nor2_1
*I *1452:ZN O *D gf180mcu_fd_sc_mcu7t5v0__oai21_1
*CAP
1 *1454:A1 0.000133686
2 *1452:ZN 0.000133686
3 *1452:B *1454:A1 1.26644e-05
4 *1861:D *1454:A1 0
5 *161:25 *1454:A1 2.8525e-05
*RES
1 *1452:ZN *1454:A1 9.9 
*END

*D_NET *169 0.000571642
*CONN
*I *1454:A2 I *D gf180mcu_fd_sc_mcu7t5v0__nor2_1
*I *1453:ZN O *D gf180mcu_fd_sc_mcu7t5v0__nor2_1
*CAP
1 *1454:A2 0.000156083
2 *1453:ZN 0.000156083
3 *1454:A2 *1793:A2 0
4 *1454:A2 *478:77 0.000259475
*RES
1 *1453:ZN *1454:A2 19.53 
*END

*D_NET *170 0.00376204
*CONN
*I *1457:A2 I *D gf180mcu_fd_sc_mcu7t5v0__nand3_1
*I *1455:ZN O *D gf180mcu_fd_sc_mcu7t5v0__nand2_1
*CAP
1 *1457:A2 0.000688683
2 *1455:ZN 0.000688683
3 *1457:A2 *1457:A3 7.89158e-05
4 *1457:A2 *1797:A2 0.000814597
5 *1457:A2 *462:19 0.000588188
6 *1457:A2 *564:52 2.32439e-05
7 *1455:A1 *1457:A2 0.000196197
8 *1456:A2 *1457:A2 0.000381064
9 *1862:D *1457:A2 0.000302466
*RES
1 *1455:ZN *1457:A2 25.74 
*END

*D_NET *171 0.00150928
*CONN
*I *1457:A3 I *D gf180mcu_fd_sc_mcu7t5v0__nand3_1
*I *1456:ZN O *D gf180mcu_fd_sc_mcu7t5v0__nand2_1
*CAP
1 *1457:A3 0.000144652
2 *1456:ZN 0.000144652
3 *1457:A3 *1450:A1 0.000297533
4 *1457:A3 *1456:A1 3.22122e-05
5 *1457:A3 *1800:B 6.44696e-05
6 *1457:A3 *564:52 0.000681882
7 *1457:A2 *1457:A3 7.89158e-05
8 *1862:D *1457:A3 6.49579e-05
*RES
1 *1456:ZN *1457:A3 11.52 
*END

*D_NET *172 0.00949762
*CONN
*I *1461:A4 I *D gf180mcu_fd_sc_mcu7t5v0__nand4_1
*I *1567:A3 I *D gf180mcu_fd_sc_mcu7t5v0__nand4_1
*I *1550:A1 I *D gf180mcu_fd_sc_mcu7t5v0__or2_1
*I *1458:Z O *D gf180mcu_fd_sc_mcu7t5v0__and2_1
*CAP
1 *1461:A4 0
2 *1567:A3 0.000397214
3 *1550:A1 7.22523e-05
4 *1458:Z 0.000119128
5 *172:25 0.000629624
6 *172:10 0.000423791
7 *1550:A1 *1458:A2 0.000208995
8 *1550:A1 *1551:A1 3.01487e-05
9 *1550:A1 *447:51 3.71077e-05
10 *1567:A3 *1465:A2 0.000370027
11 *1567:A3 *1567:A4 0.000625125
12 *1567:A3 *251:23 1.50951e-05
13 *1567:A3 *447:126 2.32539e-05
14 *1567:A3 *450:59 4.13999e-05
15 *1567:A3 *450:61 0.000205807
16 *172:10 *1458:A2 1.98195e-05
17 *172:10 *1550:A2 0.00015651
18 *172:10 *1893:I 6.63171e-05
19 *172:25 *1474:A4 0.00144546
20 *172:25 *1550:A2 0.000327233
21 *172:25 *1557:C 0.00103184
22 *172:25 *1893:I 6.02114e-05
23 *172:25 *246:10 0.000684218
24 *172:25 *448:23 0.000203791
25 *172:25 *448:29 0.000363869
26 *172:25 *448:71 0.00100835
27 *172:25 *448:84 0.000287702
28 *1549:B2 *172:10 2.53811e-05
29 *149:12 *1567:A3 3.44094e-05
30 *149:16 *1567:A3 0.000583544
*RES
1 *1458:Z *172:10 10.08 
2 *172:10 *1550:A1 9.63 
3 *172:10 *172:25 13.14 
4 *172:25 *1567:A3 18.27 
5 *172:25 *1461:A4 4.5 
*END

*D_NET *173 0.00175505
*CONN
*I *1553:A2 I *D gf180mcu_fd_sc_mcu7t5v0__nor2_1
*I *1554:A2 I *D gf180mcu_fd_sc_mcu7t5v0__xor2_1
*I *1459:ZN O *D gf180mcu_fd_sc_mcu7t5v0__nand2_1
*CAP
1 *1553:A2 0.000236019
2 *1554:A2 0.000362481
3 *1459:ZN 0.000126462
4 *1553:A2 *1554:A1 0.000108516
5 *1553:A2 *1555:A4 0.00076373
6 *1553:A2 *250:30 4.82122e-05
7 *1553:A2 *449:10 6.15707e-05
8 *1553:A2 *449:27 4.8063e-05
9 *1873:D *1554:A2 0
*RES
1 *1459:ZN *1554:A2 9.99 
2 *1554:A2 *1553:A2 21.06 
*END

*D_NET *174 0.000857473
*CONN
*I *1462:A2 I *D gf180mcu_fd_sc_mcu7t5v0__aoi22_1
*I *1460:Z O *D gf180mcu_fd_sc_mcu7t5v0__and4_1
*CAP
1 *1462:A2 8.65743e-05
2 *1460:Z 8.65743e-05
3 *1462:A2 *1460:A3 2.84401e-06
4 *1462:A2 *175:30 0.000137914
5 *1462:A2 *179:8 0.000164228
6 *1462:A2 *447:126 0.00015651
7 *1462:A1 *1462:A2 0.000222828
*RES
1 *1460:Z *1462:A2 19.17 
*END

*D_NET *175 0.015886
*CONN
*I *1468:A2 I *D gf180mcu_fd_sc_mcu7t5v0__nand3_1
*I *1519:A2 I *D gf180mcu_fd_sc_mcu7t5v0__nand3_1
*I *1503:A3 I *D gf180mcu_fd_sc_mcu7t5v0__and4_1
*I *1498:A3 I *D gf180mcu_fd_sc_mcu7t5v0__and4_1
*I *1466:A2 I *D gf180mcu_fd_sc_mcu7t5v0__nand3_1
*I *1461:ZN O *D gf180mcu_fd_sc_mcu7t5v0__nand4_1
*CAP
1 *1468:A2 0
2 *1519:A2 0.000159286
3 *1503:A3 3.06469e-05
4 *1498:A3 0
5 *1466:A2 0
6 *1461:ZN 0.00223601
7 *175:55 0.000138576
8 *175:51 0.000478954
9 *175:40 0.000550762
10 *175:30 0.00257503
11 *1519:A2 *1506:A2 0.000231442
12 *1519:A2 *1523:A2 6.11769e-05
13 *1519:A2 *179:110 1.0415e-05
14 *1519:A2 *179:117 8.35851e-05
15 *1519:A2 *180:10 2.02713e-05
16 *175:30 *1406:I 4.32532e-05
17 *175:30 *1460:A4 2.37143e-05
18 *175:30 *1469:B1 5.06031e-06
19 *175:30 *1469:B2 2.34463e-05
20 *175:30 *1472:A2 0
21 *175:30 *1476:A2 0.000106536
22 *175:30 *1486:A2 0.000521289
23 *175:30 *1494:A2 0.000497649
24 *175:30 *176:20 5.01763e-06
25 *175:30 *208:22 0.000136809
26 *175:30 *246:10 0.000395165
27 *175:30 *556:83 6.03838e-05
28 *175:30 *556:96 0.00011983
29 *175:30 *581:16 0.000174623
30 *175:30 *582:14 0.000204414
31 *175:40 *1469:C 0.000605294
32 *175:40 *1634:A1 8.38345e-06
33 *175:40 *1782:B2 5.59795e-06
34 *175:40 *1863:CLK 7.71021e-06
35 *175:40 *176:37 1.9781e-05
36 *175:40 *179:104 1.18477e-05
37 *175:40 *478:14 0.000150348
38 *175:40 *557:32 1.36965e-05
39 *175:51 *1501:A2 0.000146212
40 *175:51 *1506:A2 0.000146212
41 *175:51 *1633:A2 9.05643e-06
42 *175:51 *179:110 0
43 *175:51 *180:10 0.000345225
44 *175:51 *478:14 6.30205e-05
45 *175:55 *1633:A2 8.82579e-05
46 *1462:A1 *175:30 3.99169e-05
47 *1462:A2 *175:30 0.000137914
48 *1462:B1 *175:30 0.000161578
49 *1470:A1 *175:40 0.000887016
50 *1471:A1 *175:30 3.84635e-06
51 *1471:B1 *175:30 1.63382e-05
52 *1472:A1 *175:30 0
53 *1476:A1 *175:30 1.51153e-05
54 *1477:B *175:30 3.98088e-05
55 *1486:B *175:30 5.78854e-06
56 *1503:A2 *1503:A3 0.00022651
57 *1519:A1 *1519:A2 0.000768119
58 *1519:A1 *175:55 7.54425e-05
59 *1540:B *175:30 0.000500167
60 *146:45 *175:30 0.000169515
61 *150:36 *175:30 0
62 *152:8 *175:30 9.88612e-05
63 *152:69 *175:40 0.000826412
64 *152:69 *175:51 3.55118e-05
65 *152:77 *1503:A3 3.55118e-05
66 *152:84 *1503:A3 0.00023506
67 *154:44 *175:30 0.00021843
68 *154:54 *175:30 0.000341547
69 *157:73 *175:30 0.000106536
70 *159:12 *1503:A3 0.000427038
*RES
1 *1461:ZN *175:30 25.11 
2 *175:30 *175:40 14.49 
3 *175:40 *1466:A2 4.5 
4 *175:40 *175:51 7.2 
5 *175:51 *175:55 5.49 
6 *175:55 *1498:A3 4.5 
7 *175:55 *1503:A3 5.67 
8 *175:51 *1519:A2 11.61 
9 *175:30 *1468:A2 4.5 
*END

*D_NET *176 0.0297713
*CONN
*I *1514:A2 I *D gf180mcu_fd_sc_mcu7t5v0__oai22_1
*I *1525:A2 I *D gf180mcu_fd_sc_mcu7t5v0__oai22_1
*I *1520:B1 I *D gf180mcu_fd_sc_mcu7t5v0__oai221_1
*I *1499:A2 I *D gf180mcu_fd_sc_mcu7t5v0__oai22_1
*I *1509:A2 I *D gf180mcu_fd_sc_mcu7t5v0__oai22_1
*I *1504:A2 I *D gf180mcu_fd_sc_mcu7t5v0__oai22_1
*I *1530:A2 I *D gf180mcu_fd_sc_mcu7t5v0__oai22_1
*I *1469:B1 I *D gf180mcu_fd_sc_mcu7t5v0__oai221_1
*I *1462:ZN O *D gf180mcu_fd_sc_mcu7t5v0__aoi22_1
*CAP
1 *1514:A2 0.000635243
2 *1525:A2 0
3 *1520:B1 0.000142612
4 *1499:A2 0
5 *1509:A2 0
6 *1504:A2 0.000288801
7 *1530:A2 0.000320088
8 *1469:B1 2.41907e-05
9 *1462:ZN 0.00190903
10 *176:110 0.00154745
11 *176:87 0.00145278
12 *176:80 0.000717751
13 *176:47 0.000726836
14 *176:43 0.000821468
15 *176:37 0.00146178
16 *176:20 0.00237169
17 *1504:A2 *564:16 0.000169814
18 *1514:A2 *1511:A1 0.000157766
19 *1514:A2 *1517:I1 0
20 *1514:A2 *1528:I1 0
21 *1514:A2 *560:10 3.34893e-05
22 *1514:A2 *560:16 0.000370266
23 *1514:A2 *563:60 0.000927295
24 *1520:B1 *1516:B 9.90362e-06
25 *1520:B1 *1520:A1 0.00023968
26 *1520:B1 *434:40 6.91924e-05
27 *1520:B1 *492:296 0.000315369
28 *1520:B1 *582:43 1.39839e-05
29 *1520:B1 *582:56 0.000843781
30 *1530:A2 *1512:I0 1.22927e-05
31 *1530:A2 *1532:A2 0.00015547
32 *1530:A2 *1675:S 0.00115701
33 *1530:A2 *1782:B2 0.000114046
34 *1530:A2 *1790:B2 4.97116e-05
35 *1530:A2 *559:67 4.88543e-05
36 *176:20 *1469:B2 5.82191e-05
37 *176:20 *1469:C 9.04462e-05
38 *176:20 *1476:A2 0.0043111
39 *176:20 *179:104 0.000118966
40 *176:20 *361:47 3.24083e-05
41 *176:20 *471:15 0
42 *176:20 *581:16 9.04462e-05
43 *176:37 *1469:C 2.08301e-05
44 *176:37 *1634:A1 0.0016649
45 *176:37 *1782:B2 0
46 *176:37 *1783:A2 0.000428239
47 *176:37 *179:104 0
48 *176:43 *1425:I 0
49 *176:43 *1497:A1 1.18477e-05
50 *176:43 *1511:A2 0.000307423
51 *176:43 *1511:B 8.59796e-05
52 *176:43 *1512:I0 3.42509e-05
53 *176:43 *1523:A1 0.0001657
54 *176:43 *1675:S 3.48995e-05
55 *176:43 *361:47 0.000502684
56 *176:43 *487:156 6.73398e-05
57 *176:43 *492:247 0.000169908
58 *176:43 *520:16 0
59 *176:43 *582:120 0.000202951
60 *176:47 *1560:A4 4.29917e-05
61 *176:47 *564:16 5.01519e-05
62 *176:80 *1499:A1 3.99899e-05
63 *176:80 *1523:A1 0.000135897
64 *176:80 *1631:I2 0.00015997
65 *176:80 *1632:S0 3.49085e-05
66 *176:80 *487:156 9.34436e-06
67 *176:87 *1499:A1 1.0415e-05
68 *176:87 *1499:B2 7.19259e-05
69 *176:87 *1523:A1 9.85983e-05
70 *176:87 *1632:S0 1.38253e-05
71 *176:110 *1424:I 0.000219997
72 *176:110 *1499:B2 8.68281e-06
73 *176:110 *1511:A1 1.06861e-05
74 *176:110 *1517:I0 2.32595e-05
75 *176:110 *1517:S 0.000410077
76 *176:110 *1523:A1 5.47553e-05
77 *176:110 *1527:A1 0.000304769
78 *176:110 *1527:A2 9.15116e-05
79 *176:110 *1632:I2 0.000494104
80 *176:110 *1792:A1 0.000163746
81 *176:110 *582:85 0.000104904
82 *1470:A1 *176:20 7.69936e-06
83 *1514:B1 *1514:A2 3.94926e-05
84 *1812:D *1514:A2 0
85 *1813:D *1514:A2 0.000444839
86 *1845:D *176:37 2.54542e-05
87 *1864:D *176:87 0.000196332
88 *1866:D *1530:A2 0.000111961
89 *1869:D *1514:A2 0.000417538
90 *1869:D *176:110 0.000100117
91 *131:44 *176:20 0
92 *152:52 *176:20 0.000155552
93 *152:69 *176:37 0.00018172
94 *157:73 *176:37 0
95 *175:30 *1469:B1 5.06031e-06
96 *175:30 *176:20 5.01763e-06
97 *175:40 *176:37 1.9781e-05
*RES
1 *1462:ZN *176:20 39.6 
2 *176:20 *1469:B1 4.77 
3 *176:20 *176:37 14.49 
4 *176:37 *176:43 11.88 
5 *176:43 *176:47 5.31 
6 *176:47 *1530:A2 17.46 
7 *176:47 *1504:A2 15.39 
8 *176:43 *1509:A2 9 
9 *176:37 *176:80 2.61 
10 *176:80 *1499:A2 4.5 
11 *176:80 *176:87 2.61 
12 *176:87 *1520:B1 16.74 
13 *176:87 *176:110 17.01 
14 *176:110 *1525:A2 4.5 
15 *176:110 *1514:A2 21.24 
*END

*D_NET *177 0.00152968
*CONN
*I *1567:A4 I *D gf180mcu_fd_sc_mcu7t5v0__nand4_1
*I *1465:A2 I *D gf180mcu_fd_sc_mcu7t5v0__nand3_1
*I *1463:Z O *D gf180mcu_fd_sc_mcu7t5v0__and2_1
*CAP
1 *1567:A4 7.70323e-05
2 *1465:A2 6.29132e-05
3 *1463:Z 0
4 *177:6 0.000139945
5 *1465:A2 *447:126 7.41762e-05
6 *1465:A2 *447:159 3.32208e-05
7 *1567:A4 *251:23 0.000107817
8 *1567:A4 *447:159 3.94192e-05
9 *1567:A3 *1465:A2 0.000370027
10 *1567:A3 *1567:A4 0.000625125
*RES
1 *1463:Z *177:6 9 
2 *177:6 *1465:A2 9.99 
3 *177:6 *1567:A4 10.71 
*END

*D_NET *178 0.000672389
*CONN
*I *1465:A3 I *D gf180mcu_fd_sc_mcu7t5v0__nand3_1
*I *1464:ZN O *D gf180mcu_fd_sc_mcu7t5v0__nor2_1
*CAP
1 *1465:A3 0.0001031
2 *1464:ZN 0.0001031
3 *1465:A3 *1566:A2 0
4 *1464:A1 *1465:A3 0.000416248
5 *149:12 *1465:A3 4.99408e-05
*RES
1 *1464:ZN *1465:A3 10.17 
*END

*D_NET *179 0.0263002
*CONN
*I *1542:A2 I *D gf180mcu_fd_sc_mcu7t5v0__nand4_1
*I *1471:A2 I *D gf180mcu_fd_sc_mcu7t5v0__aoi22_1
*I *1466:A3 I *D gf180mcu_fd_sc_mcu7t5v0__nand3_1
*I *1518:A1 I *D gf180mcu_fd_sc_mcu7t5v0__nand2_1
*I *1503:A4 I *D gf180mcu_fd_sc_mcu7t5v0__and4_1
*I *1498:A4 I *D gf180mcu_fd_sc_mcu7t5v0__and4_1
*I *1470:A2 I *D gf180mcu_fd_sc_mcu7t5v0__nand2_1
*I *1467:A1 I *D gf180mcu_fd_sc_mcu7t5v0__nand2_1
*I *1539:A2 I *D gf180mcu_fd_sc_mcu7t5v0__nand3_1
*I *1546:A3 I *D gf180mcu_fd_sc_mcu7t5v0__nand4_1
*I *1465:ZN O *D gf180mcu_fd_sc_mcu7t5v0__nand3_1
*CAP
1 *1542:A2 0
2 *1471:A2 0.000156341
3 *1466:A3 0
4 *1518:A1 0.000189304
5 *1503:A4 0
6 *1498:A4 0
7 *1470:A2 0
8 *1467:A1 0.000607396
9 *1539:A2 0
10 *1546:A3 9.67239e-05
11 *1465:ZN 0.000140889
12 *179:117 0.000249877
13 *179:110 0.00037674
14 *179:104 0.00119377
15 *179:77 0.00140155
16 *179:50 0.00133465
17 *179:41 0.000455795
18 *179:31 0.000900236
19 *179:21 0.000592361
20 *179:8 0.000338569
21 *1467:A1 *1634:A1 1.17821e-05
22 *1467:A1 *1802:A1 8.91593e-05
23 *1467:A1 *1883:CLK 0.000295169
24 *1467:A1 *361:47 0.000193613
25 *1467:A1 *557:32 7.27728e-05
26 *1518:A1 *1424:I 6.98034e-05
27 *1518:A1 *1519:A3 3.97987e-05
28 *1518:A1 *1896:I 2.26729e-06
29 *1518:A1 *1899:I 4.41083e-05
30 *1518:A1 *488:127 0
31 *1546:A3 *1475:A1 0.000251578
32 *1546:A3 *1546:A1 4.09629e-05
33 *179:8 *1546:A1 1.24166e-05
34 *179:8 *447:126 0.00057773
35 *179:21 *1460:A3 0.000154519
36 *179:21 *1462:B2 0.000129067
37 *179:21 *1893:I 1.77525e-05
38 *179:21 *248:18 0.000681999
39 *179:21 *447:115 0.000192174
40 *179:31 *1462:B2 1.10145e-05
41 *179:31 *1893:I 7.15696e-05
42 *179:31 *189:14 0.000137579
43 *179:31 *447:76 7.23266e-06
44 *179:41 *1485:A2 3.55431e-05
45 *179:41 *1492:A1 0
46 *179:41 *1586:A1 7.5874e-06
47 *179:41 *447:76 0.000869178
48 *179:50 *447:76 0.000811404
49 *179:77 *1472:A2 3.03273e-05
50 *179:77 *1883:CLK 0
51 *179:77 *361:47 0.000674974
52 *179:77 *581:16 8.5536e-05
53 *179:77 *582:14 1.53768e-06
54 *179:104 *1497:A2 3.98088e-05
55 *179:104 *1502:S 0
56 *179:104 *1507:I0 6.97607e-05
57 *179:104 *1782:B2 0.000258379
58 *179:104 *1783:A2 1.4382e-06
59 *179:104 *1787:A2 0.000152365
60 *179:104 *1863:CLK 0.000333663
61 *179:104 *208:31 0
62 *179:104 *478:14 1.79237e-05
63 *179:104 *492:277 0.000257005
64 *179:104 *492:296 3.01487e-05
65 *179:104 *558:27 4.45552e-05
66 *179:104 *581:16 7.69936e-06
67 *179:104 *582:22 5.97457e-06
68 *179:104 *582:43 0.000239685
69 *179:110 *1633:A2 0.000109817
70 *179:110 *558:27 6.10887e-05
71 *1462:A2 *179:8 0.000164228
72 *1470:A1 *179:77 3.55118e-05
73 *1470:A1 *179:104 0.000405522
74 *1475:A3 *1546:A3 0.000101615
75 *1485:A1 *1471:A2 6.83142e-05
76 *1485:A1 *179:31 0.000227025
77 *1485:A1 *179:41 1.3026e-05
78 *1485:B *179:31 0.000169524
79 *1519:A1 *1518:A1 0.000569076
80 *1519:A1 *179:117 0.000297533
81 *1519:A2 *179:110 1.0415e-05
82 *1519:A2 *179:117 8.35851e-05
83 *1520:A2 *179:104 1.44365e-05
84 *1520:A2 *179:110 8.43025e-06
85 *1542:A1 *179:31 9.04462e-05
86 *1587:A2 *1471:A2 0.000197029
87 *1587:A2 *179:41 0.000185696
88 *1587:A4 *179:41 0.000476546
89 *1802:A2 *1467:A1 0
90 *1845:D *179:104 1.33014e-05
91 *1847:D *179:104 1.18477e-05
92 *1863:D *179:104 2.31089e-05
93 *1864:D *179:104 0.000126399
94 *1883:D *1467:A1 0.000224146
95 *1884:D *1467:A1 0
96 *1884:D *179:50 9.84908e-05
97 *141:84 *179:104 3.70094e-05
98 *142:114 *179:41 0.000289482
99 *149:16 *179:8 0.000933245
100 *149:18 *179:8 0.000528649
101 *149:20 *1546:A3 0.000706899
102 *149:20 *179:8 0.000127778
103 *150:36 *179:31 0.00113716
104 *150:42 *179:41 0.000153353
105 *150:42 *179:50 0.000139375
106 *150:61 *1467:A1 2.37143e-05
107 *150:61 *179:50 0.0019047
108 *152:52 *179:77 7.55765e-06
109 *152:77 *179:110 0.000446199
110 *157:73 *179:31 0.000320493
111 *159:12 *1518:A1 0.000177202
112 *159:12 *179:110 0.000141794
113 *159:12 *179:117 0.000195859
114 *175:40 *179:104 1.18477e-05
115 *175:51 *179:110 0
116 *176:20 *179:104 0.000118966
117 *176:37 *179:104 0
*RES
1 *1465:ZN *179:8 13.05 
2 *179:8 *1546:A3 11.07 
3 *179:8 *179:21 6.75 
4 *179:21 *179:31 10.26 
5 *179:31 *179:41 8.64 
6 *179:41 *1539:A2 4.5 
7 *179:41 *179:50 9.99 
8 *179:50 *1467:A1 23.04 
9 *179:50 *179:77 9.45 
10 *179:77 *1470:A2 4.5 
11 *179:77 *179:104 22.32 
12 *179:104 *179:110 7.74 
13 *179:110 *1498:A4 4.5 
14 *179:110 *179:117 1.35 
15 *179:117 *1503:A4 4.5 
16 *179:117 *1518:A1 15.84 
17 *179:104 *1466:A3 9 
18 *179:31 *1471:A2 10.35 
19 *179:21 *1542:A2 4.5 
*END

*D_NET *180 0.0103496
*CONN
*I *1529:A1 I *D gf180mcu_fd_sc_mcu7t5v0__nor2_1
*I *1513:A1 I *D gf180mcu_fd_sc_mcu7t5v0__nor2_1
*I *1508:A1 I *D gf180mcu_fd_sc_mcu7t5v0__nor2_1
*I *1524:A1 I *D gf180mcu_fd_sc_mcu7t5v0__nor2_1
*I *1466:ZN O *D gf180mcu_fd_sc_mcu7t5v0__nand3_1
*CAP
1 *1529:A1 0.000226772
2 *1513:A1 3.21953e-05
3 *1508:A1 0.000151149
4 *1524:A1 0
5 *1466:ZN 0.000716033
6 *180:25 0.000301346
7 *180:21 0.000553041
8 *180:10 0.0009243
9 *1508:A1 *1518:A2 6.1883e-05
10 *1508:A1 *458:10 1.61174e-05
11 *1508:A1 *458:16 3.98088e-05
12 *1508:A1 *478:99 0.000103209
13 *1513:A1 *1518:A2 2.09122e-05
14 *1513:A1 *478:99 7.20334e-05
15 *1529:A1 *1795:A2 0.000208378
16 *1529:A1 *478:125 5.60515e-05
17 *1529:A1 *478:131 0.000125958
18 *1529:A1 *561:25 0.000327769
19 *1529:A1 *561:38 5.8967e-05
20 *1529:A1 *563:32 5.00297e-05
21 *1529:A1 *563:60 0.00100255
22 *180:10 *1506:A2 2.37695e-05
23 *180:10 *1523:A2 0.000742178
24 *180:10 *1527:A1 0.000433797
25 *180:10 *434:40 8.87178e-05
26 *180:10 *478:14 0.000246768
27 *180:10 *518:130 0.000150744
28 *180:10 *518:143 0.000982188
29 *180:10 *520:26 7.03523e-05
30 *180:10 *562:81 7.00413e-05
31 *180:21 *1794:A1 6.34901e-05
32 *180:21 *1795:A2 1.39839e-05
33 *180:21 *434:60 2.89427e-06
34 *180:21 *461:23 9.3226e-06
35 *180:21 *518:143 0.000101
36 *180:21 *562:71 1.10145e-05
37 *180:21 *562:81 6.39361e-05
38 *180:25 *1795:A2 0.000101615
39 *180:25 *461:23 5.67977e-05
40 *180:25 *561:25 0.000267366
41 *180:25 *563:32 0.00013169
42 *1519:A2 *180:10 2.02713e-05
43 *1520:A2 *180:10 0.000674629
44 *1812:D *1529:A1 0.000538909
45 *1868:D *180:10 9.04462e-05
46 *175:51 *180:10 0.000345225
*RES
1 *1466:ZN *180:10 13.59 
2 *180:10 *1524:A1 4.5 
3 *180:10 *180:21 6.3 
4 *180:21 *180:25 6.21 
5 *180:25 *1508:A1 5.94 
6 *180:25 *1513:A1 4.95 
7 *180:21 *1529:A1 14.22 
*END

*D_NET *181 0.000366707
*CONN
*I *1468:A3 I *D gf180mcu_fd_sc_mcu7t5v0__nand3_1
*I *1467:ZN O *D gf180mcu_fd_sc_mcu7t5v0__nand2_1
*CAP
1 *1468:A3 0.000183354
2 *1467:ZN 0.000183354
*RES
1 *1467:ZN *1468:A3 10.35 
*END

*D_NET *182 0.00111408
*CONN
*I *1469:C I *D gf180mcu_fd_sc_mcu7t5v0__oai221_1
*I *1468:ZN O *D gf180mcu_fd_sc_mcu7t5v0__nand3_1
*CAP
1 *1469:C 0.000129573
2 *1468:ZN 0.000129573
3 *1469:C *1782:B2 5.34514e-05
4 *1469:C *557:32 6.40822e-05
5 *1470:A1 *1469:C 2.08301e-05
6 *175:40 *1469:C 0.000605294
7 *176:20 *1469:C 9.04462e-05
8 *176:37 *1469:C 2.08301e-05
*RES
1 *1468:ZN *1469:C 19.8 
*END

*D_NET *183 0.000776497
*CONN
*I *1497:A2 I *D gf180mcu_fd_sc_mcu7t5v0__aoi22_1
*I *1469:ZN O *D gf180mcu_fd_sc_mcu7t5v0__oai221_1
*CAP
1 *1497:A2 0.000243327
2 *1469:ZN 0.000243327
3 *1497:A2 *1863:CLK 0.000118485
4 *1497:A2 *208:31 0
5 *1497:A2 *582:22 9.91804e-05
6 *1863:D *1497:A2 3.23694e-05
7 *179:104 *1497:A2 3.98088e-05
*RES
1 *1469:ZN *1497:A2 11.16 
*END

*D_NET *184 0.00137023
*CONN
*I *1472:A2 I *D gf180mcu_fd_sc_mcu7t5v0__nand2_1
*I *1470:ZN O *D gf180mcu_fd_sc_mcu7t5v0__nand2_1
*CAP
1 *1472:A2 0.000238444
2 *1470:ZN 0.000238444
3 *1472:A2 *581:16 2.36357e-05
4 *1472:A2 *582:14 8.74848e-06
5 *1472:A1 *1472:A2 0.000111994
6 *152:52 *1472:A2 0.000718635
7 *175:30 *1472:A2 0
8 *179:77 *1472:A2 3.03273e-05
*RES
1 *1470:ZN *1472:A2 11.52 
*END

*D_NET *185 0.00200789
*CONN
*I *1494:A2 I *D gf180mcu_fd_sc_mcu7t5v0__oai211_1
*I *1471:ZN O *D gf180mcu_fd_sc_mcu7t5v0__aoi22_1
*CAP
1 *1494:A2 0.000344505
2 *1471:ZN 0.000344505
3 *1494:A2 *200:12 4.83522e-05
4 *1494:A2 *208:22 2.31089e-05
5 *1471:A1 *1494:A2 8.49143e-05
6 *1486:A1 *1494:A2 0.000510317
7 *1486:B *1494:A2 3.56481e-05
8 *142:114 *1494:A2 9.50022e-05
9 *150:36 *1494:A2 1.06822e-05
10 *157:73 *1494:A2 1.32106e-05
11 *175:30 *1494:A2 0.000497649
*RES
1 *1471:ZN *1494:A2 21.69 
*END

*D_NET *186 0.00235218
*CONN
*I *1496:A1 I *D gf180mcu_fd_sc_mcu7t5v0__aoi211_1
*I *1522:A1 I *D gf180mcu_fd_sc_mcu7t5v0__aoi211_1
*I *1472:ZN O *D gf180mcu_fd_sc_mcu7t5v0__nand2_1
*CAP
1 *1496:A1 3.30432e-05
2 *1522:A1 0
3 *1472:ZN 5.64491e-05
4 *186:8 8.94923e-05
5 *1496:A1 *1496:A2 0.000690307
6 *1496:A1 *1522:C 6.13859e-05
7 *1496:A1 *1883:CLK 0.000869953
8 *186:8 *1496:A2 0.000164228
9 *186:8 *1883:CLK 0.000360446
10 *186:8 *581:25 2.68703e-05
*RES
1 *1472:ZN *186:8 9.99 
2 *186:8 *1522:A1 9 
3 *186:8 *1496:A1 11.25 
*END

*D_NET *187 0.00645205
*CONN
*I *1475:A4 I *D gf180mcu_fd_sc_mcu7t5v0__nand4_1
*I *1474:A4 I *D gf180mcu_fd_sc_mcu7t5v0__and4_1
*I *1550:A2 I *D gf180mcu_fd_sc_mcu7t5v0__or2_1
*I *1473:ZN O *D gf180mcu_fd_sc_mcu7t5v0__nor2_1
*CAP
1 *1475:A4 0.000350669
2 *1474:A4 0.000532007
3 *1550:A2 0.000118
4 *1473:ZN 1.97725e-05
5 *187:8 0.000650006
6 *187:6 0.000370442
7 *1474:A4 *1460:A4 9.84908e-05
8 *1474:A4 *1557:C 0.000174506
9 *1474:A4 *248:18 1.37517e-05
10 *1474:A4 *492:52 3.78209e-05
11 *1475:A4 *1930:I 0
12 *1475:A4 *447:51 8.53098e-05
13 *1475:A4 *447:62 0.000163566
14 *1475:A4 *448:29 0.000111417
15 *1475:A4 *473:94 0.000314664
16 *1550:A2 *1458:A2 0.000128525
17 *1550:A2 *1551:A1 0.000106536
18 *1550:A2 *448:35 0.000151445
19 *1550:A2 *492:52 4.7231e-06
20 *187:6 *448:29 9.30128e-05
21 *187:6 *473:94 3.46245e-05
22 *1474:A3 *1474:A4 2.30981e-05
23 *1475:A3 *1475:A4 0.000903105
24 *1549:B2 *1550:A2 3.7357e-05
25 *128:6 *1475:A4 0
26 *146:45 *1474:A4 0
27 *172:10 *1550:A2 0.00015651
28 *172:25 *1474:A4 0.00144546
29 *172:25 *1550:A2 0.000327233
*RES
1 *1473:ZN *187:6 4.77 
2 *187:6 *187:8 4.5 
3 *187:8 *1550:A2 10.98 
4 *187:8 *1474:A4 13.68 
5 *187:6 *1475:A4 9.09 
*END

*D_NET *188 0.00823286
*CONN
*I *1476:A2 I *D gf180mcu_fd_sc_mcu7t5v0__aoi21_1
*I *1474:Z O *D gf180mcu_fd_sc_mcu7t5v0__and4_1
*CAP
1 *1476:A2 0.00166579
2 *1474:Z 0.00166579
3 *1476:A2 *1894:I 0
4 *1476:A2 *450:63 0.000144938
5 *1476:A2 *471:64 0
6 *1476:A2 *582:14 0
7 *1476:A1 *1476:A2 1.07374e-05
8 *131:44 *1476:A2 0.00032797
9 *152:31 *1476:A2 0
10 *175:30 *1476:A2 0.000106536
11 *176:20 *1476:A2 0.0043111
*RES
1 *1474:Z *1476:A2 41.94 
*END

*D_NET *189 0.00782629
*CONN
*I *1546:A2 I *D gf180mcu_fd_sc_mcu7t5v0__nand4_1
*I *1542:A3 I *D gf180mcu_fd_sc_mcu7t5v0__nand4_1
*I *1477:A2 I *D gf180mcu_fd_sc_mcu7t5v0__oai21_1
*I *1539:A3 I *D gf180mcu_fd_sc_mcu7t5v0__nand3_1
*I *1475:ZN O *D gf180mcu_fd_sc_mcu7t5v0__nand4_1
*CAP
1 *1546:A2 0.000268155
2 *1542:A3 0.000258944
3 *1477:A2 0.000119487
4 *1539:A3 0
5 *1475:ZN 0
6 *189:14 0.000616552
7 *189:10 0.00102898
8 *189:4 0.000541124
9 *1477:A2 *282:8 0.000118679
10 *1477:A2 *447:76 0.000139375
11 *1542:A3 *1462:B2 0.000498052
12 *1542:A3 *1542:A4 0.000435078
13 *1542:A3 *243:8 0.000142765
14 *1542:A3 *244:10 0
15 *1546:A2 *1475:A1 0.000300761
16 *1546:A2 *1546:A1 7.73347e-05
17 *1546:A2 *1893:I 2.01192e-05
18 *1546:A2 *447:76 0.000249014
19 *189:10 *243:8 0.000101812
20 *189:10 *244:10 0
21 *189:10 *447:76 8.35196e-05
22 *189:10 *473:94 4.74921e-05
23 *189:14 *1485:A2 0.000231436
24 *189:14 *447:76 0.00180441
25 *1485:A1 *189:14 5.61812e-05
26 *150:19 *1542:A3 0
27 *150:19 *1546:A2 3.31358e-05
28 *150:19 *189:10 1.0415e-05
29 *150:36 *1542:A3 2.15254e-05
30 *154:35 *1477:A2 0.000260436
31 *157:73 *1477:A2 3.54696e-05
32 *157:73 *189:14 0.000188451
33 *179:31 *189:14 0.000137579
*RES
1 *1475:ZN *189:4 4.5 
2 *189:4 *189:10 6.84 
3 *189:10 *189:14 10.53 
4 *189:14 *1539:A3 4.5 
5 *189:14 *1477:A2 15.48 
6 *189:10 *1542:A3 11.88 
7 *189:4 *1546:A2 7.56 
*END

*D_NET *190 0.00368138
*CONN
*I *1522:A2 I *D gf180mcu_fd_sc_mcu7t5v0__aoi211_1
*I *1496:A2 I *D gf180mcu_fd_sc_mcu7t5v0__aoi211_1
*I *1476:ZN O *D gf180mcu_fd_sc_mcu7t5v0__aoi21_1
*CAP
1 *1522:A2 1.0029e-05
2 *1496:A2 0.000158755
3 *1476:ZN 0.000152997
4 *190:16 0.000321781
5 *1496:A2 *1522:C 0.000517466
6 *1496:A2 *1523:A1 1.39839e-05
7 *1496:A2 *207:6 8.68281e-06
8 *1496:A2 *581:25 1.7368e-05
9 *1522:A2 *208:22 9.04462e-05
10 *190:16 *1883:CLK 0
11 *190:16 *208:22 0.000629066
12 *190:16 *282:8 0
13 *190:16 *581:25 0.000373285
14 *1476:A1 *190:16 3.54345e-05
15 *1496:A1 *1496:A2 0.000690307
16 *141:26 *1496:A2 7.98425e-05
17 *152:31 *1522:A2 6.2979e-05
18 *152:31 *190:16 0.000354728
19 *186:8 *1496:A2 0.000164228
*RES
1 *1476:ZN *190:16 16.56 
2 *190:16 *1496:A2 16.02 
3 *190:16 *1522:A2 4.77 
*END

*D_NET *191 0.000733138
*CONN
*I *1494:A1 I *D gf180mcu_fd_sc_mcu7t5v0__oai211_1
*I *1477:ZN O *D gf180mcu_fd_sc_mcu7t5v0__oai21_1
*CAP
1 *1494:A1 0.000175088
2 *1477:ZN 0.000175088
3 *1494:A1 *282:8 0.000100784
4 *1477:B *1494:A1 0.00013986
5 *142:114 *1494:A1 3.29954e-05
6 *154:35 *1494:A1 0.000109323
*RES
1 *1477:ZN *1494:A1 19.71 
*END

*D_NET *192 0.00519416
*CONN
*I *1582:A1 I *D gf180mcu_fd_sc_mcu7t5v0__nand2_1
*I *1591:A1 I *D gf180mcu_fd_sc_mcu7t5v0__aoi21_1
*I *1583:A2 I *D gf180mcu_fd_sc_mcu7t5v0__nand3_1
*I *1481:A1 I *D gf180mcu_fd_sc_mcu7t5v0__nor2_1
*I *1491:B I *D gf180mcu_fd_sc_mcu7t5v0__aoi211_1
*I *1478:ZN O *D gf180mcu_fd_sc_mcu7t5v0__aoi21_1
*CAP
1 *1582:A1 0.000245559
2 *1591:A1 8.28584e-05
3 *1583:A2 0
4 *1481:A1 5.16477e-05
5 *1491:B 0.000129507
6 *1478:ZN 0
7 *192:12 0.00031194
8 *192:10 0.000208836
9 *192:8 0.000389504
10 *192:4 0.000474155
11 *1481:A1 *195:14 6.06287e-05
12 *1481:A1 *281:8 4.6613e-06
13 *1481:A1 *583:16 2.89427e-06
14 *1481:A1 *583:26 1.56779e-05
15 *1491:B *1481:A2 0.0004992
16 *1491:B *1493:A2 9.85004e-05
17 *1491:B *1493:A3 0.000507491
18 *1491:B *1584:A2 0
19 *1491:B *200:25 3.12451e-05
20 *1491:B *282:8 7.95552e-06
21 *1491:B *583:26 9.22066e-05
22 *1582:A1 *1479:A2 7.77227e-05
23 *1582:A1 *1582:A2 3.55118e-05
24 *1582:A1 *1798:A2 0
25 *1582:A1 *1799:B 2.30981e-05
26 *1582:A1 *583:8 4.35851e-05
27 *1582:A1 *583:73 0
28 *1582:A1 *584:20 0
29 *1591:A1 *1574:A2 7.73282e-05
30 *1591:A1 *1591:A2 9.20698e-05
31 *1591:A1 *492:247 0
32 *192:8 *1478:B 0.000226832
33 *192:8 *1591:A2 0.000225552
34 *192:8 *1592:B 0.000258897
35 *192:8 *1593:A3 9.43413e-05
36 *192:8 *583:10 8.68398e-06
37 *192:8 *584:16 0.000302284
38 *192:10 *559:67 8.31705e-06
39 *192:10 *583:10 7.12295e-06
40 *192:10 *583:16 1.44365e-05
41 *192:12 *1584:A2 1.58979e-05
42 *192:12 *1594:A1 1.18076e-06
43 *192:12 *583:16 2.78496e-05
44 *192:12 *583:26 8.59696e-05
45 *1478:A1 *1582:A1 9.68902e-05
46 *1881:D *1582:A1 4.78445e-05
47 *157:10 *1591:A1 0.000208277
*RES
1 *1478:ZN *192:4 4.5 
2 *192:4 *192:8 7.11 
3 *192:8 *192:10 0.45 
4 *192:10 *192:12 1.17 
5 *192:12 *1491:B 11.43 
6 *192:12 *1481:A1 9.45 
7 *192:10 *1583:A2 9 
8 *192:8 *1591:A1 10.08 
9 *192:4 *1582:A1 6.84 
*END

*D_NET *193 0.0180595
*CONN
*I *1592:A2 I *D gf180mcu_fd_sc_mcu7t5v0__aoi211_1
*I *1582:A2 I *D gf180mcu_fd_sc_mcu7t5v0__nand2_1
*I *1591:A2 I *D gf180mcu_fd_sc_mcu7t5v0__aoi21_1
*I *1583:A3 I *D gf180mcu_fd_sc_mcu7t5v0__nand3_1
*I *1535:A2 I *D gf180mcu_fd_sc_mcu7t5v0__nand2_1
*I *1578:A2 I *D gf180mcu_fd_sc_mcu7t5v0__nand3_1
*I *1487:A1 I *D gf180mcu_fd_sc_mcu7t5v0__nand2_1
*I *1482:B I *D gf180mcu_fd_sc_mcu7t5v0__oai211_1
*I *1488:A2 I *D gf180mcu_fd_sc_mcu7t5v0__aoi21_1
*I *1534:A2 I *D gf180mcu_fd_sc_mcu7t5v0__and2_1
*I *1545:A2 I *D gf180mcu_fd_sc_mcu7t5v0__aoi21_1
*I *1540:A2 I *D gf180mcu_fd_sc_mcu7t5v0__aoi211_1
*I *1480:A2 I *D gf180mcu_fd_sc_mcu7t5v0__nand2_1
*I *1479:ZN O *D gf180mcu_fd_sc_mcu7t5v0__nand2_1
*CAP
1 *1592:A2 6.63624e-05
2 *1582:A2 2.11941e-05
3 *1591:A2 0.000111762
4 *1583:A3 0
5 *1535:A2 0
6 *1578:A2 0.000162967
7 *1487:A1 1.9484e-05
8 *1482:B 0.000128458
9 *1488:A2 4.53545e-05
10 *1534:A2 8.04215e-05
11 *1545:A2 9.71242e-05
12 *1540:A2 6.89018e-05
13 *1480:A2 0.000206207
14 *1479:ZN 0
15 *193:137 0.000161439
16 *193:115 0.000139089
17 *193:97 0.00020306
18 *193:95 6.74206e-05
19 *193:35 0.000569557
20 *193:29 0.000543779
21 *193:27 0.000385952
22 *193:23 0.000101663
23 *193:10 0.000551359
24 *193:8 0.000495182
25 *193:6 0.000223913
26 *1480:A2 *1488:A1 0.000263013
27 *1480:A2 *205:22 0.000167367
28 *1482:B *1536:A3 0.000174756
29 *1482:B *1542:A4 0
30 *1482:B *204:12 5.44997e-05
31 *1482:B *241:14 1.18477e-05
32 *1482:B *242:12 0
33 *1482:B *471:82 9.34988e-05
34 *1487:A1 *583:28 4.83522e-05
35 *1488:A2 *1492:A2 3.98088e-05
36 *1488:A2 *195:14 1.23607e-05
37 *1534:A2 *1544:A3 0.00011461
38 *1534:A2 *1579:B1 0.000873201
39 *1534:A2 *250:14 0.000583544
40 *1540:A2 *1544:A3 0.000144134
41 *1540:A2 *243:8 0.000104641
42 *1545:A2 *205:22 0
43 *1545:A2 *206:8 0.000496776
44 *1545:A2 *250:14 7.59619e-05
45 *1578:A2 *1574:A2 3.59759e-05
46 *1578:A2 *241:8 1.39313e-05
47 *1578:A2 *559:67 0.000322882
48 *1582:A2 *1799:A1 4.6613e-06
49 *1582:A2 *1799:B 5.23429e-06
50 *1591:A2 *1574:A2 0.000264319
51 *1591:A2 *1592:B 0.00018454
52 *1591:A2 *582:132 0.000209001
53 *1591:A2 *583:10 2.38669e-05
54 *1592:A2 *1798:A2 2.31089e-05
55 *1592:A2 *1799:B 0.000104054
56 *1592:A2 *504:33 0
57 *193:8 *1479:A1 4.50671e-05
58 *193:8 *1482:A1 0.000377059
59 *193:8 *1581:A2 0.000161845
60 *193:8 *1593:A3 0
61 *193:10 *1482:A1 0.00140746
62 *193:10 *1488:A1 1.18477e-05
63 *193:10 *1489:A2 0.000501672
64 *193:10 *195:14 1.86249e-05
65 *193:10 *200:12 3.19452e-05
66 *193:10 *583:26 0
67 *193:27 *1536:A3 0.00014885
68 *193:27 *205:22 0.00046852
69 *193:29 *1492:A1 2.18192e-06
70 *193:29 *1542:A4 0
71 *193:29 *471:82 0.00023634
72 *193:35 *1894:I 0.000135539
73 *193:97 *1574:A2 0.000166065
74 *193:97 *559:67 0.000249406
75 *193:115 *1574:A2 0.000649549
76 *193:115 *559:67 0.000469308
77 *193:137 *1478:B 0
78 *193:137 *1479:A1 4.21513e-05
79 *193:137 *1479:A2 0
80 *193:137 *1581:A2 0.000398703
81 *193:137 *1799:B 0.00012775
82 *193:137 *1898:I 2.54706e-05
83 *1480:A1 *1480:A2 0.000177559
84 *1482:A2 *1480:A2 8.9944e-05
85 *1482:A2 *193:10 2.36954e-05
86 *1482:A2 *193:27 8.49143e-05
87 *1482:C *1482:B 1.07374e-05
88 *1534:A1 *1534:A2 0.000364412
89 *1535:A1 *1578:A2 0.000233245
90 *1535:A1 *193:97 1.61174e-05
91 *1582:A1 *1582:A2 3.55118e-05
92 *1591:A1 *1591:A2 9.20698e-05
93 *152:31 *1488:A2 2.37143e-05
94 *156:8 *1480:A2 5.89474e-05
95 *156:23 *1480:A2 1.18477e-05
96 *157:10 *1591:A2 4.5501e-05
97 *157:10 *193:115 6.16286e-05
98 *157:33 *1534:A2 0.00135564
99 *157:33 *1540:A2 0.000118018
100 *157:37 *1540:A2 0.000454468
101 *192:8 *1591:A2 0.000225552
*RES
1 *1479:ZN *193:6 9 
2 *193:6 *193:8 1.53 
3 *193:8 *193:10 4.41 
4 *193:10 *1480:A2 11.34 
5 *193:10 *193:23 4.5 
6 *193:23 *193:27 5.85 
7 *193:27 *193:29 1.53 
8 *193:29 *193:35 11.25 
9 *193:35 *1540:A2 10.53 
10 *193:35 *1545:A2 10.35 
11 *193:35 *1534:A2 13.41 
12 *193:29 *1488:A2 9.45 
13 *193:27 *1482:B 10.53 
14 *193:23 *1487:A1 4.77 
15 *193:8 *193:95 4.5 
16 *193:95 *193:97 0.81 
17 *193:97 *1578:A2 6.39 
18 *193:97 *1535:A2 4.5 
19 *193:95 *193:115 1.71 
20 *193:115 *1583:A3 4.5 
21 *193:115 *1591:A2 15.39 
22 *193:6 *193:137 1.53 
23 *193:137 *1582:A2 9.27 
24 *193:137 *1592:A2 9.9 
*END

*D_NET *194 0.0015536
*CONN
*I *1481:A2 I *D gf180mcu_fd_sc_mcu7t5v0__nor2_1
*I *1491:C I *D gf180mcu_fd_sc_mcu7t5v0__aoi211_1
*I *1480:ZN O *D gf180mcu_fd_sc_mcu7t5v0__nand2_1
*CAP
1 *1481:A2 8.0629e-05
2 *1491:C 0
3 *1480:ZN 3.70922e-05
4 *194:8 0.000117721
5 *1481:A2 *282:8 7.584e-06
6 *1481:A2 *583:26 0.000564859
7 *194:8 *282:8 6.17613e-06
8 *194:8 *583:26 0.000174506
9 *1482:C *194:8 3.1612e-05
10 *1491:B *1481:A2 0.0004992
11 *140:41 *194:8 3.42213e-05
*RES
1 *1480:ZN *194:8 9.63 
2 *194:8 *1491:C 9 
3 *194:8 *1481:A2 10.71 
*END

*D_NET *195 0.00559934
*CONN
*I *1493:A3 I *D gf180mcu_fd_sc_mcu7t5v0__nand3_1
*I *1544:A4 I *D gf180mcu_fd_sc_mcu7t5v0__nand4_1
*I *1492:B I *D gf180mcu_fd_sc_mcu7t5v0__oai21_1
*I *1481:ZN O *D gf180mcu_fd_sc_mcu7t5v0__nor2_1
*CAP
1 *1493:A3 0.000234705
2 *1544:A4 0.000211406
3 *1492:B 0
4 *1481:ZN 0
5 *195:14 0.00095853
6 *195:4 0.000981828
7 *1493:A3 *1493:A2 9.55009e-05
8 *1493:A3 *1584:A1 7.33161e-05
9 *1493:A3 *1584:A2 1.25794e-05
10 *1493:A3 *282:8 2.15668e-05
11 *1544:A4 *205:22 0.000461264
12 *1544:A4 *206:8 0
13 *195:14 *1482:A1 0.000287676
14 *195:14 *1488:A1 9.84908e-05
15 *195:14 *1490:A1 0
16 *195:14 *1490:A2 2.38983e-05
17 *195:14 *1491:A2 8.68281e-06
18 *195:14 *1492:A2 0.000309496
19 *195:14 *1584:A1 4.33247e-06
20 *195:14 *1883:CLK 0
21 *195:14 *200:25 1.4382e-06
22 *195:14 *203:8 0.000108767
23 *195:14 *205:22 7.20472e-05
24 *195:14 *471:82 0.00051685
25 *195:14 *583:26 2.40933e-06
26 *1481:A1 *195:14 6.06287e-05
27 *1482:A2 *195:14 0.000260704
28 *1488:A2 *195:14 1.23607e-05
29 *1488:B *195:14 2.36914e-05
30 *1489:A1 *195:14 6.87524e-05
31 *1491:B *1493:A3 0.000507491
32 *140:33 *1493:A3 5.78854e-06
33 *152:31 *195:14 0
34 *156:23 *195:14 0.00015651
35 *193:10 *195:14 1.86249e-05
*RES
1 *1481:ZN *195:4 4.5 
2 *195:4 *195:14 16.65 
3 *195:14 *1492:B 4.5 
4 *195:14 *1544:A4 6.48 
5 *195:4 *1493:A3 15.66 
*END

*D_NET *196 0.000841626
*CONN
*I *1536:A1 I *D gf180mcu_fd_sc_mcu7t5v0__nor3_1
*I *1482:ZN O *D gf180mcu_fd_sc_mcu7t5v0__oai211_1
*CAP
1 *1536:A1 0.000139821
2 *1482:ZN 0.000139821
3 *1536:A1 *1536:A3 1.23558e-05
4 *1536:A1 *204:12 0.000212882
5 *1536:A1 *241:14 0.000255876
6 *1536:A1 *471:82 3.95764e-05
7 *1489:A1 *1536:A1 3.88286e-05
8 *157:31 *1536:A1 2.46572e-06
*RES
1 *1482:ZN *1536:A1 19.53 
*END

*D_NET *197 0.00329067
*CONN
*I *1486:A2 I *D gf180mcu_fd_sc_mcu7t5v0__oai211_1
*I *1483:ZN O *D gf180mcu_fd_sc_mcu7t5v0__nor2_1
*CAP
1 *1486:A2 0.000553244
2 *1483:ZN 0.000553244
3 *1486:A2 *1471:B2 1.07374e-05
4 *1486:A2 *1492:A1 4.12155e-05
5 *1486:A2 *1542:A4 0.000117729
6 *1486:A2 *556:66 9.92341e-05
7 *1486:A2 *556:83 0.000365635
8 *1432:A1 *1486:A2 0.000331936
9 *1462:B1 *1486:A2 2.60586e-05
10 *1471:B1 *1486:A2 1.61174e-05
11 *1540:B *1486:A2 0.000244955
12 *143:37 *1486:A2 0.000163622
13 *150:36 *1486:A2 3.33082e-05
14 *152:8 *1486:A2 6.87124e-05
15 *152:31 *1486:A2 0
16 *157:50 *1486:A2 0.000143632
17 *175:30 *1486:A2 0.000521289
*RES
1 *1483:ZN *1486:A2 24.12 
*END

*D_NET *198 0.00151312
*CONN
*I *1485:A2 I *D gf180mcu_fd_sc_mcu7t5v0__aoi21_1
*I *1484:ZN O *D gf180mcu_fd_sc_mcu7t5v0__nand2_1
*CAP
1 *1485:A2 0.000286824
2 *1484:ZN 0.000286824
3 *1485:A2 *1586:A1 0.000207183
4 *1485:A2 *447:76 0.000231436
5 *1485:A2 *556:60 5.22248e-06
6 *1485:A2 *585:45 8.3187e-05
7 *1587:A2 *1485:A2 0.00010781
8 *144:14 *1485:A2 1.71254e-05
9 *144:27 *1485:A2 2.05328e-05
10 *179:41 *1485:A2 3.55431e-05
11 *189:14 *1485:A2 0.000231436
*RES
1 *1484:ZN *1485:A2 21.69 
*END

*D_NET *199 0.00457623
*CONN
*I *1492:A1 I *D gf180mcu_fd_sc_mcu7t5v0__oai21_1
*I *1586:A1 I *D gf180mcu_fd_sc_mcu7t5v0__nand2_1
*I *1485:ZN O *D gf180mcu_fd_sc_mcu7t5v0__aoi21_1
*CAP
1 *1492:A1 0.000612598
2 *1586:A1 0.000507767
3 *1485:ZN 0
4 *199:6 0.00112037
5 *1492:A1 *1542:A4 0.000130753
6 *1492:A1 *471:82 0
7 *1492:A1 *556:96 0.000445479
8 *1586:A1 *1431:A2 4.97225e-05
9 *1586:A1 *1588:B2 1.6462e-05
10 *1586:A1 *556:60 0.00030956
11 *1586:A1 *585:8 0
12 *1432:A1 *1492:A1 0.000160736
13 *1485:A1 *1492:A1 2.29722e-05
14 *1485:A2 *1586:A1 0.000207183
15 *1486:A2 *1492:A1 4.12155e-05
16 *143:37 *1492:A1 0.000273585
17 *143:37 *1586:A1 9.34442e-05
18 *144:14 *1586:A1 0.000150744
19 *144:27 *1586:A1 8.49143e-05
20 *152:31 *1492:A1 0.000105027
21 *154:16 *1586:A1 0
22 *157:50 *1492:A1 0.000233928
23 *179:41 *1492:A1 0
24 *179:41 *1586:A1 7.5874e-06
25 *193:29 *1492:A1 2.18192e-06
*RES
1 *1485:ZN *199:6 9 
2 *199:6 *1586:A1 13.86 
3 *199:6 *1492:A1 14.76 
*END

*D_NET *200 0.00377393
*CONN
*I *1584:A1 I *D gf180mcu_fd_sc_mcu7t5v0__nand2_1
*I *1491:A1 I *D gf180mcu_fd_sc_mcu7t5v0__aoi211_1
*I *1490:A1 I *D gf180mcu_fd_sc_mcu7t5v0__nand2_1
*I *1486:ZN O *D gf180mcu_fd_sc_mcu7t5v0__oai211_1
*CAP
1 *1584:A1 0.000208046
2 *1491:A1 0
3 *1490:A1 3.47404e-05
4 *1486:ZN 0.0005194
5 *200:25 0.000349849
6 *200:12 0.000695944
7 *1490:A1 *1490:A2 7.20334e-05
8 *1490:A1 *1493:A2 0.000232503
9 *1584:A1 *1490:A2 2.17141e-05
10 *1584:A1 *1493:A2 1.07374e-05
11 *1584:A1 *203:8 6.00102e-06
12 *1584:A1 *281:8 0
13 *200:12 *1488:A1 0.00012512
14 *200:12 *1489:A2 4.95184e-05
15 *200:12 *583:26 1.68338e-05
16 *200:25 *1490:A2 0.000122477
17 *200:25 *1491:A2 3.12451e-05
18 *200:25 *1493:A2 0.000235411
19 *1482:C *200:12 0.000109076
20 *1486:A1 *200:12 1.17934e-05
21 *1486:B *200:12 9.84908e-05
22 *1491:B *200:25 3.12451e-05
23 *1493:A3 *1584:A1 7.33161e-05
24 *1494:A2 *200:12 4.83522e-05
25 *1587:A2 *200:12 2.9077e-05
26 *142:114 *200:12 0.000586939
27 *156:23 *200:12 1.63535e-05
28 *193:10 *200:12 3.19452e-05
29 *195:14 *1490:A1 0
30 *195:14 *1584:A1 4.33247e-06
31 *195:14 *200:25 1.4382e-06
*RES
1 *1486:ZN *200:12 18.72 
2 *200:12 *1490:A1 5.13 
3 *200:12 *200:25 1.53 
4 *200:25 *1491:A1 4.5 
5 *200:25 *1584:A1 6.12 
*END

*D_NET *201 0.000823606
*CONN
*I *1489:A2 I *D gf180mcu_fd_sc_mcu7t5v0__nand2_1
*I *1487:ZN O *D gf180mcu_fd_sc_mcu7t5v0__nand2_1
*CAP
1 *1489:A2 0.000136207
2 *1487:ZN 0.000136207
3 *1489:A2 *583:26 0
4 *193:10 *1489:A2 0.000501672
5 *200:12 *1489:A2 4.95184e-05
*RES
1 *1487:ZN *1489:A2 19.35 
*END

*D_NET *202 0.000834398
*CONN
*I *1492:A2 I *D gf180mcu_fd_sc_mcu7t5v0__oai21_1
*I *1488:ZN O *D gf180mcu_fd_sc_mcu7t5v0__aoi21_1
*CAP
1 *1492:A2 0.000242546
2 *1488:ZN 0.000242546
3 *1488:A2 *1492:A2 3.98088e-05
4 *152:31 *1492:A2 0
5 *157:50 *1492:A2 0
6 *195:14 *1492:A2 0.000309496
*RES
1 *1488:ZN *1492:A2 11.07 
*END

*D_NET *203 0.000938451
*CONN
*I *1491:A2 I *D gf180mcu_fd_sc_mcu7t5v0__aoi211_1
*I *1490:A2 I *D gf180mcu_fd_sc_mcu7t5v0__nand2_1
*I *1489:ZN O *D gf180mcu_fd_sc_mcu7t5v0__nand2_1
*CAP
1 *1491:A2 4.26318e-05
2 *1490:A2 0.000130845
3 *1489:ZN 9.83391e-05
4 *203:8 0.000271816
5 *1490:A1 *1490:A2 7.20334e-05
6 *1584:A1 *1490:A2 2.17141e-05
7 *1584:A1 *203:8 6.00102e-06
8 *195:14 *1490:A2 2.38983e-05
9 *195:14 *1491:A2 8.68281e-06
10 *195:14 *203:8 0.000108767
11 *200:25 *1490:A2 0.000122477
12 *200:25 *1491:A2 3.12451e-05
*RES
1 *1489:ZN *203:8 5.67 
2 *203:8 *1490:A2 6.12 
3 *203:8 *1491:A2 4.86 
*END

*D_NET *204 0.0064063
*CONN
*I *1493:A2 I *D gf180mcu_fd_sc_mcu7t5v0__nand3_1
*I *1764:A1 I *D gf180mcu_fd_sc_mcu7t5v0__aoi21_1
*I *1544:A1 I *D gf180mcu_fd_sc_mcu7t5v0__nand4_1
*I *1490:ZN O *D gf180mcu_fd_sc_mcu7t5v0__nand2_1
*CAP
1 *1493:A2 0.000281989
2 *1764:A1 0.000748278
3 *1544:A1 3.44897e-05
4 *1490:ZN 2.64609e-05
5 *204:12 0.00119872
6 *204:6 0.000724407
7 *1493:A2 *1536:A3 3.99224e-05
8 *1493:A2 *205:8 1.17725e-05
9 *1493:A2 *205:22 1.77397e-05
10 *1493:A2 *583:26 5.56165e-05
11 *1764:A1 *1429:A3 2.79319e-05
12 *1764:A1 *1544:A3 3.73774e-06
13 *1764:A1 *1560:A4 0
14 *1764:A1 *1571:B1 0.000227025
15 *1764:A1 *1578:A3 0.000230923
16 *1764:A1 *1579:A1 4.08547e-05
17 *1764:A1 *1579:B1 0.000295146
18 *1764:A1 *1764:A2 1.07374e-05
19 *1764:A1 *1971:I 2.70026e-05
20 *1764:A1 *205:22 4.47329e-06
21 *1764:A1 *242:12 0.000278763
22 *1764:A1 *250:8 3.97987e-05
23 *1764:A1 *273:8 0
24 *1764:A1 *454:14 0.000341433
25 *204:12 *1482:A1 1.12956e-05
26 *204:12 *1536:A3 1.36989e-05
27 *204:12 *205:22 2.1573e-06
28 *204:12 *241:14 4.29496e-05
29 *204:12 *241:16 7.86369e-05
30 *204:12 *242:12 0.000346684
31 *1482:B *204:12 5.44997e-05
32 *1482:C *204:6 1.96863e-05
33 *1482:C *204:12 0.000191637
34 *1489:A1 *1493:A2 7.191e-07
35 *1489:A1 *204:12 3.06746e-05
36 *1490:A1 *1493:A2 0.000232503
37 *1491:B *1493:A2 9.85004e-05
38 *1493:A3 *1493:A2 9.55009e-05
39 *1536:A1 *204:12 0.000212882
40 *1584:A1 *1493:A2 1.07374e-05
41 *140:33 *1493:A2 1.0415e-05
42 *157:31 *204:12 5.04823e-05
43 *200:25 *1493:A2 0.000235411
*RES
1 *1490:ZN *204:6 4.77 
2 *204:6 *204:12 3.87 
3 *204:12 *1544:A1 4.77 
4 *204:12 *1764:A1 20.07 
5 *204:6 *1493:A2 7.47 
*END

*D_NET *205 0.016822
*CONN
*I *1494:B I *D gf180mcu_fd_sc_mcu7t5v0__oai211_1
*I *1558:A1 I *D gf180mcu_fd_sc_mcu7t5v0__aoi221_1
*I *1555:A2 I *D gf180mcu_fd_sc_mcu7t5v0__and4_1
*I *1547:A2 I *D gf180mcu_fd_sc_mcu7t5v0__nand2_1
*I *1543:A2 I *D gf180mcu_fd_sc_mcu7t5v0__nand3_1
*I *1491:ZN O *D gf180mcu_fd_sc_mcu7t5v0__aoi211_1
*CAP
1 *1494:B 0.000298673
2 *1558:A1 7.57189e-05
3 *1555:A2 2.82388e-05
4 *1547:A2 0.000172072
5 *1543:A2 7.61441e-05
6 *1491:ZN 0.000117542
7 *205:26 0.000273076
8 *205:24 0.000300984
9 *205:22 0.0017688
10 *205:8 0.00186141
11 *1494:B *208:22 0.000106536
12 *1494:B *282:8 6.0354e-06
13 *1543:A2 *1543:A1 0.000521938
14 *1543:A2 *250:30 0.00055701
15 *1543:A2 *448:21 8.49208e-05
16 *1543:A2 *473:94 1.39659e-05
17 *1547:A2 *1547:A1 2.75149e-05
18 *1547:A2 *1555:A1 8.49208e-05
19 *1547:A2 *248:18 0.000666369
20 *1547:A2 *253:10 0.0001763
21 *1547:A2 *253:20 9.3226e-06
22 *1555:A2 *1555:A1 0.00021703
23 *1555:A2 *1555:A3 0.00021703
24 *1558:A1 *1558:A2 8.07906e-05
25 *205:8 *1536:A3 0
26 *205:8 *583:28 0
27 *205:22 *1488:A1 1.89803e-05
28 *205:22 *1536:A3 6.93035e-05
29 *205:22 *1544:A3 0.000150744
30 *205:22 *1558:A2 7.36358e-06
31 *205:22 *1561:B 8.28069e-05
32 *205:22 *1561:C 8.56272e-05
33 *205:22 *1770:A1 0.000147801
34 *205:22 *241:14 2.90325e-05
35 *205:22 *241:16 9.07783e-05
36 *205:22 *242:12 0
37 *205:22 *242:22 0.000674551
38 *205:22 *250:14 0.000783205
39 *205:22 *250:30 0.000319929
40 *205:22 *257:10 6.38612e-06
41 *205:22 *447:159 0.00101276
42 *205:22 *451:26 0.000410051
43 *205:22 *451:39 0.00022428
44 *205:22 *583:26 0.000160873
45 *205:24 *1543:A3 2.88577e-05
46 *205:24 *1558:A2 9.86506e-05
47 *205:24 *1566:A3 0.000110143
48 *205:24 *247:8 0.000284123
49 *205:24 *250:30 0.00162316
50 *205:26 *1543:A1 8.99346e-05
51 *205:26 *1543:A3 1.92385e-05
52 *205:26 *250:30 0.000126986
53 *1477:B *1494:B 7.50811e-05
54 *1480:A1 *205:22 0.000232503
55 *1480:A2 *205:22 0.000167367
56 *1482:C *1494:B 1.86249e-05
57 *1486:B *1494:B 9.84908e-05
58 *1488:B *205:22 7.91275e-05
59 *1493:A2 *205:8 1.17725e-05
60 *1493:A2 *205:22 1.77397e-05
61 *1544:A4 *205:22 0.000461264
62 *1545:A2 *205:22 0
63 *1557:A1 *1547:A2 9.79925e-05
64 *1764:A1 *205:22 4.47329e-06
65 *1873:D *1547:A2 2.60586e-05
66 *1875:D *1558:A1 4.6211e-05
67 *140:41 *1494:B 0.000243827
68 *141:26 *1494:B 0.000194417
69 *142:114 *1494:B 0.000106416
70 *156:8 *205:8 0
71 *193:27 *205:22 0.00046852
72 *195:14 *205:22 7.20472e-05
73 *204:12 *205:22 2.1573e-06
*RES
1 *1491:ZN *205:8 5.4 
2 *205:8 *205:22 21.42 
3 *205:22 *205:24 4.41 
4 *205:24 *205:26 0.45 
5 *205:26 *1543:A2 10.8 
6 *205:26 *1547:A2 11.43 
7 *205:24 *1555:A2 9.63 
8 *205:22 *1558:A1 9.63 
9 *205:8 *1494:B 17.1 
*END

*D_NET *206 0.0120538
*CONN
*I *1568:B I *D gf180mcu_fd_sc_mcu7t5v0__aoi211_1
*I *1573:B I *D gf180mcu_fd_sc_mcu7t5v0__aoi211_1
*I *1579:A1 I *D gf180mcu_fd_sc_mcu7t5v0__oai32_1
*I *1560:A1 I *D gf180mcu_fd_sc_mcu7t5v0__nor4_1
*I *1566:A2 I *D gf180mcu_fd_sc_mcu7t5v0__oai32_1
*I *1556:A1 I *D gf180mcu_fd_sc_mcu7t5v0__nor4_1
*I *1492:ZN O *D gf180mcu_fd_sc_mcu7t5v0__oai21_1
*CAP
1 *1568:B 0.000306418
2 *1573:B 0
3 *1579:A1 0.000381059
4 *1560:A1 0
5 *1566:A2 0.000564873
6 *1556:A1 3.44897e-05
7 *1492:ZN 0.000348647
8 *206:58 0.000363609
9 *206:37 0.000809406
10 *206:28 0.000518811
11 *206:12 0.00073012
12 *206:8 0.000627059
13 *1566:A2 *1557:C 0.000624253
14 *1566:A2 *246:10 5.71402e-05
15 *1566:A2 *251:8 6.54075e-05
16 *1566:A2 *492:164 0.000152207
17 *1568:B *1567:A1 0
18 *1568:B *1568:C 0.000308212
19 *1568:B *1572:A3 0
20 *1568:B *1573:C 0.000456959
21 *1568:B *1579:A2 8.3864e-05
22 *1568:B *269:10 0.000319607
23 *1568:B *272:10 0.000148866
24 *1568:B *476:21 6.7989e-05
25 *1579:A1 *1429:A3 6.93668e-05
26 *1579:A1 *1560:A4 0.000142592
27 *1579:A1 *1568:A1 2.33065e-05
28 *1579:A1 *1573:C 0.000150744
29 *1579:A1 *1578:A3 0.000171136
30 *1579:A1 *240:8 0
31 *1579:A1 *476:21 0.000111412
32 *1579:A1 *559:67 0.000569085
33 *206:8 *1560:A4 3.49148e-05
34 *206:8 *250:14 5.00799e-05
35 *206:8 *251:8 0.000475333
36 *206:12 *1546:A1 0
37 *206:12 *1556:A2 0.000169908
38 *206:12 *244:10 1.52191e-05
39 *206:12 *251:23 0
40 *206:28 *1556:A2 0.000204177
41 *206:28 *240:10 5.79557e-05
42 *206:28 *251:23 0
43 *206:37 *240:10 0.000309027
44 *206:37 *251:23 0
45 *206:37 *492:25 0.000800911
46 *206:58 *1573:C 3.10415e-05
47 *206:58 *492:25 0.000226832
48 *1464:A1 *1566:A2 0
49 *1465:A3 *1566:A2 0
50 *1544:A4 *206:8 0
51 *1545:A1 *206:8 0.000557073
52 *1545:A2 *206:8 0.000496776
53 *1764:A1 *1579:A1 4.08547e-05
54 *131:44 *1566:A2 0.000330204
55 *149:12 *1566:A2 4.6807e-05
56 *157:50 *206:8 0
*RES
1 *1492:ZN *206:8 12.87 
2 *206:8 *206:12 5.67 
3 *206:12 *1556:A1 4.77 
4 *206:12 *1566:A2 10.17 
5 *206:8 *206:28 1.53 
6 *206:28 *1560:A1 9 
7 *206:28 *206:37 3.87 
8 *206:37 *1579:A1 21.87 
9 *206:37 *206:58 5.13 
10 *206:58 *1573:B 4.5 
11 *206:58 *1568:B 8.91 
*END

*D_NET *207 0.00210705
*CONN
*I *1496:B I *D gf180mcu_fd_sc_mcu7t5v0__aoi211_1
*I *1522:B I *D gf180mcu_fd_sc_mcu7t5v0__aoi211_1
*I *1493:ZN O *D gf180mcu_fd_sc_mcu7t5v0__nand3_1
*CAP
1 *1496:B 0
2 *1522:B 7.98143e-05
3 *1493:ZN 0.000299993
4 *207:6 0.000379807
5 *1522:B *1883:CLK 0.000367515
6 *1522:B *582:120 0.00024055
7 *207:6 *1496:C 0.000417565
8 *207:6 *1497:A1 2.30981e-05
9 *207:6 *1523:A1 0
10 *1496:A2 *207:6 8.68281e-06
11 *1892:I *207:6 0.000138609
12 *140:33 *207:6 0.000151417
*RES
1 *1493:ZN *207:6 7.29 
2 *207:6 *1522:B 15.57 
3 *207:6 *1496:B 4.5 
*END

*D_NET *208 0.0252246
*CONN
*I *1517:S I *D gf180mcu_fd_sc_mcu7t5v0__mux2_2
*I *1523:B1 I *D gf180mcu_fd_sc_mcu7t5v0__aoi22_1
*I *1533:S I *D gf180mcu_fd_sc_mcu7t5v0__mux2_2
*I *1502:S I *D gf180mcu_fd_sc_mcu7t5v0__mux2_2
*I *1512:S I *D gf180mcu_fd_sc_mcu7t5v0__mux2_2
*I *1528:S I *D gf180mcu_fd_sc_mcu7t5v0__mux2_2
*I *1507:S I *D gf180mcu_fd_sc_mcu7t5v0__mux2_2
*I *1497:B2 I *D gf180mcu_fd_sc_mcu7t5v0__aoi22_1
*I *1494:ZN O *D gf180mcu_fd_sc_mcu7t5v0__oai211_1
*CAP
1 *1517:S 0.000251044
2 *1523:B1 0.000126322
3 *1533:S 0
4 *1502:S 0.000996484
5 *1512:S 0.000220277
6 *1528:S 0.000416114
7 *1507:S 0
8 *1497:B2 0
9 *1494:ZN 0.000820039
10 *208:101 0.000508875
11 *208:92 0.000668527
12 *208:43 0.000591832
13 *208:35 0.00072752
14 *208:31 0.000958297
15 *208:22 0.000987346
16 *1502:S *1501:A2 4.34121e-06
17 *1502:S *1502:I0 6.26433e-05
18 *1502:S *1523:A1 0.00177541
19 *1502:S *1783:A2 0.000145218
20 *1502:S *492:277 0.000127214
21 *1502:S *582:43 0
22 *1512:S *1506:B 9.04462e-05
23 *1512:S *1512:I0 9.04462e-05
24 *1512:S *1914:I 0.000162951
25 *1512:S *559:37 0.000678624
26 *1517:S *1516:A1 0
27 *1517:S *1517:I0 0
28 *1517:S *478:125 0.000171188
29 *1517:S *488:127 0.000151342
30 *1517:S *518:130 0.001008
31 *1517:S *582:85 3.10167e-05
32 *1523:B1 *1520:B2 0.000284445
33 *1523:B1 *1792:A1 1.81129e-05
34 *1523:B1 *434:40 0.000277337
35 *1523:B1 *488:127 0.000839389
36 *1523:B1 *518:130 0.00026052
37 *1523:B1 *562:81 1.86284e-05
38 *1528:S *1506:A1 0.000916224
39 *1528:S *1511:A1 1.7022e-05
40 *1528:S *1528:I0 0.000963648
41 *1528:S *1574:A2 0.000833658
42 *1528:S *1899:I 4.83522e-05
43 *1528:S *1928:I 4.48344e-05
44 *208:22 *1436:A1 0.000166889
45 *208:22 *1497:A1 0.00014466
46 *208:22 *1523:A1 2.36914e-05
47 *208:22 *282:8 4.7273e-05
48 *208:22 *361:47 0.000440674
49 *208:22 *487:156 5.31477e-05
50 *208:22 *581:25 1.52092e-05
51 *208:22 *582:22 0.000108381
52 *208:31 *1523:A1 0.000618603
53 *208:35 *1631:I3 0.000111971
54 *208:35 *1782:B2 0.000133544
55 *208:35 *1914:I 0.000190974
56 *208:43 *1506:A1 0.00029729
57 *208:43 *1511:A1 0.000171736
58 *208:43 *1528:I0 7.55765e-06
59 *208:43 *492:258 0.00040953
60 *208:43 *574:14 0.000275527
61 *208:92 *1502:I0 9.04462e-05
62 *208:92 *1516:A1 0.00026494
63 *208:92 *1516:A2 5.78854e-06
64 *208:92 *1516:B 9.04462e-05
65 *208:92 *1520:B2 0.000616533
66 *208:92 *1523:A1 2.13487e-05
67 *208:92 *434:40 0
68 *208:92 *478:8 2.36914e-05
69 *208:92 *582:43 6.2021e-05
70 *208:101 *478:8 2.95687e-05
71 *208:101 *520:26 3.89202e-05
72 *1486:B *208:22 2.36914e-05
73 *1494:A2 *208:22 2.31089e-05
74 *1494:B *208:22 0.000106536
75 *1497:A2 *208:31 0
76 *1497:B1 *208:22 7.77106e-05
77 *1522:A2 *208:22 9.04462e-05
78 *1845:D *1502:S 1.63574e-05
79 *1845:D *1512:S 0.000442915
80 *1845:D *208:35 0.000729165
81 *1863:D *208:31 5.46041e-05
82 *1868:D *208:92 0.000353333
83 *1868:D *208:101 0.000219086
84 *1870:D *1517:S 0.000572982
85 *140:41 *208:22 0.000111618
86 *141:26 *208:22 0.000365448
87 *152:31 *208:22 9.23528e-05
88 *152:52 *208:22 1.52852e-05
89 *175:30 *208:22 0.000136809
90 *176:110 *1517:S 0.000410077
91 *179:104 *1502:S 0
92 *179:104 *208:31 0
93 *190:16 *208:22 0.000629066
*RES
1 *1494:ZN *208:22 31.95 
2 *208:22 *1497:B2 4.5 
3 *208:22 *208:31 1.98 
4 *208:31 *208:35 8.91 
5 *208:35 *208:43 7.29 
6 *208:43 *1507:S 4.5 
7 *208:43 *1528:S 10.53 
8 *208:35 *1512:S 12.24 
9 *208:31 *1502:S 9.63 
10 *1502:S *208:92 9.27 
11 *208:92 *1533:S 4.5 
12 *208:92 *208:101 5.49 
13 *208:101 *1523:B1 12.06 
14 *208:101 *1517:S 13.59 
*END

*D_NET *209 0.00864744
*CONN
*I *1496:C I *D gf180mcu_fd_sc_mcu7t5v0__aoi211_1
*I *1495:Z O *D gf180mcu_fd_sc_mcu7t5v0__and4_1
*CAP
1 *1496:C 0.000926013
2 *1495:Z 0.000926013
3 *1496:C *1495:A2 0.000562321
4 *1496:C *1495:A3 2.16833e-05
5 *1496:C *1500:A2 0.000128989
6 *1496:C *1515:A4 7.94868e-06
7 *1496:C *1522:C 0.000146678
8 *1496:C *477:89 6.0284e-05
9 *1496:C *477:100 8.12023e-06
10 *1496:C *491:45 4.5247e-05
11 *1496:C *491:49 1.77397e-05
12 *1496:C *491:73 4.20346e-05
13 *1496:C *492:235 0.00168901
14 *1496:C *581:31 0.000662846
15 *1496:C *581:42 0.000324011
16 *1882:D *1496:C 0.0017169
17 *1892:I *1496:C 0.000155839
18 *140:27 *1496:C 0.000247927
19 *140:33 *1496:C 0.000163338
20 *140:127 *1496:C 0.000150744
21 *141:26 *1496:C 0.000226185
22 *207:6 *1496:C 0.000417565
*RES
1 *1495:Z *1496:C 32.58 
*END

*D_NET *210 0.00154154
*CONN
*I *1497:A1 I *D gf180mcu_fd_sc_mcu7t5v0__aoi22_1
*I *1496:ZN O *D gf180mcu_fd_sc_mcu7t5v0__aoi211_1
*CAP
1 *1497:A1 0.000390527
2 *1496:ZN 0.000390527
3 *1497:A1 *1523:A1 7.45484e-05
4 *1497:A1 *361:47 0.000152267
5 *1497:A1 *582:120 0.000341172
6 *1892:I *1497:A1 1.28932e-05
7 *176:43 *1497:A1 1.18477e-05
8 *207:6 *1497:A1 2.30981e-05
9 *208:22 *1497:A1 0.00014466
*RES
1 *1496:ZN *1497:A1 22.05 
*END

*D_NET *211 0.00239585
*CONN
*I *1501:A2 I *D gf180mcu_fd_sc_mcu7t5v0__oai21_1
*I *1498:Z O *D gf180mcu_fd_sc_mcu7t5v0__and4_1
*CAP
1 *1501:A2 0.000212004
2 *1498:Z 0.000212004
3 *1501:A2 *1502:I0 0.000158364
4 *1501:A2 *1506:A1 9.22066e-05
5 *1501:A2 *1506:A2 4.08756e-05
6 *1501:A2 *1506:B 0.000164219
7 *1501:A2 *1520:A1 0
8 *1501:A2 *1633:A2 0.00102543
9 *1501:A2 *434:40 1.52191e-05
10 *1501:A2 *582:43 0.000324971
11 *1502:S *1501:A2 4.34121e-06
12 *175:51 *1501:A2 0.000146212
*RES
1 *1498:Z *1501:A2 21.78 
*END

*D_NET *212 0.00114318
*CONN
*I *1501:A1 I *D gf180mcu_fd_sc_mcu7t5v0__oai21_1
*I *1499:ZN O *D gf180mcu_fd_sc_mcu7t5v0__oai22_1
*CAP
1 *1501:A1 5.58241e-05
2 *1499:ZN 5.58241e-05
3 *1501:A1 *1501:B 0.000259485
4 *1501:A1 *1787:A2 2.57552e-05
5 *1501:A1 *492:277 1.18477e-05
6 *1847:D *1501:A1 0.000734448
*RES
1 *1499:ZN *1501:A1 19.89 
*END

*D_NET *213 0.0114178
*CONN
*I *1501:B I *D gf180mcu_fd_sc_mcu7t5v0__oai21_1
*I *1500:ZN O *D gf180mcu_fd_sc_mcu7t5v0__nand4_1
*CAP
1 *1501:B 0.00152653
2 *1500:ZN 0.00152653
3 *1501:B *1499:B2 0.000109332
4 *1501:B *1787:A2 0.00404781
5 *1501:B *1789:A2 0.000417764
6 *1501:B *491:12 0.000238074
7 *1501:B *518:114 0
8 *1501:B *518:130 0.00181168
9 *1501:A1 *1501:B 0.000259485
10 *1847:D *1501:B 0.000669057
11 *1865:D *1501:B 0.000811541
*RES
1 *1500:ZN *1501:B 47.7 
*END

*D_NET *214 0.000936865
*CONN
*I *1502:I0 I *D gf180mcu_fd_sc_mcu7t5v0__mux2_2
*I *1501:ZN O *D gf180mcu_fd_sc_mcu7t5v0__oai21_1
*CAP
1 *1502:I0 0.000308364
2 *1501:ZN 0.000308364
3 *1502:I0 *582:43 8.68281e-06
4 *1501:A2 *1502:I0 0.000158364
5 *1502:S *1502:I0 6.26433e-05
6 *208:92 *1502:I0 9.04462e-05
*RES
1 *1501:ZN *1502:I0 10.89 
*END

*D_NET *215 0.000927275
*CONN
*I *1506:A2 I *D gf180mcu_fd_sc_mcu7t5v0__oai21_1
*I *1503:Z O *D gf180mcu_fd_sc_mcu7t5v0__and4_1
*CAP
1 *1506:A2 0.000216813
2 *1503:Z 0.000216813
3 *1506:A2 *1520:A1 5.135e-05
4 *1506:A2 *1899:I 0
5 *1501:A2 *1506:A2 4.08756e-05
6 *1519:A2 *1506:A2 0.000231442
7 *175:51 *1506:A2 0.000146212
8 *180:10 *1506:A2 2.37695e-05
*RES
1 *1503:Z *1506:A2 20.16 
*END

*D_NET *216 0.00864663
*CONN
*I *1506:A1 I *D gf180mcu_fd_sc_mcu7t5v0__oai21_1
*I *1504:ZN O *D gf180mcu_fd_sc_mcu7t5v0__oai22_1
*CAP
1 *1506:A1 0.000641858
2 *1504:ZN 0.000641858
3 *1506:A1 *1506:B 0.00231421
4 *1506:A1 *1574:A2 0.000116937
5 *1506:A1 *1631:I1 0.000628106
6 *1506:A1 *1928:I 0.000269102
7 *1506:A1 *434:40 0.00249945
8 *1506:A1 *559:67 1.07374e-05
9 *1506:A1 *574:14 0.000218648
10 *1501:A2 *1506:A1 9.22066e-05
11 *1528:S *1506:A1 0.000916224
12 *208:43 *1506:A1 0.00029729
*RES
1 *1504:ZN *1506:A1 30.69 
*END

*D_NET *217 0.0111643
*CONN
*I *1506:B I *D gf180mcu_fd_sc_mcu7t5v0__oai21_1
*I *1505:ZN O *D gf180mcu_fd_sc_mcu7t5v0__nand4_1
*CAP
1 *1506:B 0.00182705
2 *1505:ZN 0.00182705
3 *1506:B *1417:I 9.85004e-05
4 *1506:B *1502:I1 0.000442919
5 *1506:B *1507:I1 3.08083e-05
6 *1506:B *1512:I0 0.000397144
7 *1506:B *1512:I1 0
8 *1506:B *1516:B 0
9 *1506:B *1633:A2 0.000334407
10 *1506:B *1784:B2 0
11 *1506:B *1788:B2 7.23801e-05
12 *1506:B *1790:B2 0
13 *1506:B *1914:I 2.41785e-05
14 *1506:B *1924:I 9.85004e-05
15 *1506:B *434:40 0.00129267
16 *1506:B *492:296 3.97987e-05
17 *1506:B *558:42 0
18 *1506:B *573:8 0.000398686
19 *1506:B *582:43 9.04462e-05
20 *1506:B *584:8 1.77835e-05
21 *1478:A2 *1506:B 0.000137885
22 *1501:A2 *1506:B 0.000164219
23 *1506:A1 *1506:B 0.00231421
24 *1512:S *1506:B 9.04462e-05
25 *1530:B1 *1506:B 4.25031e-05
26 *1531:A1 *1506:B 0.00049724
27 *1809:D *1506:B 3.96404e-05
28 *1847:D *1506:B 7.77604e-05
29 *140:12 *1506:B 0.000280854
30 *140:77 *1506:B 0.000284981
31 *141:80 *1506:B 9.33378e-05
32 *141:82 *1506:B 0.000148945
*RES
1 *1505:ZN *1506:B 38.97 
*END

*D_NET *218 0.0041267
*CONN
*I *1507:I0 I *D gf180mcu_fd_sc_mcu7t5v0__mux2_2
*I *1506:ZN O *D gf180mcu_fd_sc_mcu7t5v0__oai21_1
*CAP
1 *1507:I0 0.000714161
2 *1506:ZN 0.000714161
3 *1507:I0 *1528:I0 0.000380315
4 *1507:I0 *1631:I2 0.000135676
5 *1507:I0 *1634:A1 0
6 *1507:I0 *1928:I 0.000381433
7 *1507:I0 *478:14 0.000284348
8 *1507:I0 *492:262 0
9 *1507:I0 *492:277 9.84908e-05
10 *1507:I0 *492:296 0.000330318
11 *1507:I0 *558:27 0.000594042
12 *1507:I0 *558:42 0.000352496
13 *1507:I0 *582:43 7.15037e-05
14 *179:104 *1507:I0 6.97607e-05
*RES
1 *1506:ZN *1507:I0 26.91 
*END

*D_NET *219 0.0151941
*CONN
*I *1511:A1 I *D gf180mcu_fd_sc_mcu7t5v0__oai21_1
*I *1508:ZN O *D gf180mcu_fd_sc_mcu7t5v0__nor2_1
*CAP
1 *1511:A1 0.00204962
2 *1508:ZN 0.00204962
3 *1511:A1 *1425:I 0
4 *1511:A1 *1527:A1 0
5 *1511:A1 *1528:I0 0.000498681
6 *1511:A1 *1631:I3 1.35084e-05
7 *1511:A1 *1631:S1 0.0017908
8 *1511:A1 *1632:I1 0.000846994
9 *1511:A1 *1796:A1 0.00130971
10 *1511:A1 *1800:A2 4.47101e-05
11 *1511:A1 *1899:I 7.18212e-05
12 *1511:A1 *1949:I 8.49208e-05
13 *1511:A1 *1966:I 0.000302466
14 *1511:A1 *488:127 1.71414e-05
15 *1511:A1 *492:247 0.000754291
16 *1511:A1 *492:258 0.000337078
17 *1511:A1 *520:16 1.15459e-05
18 *1511:A1 *559:67 1.03055e-05
19 *1511:A1 *560:16 1.86263e-05
20 *1511:A1 *561:25 0.00136686
21 *1511:A1 *561:38 0.0018509
22 *1511:A1 *563:60 0.000746337
23 *1514:A2 *1511:A1 0.000157766
24 *1514:B1 *1511:A1 0.000553243
25 *1528:S *1511:A1 1.7022e-05
26 *1869:D *1511:A1 9.16061e-06
27 *141:129 *1511:A1 9.84908e-05
28 *176:110 *1511:A1 1.06861e-05
29 *208:43 *1511:A1 0.000171736
*RES
1 *1508:ZN *1511:A1 45.45 
*END

*D_NET *220 0.00074021
*CONN
*I *1511:A2 I *D gf180mcu_fd_sc_mcu7t5v0__oai21_1
*I *1509:ZN O *D gf180mcu_fd_sc_mcu7t5v0__oai22_1
*CAP
1 *1511:A2 1.78104e-05
2 *1509:ZN 1.78104e-05
3 *1511:A2 *1512:I0 0.000380305
4 *1511:A2 *1675:S 1.68605e-05
5 *176:43 *1511:A2 0.000307423
*RES
1 *1509:ZN *1511:A2 18.99 
*END

*D_NET *221 0.00569891
*CONN
*I *1511:B I *D gf180mcu_fd_sc_mcu7t5v0__oai21_1
*I *1510:ZN O *D gf180mcu_fd_sc_mcu7t5v0__nand4_1
*CAP
1 *1511:B 0.000626978
2 *1510:ZN 0.000626978
3 *1511:B *1425:I 7.96333e-06
4 *1511:B *1512:I0 0.00115224
5 *1511:B *1516:B 9.13402e-05
6 *1511:B *1530:B2 0.000355147
7 *1511:B *1531:A2 1.14128e-05
8 *1511:B *1531:A4 0.000216245
9 *1511:B *1788:B2 0.000325392
10 *1511:B *434:90 0.000324046
11 *1511:B *491:45 2.40587e-06
12 *1511:B *559:67 0
13 *1511:B *582:120 0.000802692
14 *1511:B *582:165 0.000257749
15 *1478:A2 *1511:B 2.18725e-05
16 *1515:A1 *1511:B 0.000506768
17 *1530:B1 *1511:B 0
18 *140:77 *1511:B 0
19 *140:110 *1511:B 0.000283705
20 *176:43 *1511:B 8.59796e-05
*RES
1 *1510:ZN *1511:B 27.45 
*END

*D_NET *222 0.00369935
*CONN
*I *1512:I0 I *D gf180mcu_fd_sc_mcu7t5v0__mux2_2
*I *1511:ZN O *D gf180mcu_fd_sc_mcu7t5v0__oai21_1
*CAP
1 *1512:I0 0.000546118
2 *1511:ZN 0.000546118
3 *1512:I0 *1512:I1 5.06377e-06
4 *1512:I0 *1530:A1 6.96766e-06
5 *1512:I0 *1532:A2 4.08423e-05
6 *1512:I0 *1675:S 4.51309e-06
7 *1512:I0 *1790:B2 0
8 *1512:I0 *434:16 0.000219651
9 *1512:I0 *434:90 0.000190382
10 *1512:I0 *560:77 1.06816e-05
11 *1512:I0 *564:16 5.19278e-05
12 *1506:B *1512:I0 0.000397144
13 *1511:A2 *1512:I0 0.000380305
14 *1511:B *1512:I0 0.00115224
15 *1512:S *1512:I0 9.04462e-05
16 *1530:A2 *1512:I0 1.22927e-05
17 *1530:B1 *1512:I0 1.0415e-05
18 *176:43 *1512:I0 3.42509e-05
*RES
1 *1511:ZN *1512:I0 24.3 
*END

*D_NET *223 0.00499051
*CONN
*I *1516:A1 I *D gf180mcu_fd_sc_mcu7t5v0__oai21_1
*I *1513:ZN O *D gf180mcu_fd_sc_mcu7t5v0__nor2_1
*CAP
1 *1516:A1 0.00120442
2 *1513:ZN 0.00120442
3 *1516:A1 *1516:A2 1.23715e-05
4 *1516:A1 *1517:I0 0.000596099
5 *1516:A1 *1518:A2 6.54322e-05
6 *1516:A1 *461:23 9.30373e-05
7 *1516:A1 *478:8 0.000171826
8 *1516:A1 *478:56 0.000130909
9 *1516:A1 *478:67 0.000142831
10 *1516:A1 *478:71 0.00025547
11 *1516:A1 *478:77 8.93953e-05
12 *1516:A1 *478:99 2.17721e-05
13 *1516:A1 *518:151 0.000117138
14 *1516:A1 *520:26 0
15 *1516:A1 *563:32 6.84075e-05
16 *1516:A1 *563:60 0.00010457
17 *1517:S *1516:A1 0
18 *1867:D *1516:A1 0.000302466
19 *1870:D *1516:A1 0.000145016
20 *208:92 *1516:A1 0.00026494
*RES
1 *1513:ZN *1516:A1 29.79 
*END

*D_NET *224 0.0110514
*CONN
*I *1516:A2 I *D gf180mcu_fd_sc_mcu7t5v0__oai21_1
*I *1514:ZN O *D gf180mcu_fd_sc_mcu7t5v0__oai22_1
*CAP
1 *1516:A2 0.00135905
2 *1514:ZN 0.00135905
3 *1516:A2 *1442:A2 0.00019576
4 *1516:A2 *1514:A1 0.000473864
5 *1516:A2 *1514:B2 0.00101965
6 *1516:A2 *1516:B 0.00249561
7 *1516:A2 *1517:I0 5.16292e-05
8 *1516:A2 *1523:A1 0.000150744
9 *1516:A2 *1533:I1 0.000223407
10 *1516:A2 *1569:A2 8.01894e-05
11 *1516:A2 *1676:S 0.00151188
12 *1516:A2 *1789:A2 4.24123e-05
13 *1516:A2 *1809:CLK 5.79792e-06
14 *1516:A2 *1900:I 8.10471e-05
15 *1516:A2 *1927:I 0.000205766
16 *1516:A2 *479:48 2.09122e-05
17 *1516:A2 *479:103 3.45424e-05
18 *1516:A2 *520:26 0.000781635
19 *1516:A2 *577:8 0.00027606
20 DAT_O[7] *1516:A2 2.9302e-05
21 *1516:A1 *1516:A2 1.23715e-05
22 *1869:D *1516:A2 3.17412e-05
23 *1870:D *1516:A2 0.00060324
24 *208:92 *1516:A2 5.78854e-06
*RES
1 *1514:ZN *1516:A2 36.18 
*END

*D_NET *225 0.0120477
*CONN
*I *1516:B I *D gf180mcu_fd_sc_mcu7t5v0__oai21_1
*I *1515:ZN O *D gf180mcu_fd_sc_mcu7t5v0__nand4_1
*CAP
1 *1516:B 0.00158207
2 *1515:ZN 0.00158207
3 *1516:B *1515:A2 7.55765e-06
4 *1516:B *1532:A2 0
5 *1516:B *1675:S 0.00115762
6 *1516:B *1788:A1 0
7 *1516:B *1789:A2 3.42213e-05
8 *1516:B *1790:B2 0.000183738
9 *1516:B *1791:A2 0.000842242
10 *1516:B *1866:CLK 1.09563e-05
11 *1516:B *1915:I 0.000673503
12 *1516:B *1917:I 0.000174497
13 *1516:B *434:40 6.31693e-05
14 *1516:B *492:296 1.70086e-05
15 *1516:B *518:184 0
16 *1516:B *520:26 0.000139597
17 *1516:B *559:20 0.00114393
18 *1516:B *559:33 0.000101184
19 *1516:B *559:106 0.000625542
20 *1516:B *582:43 1.0415e-05
21 *1516:B *582:56 0.00100029
22 *1506:B *1516:B 0
23 *1511:B *1516:B 9.13402e-05
24 *1515:A1 *1516:B 1.07374e-05
25 *1516:A2 *1516:B 0.00249561
26 *1520:B1 *1516:B 9.90362e-06
27 *1530:B1 *1516:B 0
28 *208:92 *1516:B 9.04462e-05
*RES
1 *1515:ZN *1516:B 39.24 
*END

*D_NET *226 0.00274762
*CONN
*I *1517:I0 I *D gf180mcu_fd_sc_mcu7t5v0__mux2_2
*I *1516:ZN O *D gf180mcu_fd_sc_mcu7t5v0__oai21_1
*CAP
1 *1517:I0 0.000700588
2 *1516:ZN 0.000700588
3 *1517:I0 *1523:A1 0.000329038
4 *1517:I0 *1527:A1 0.000208507
5 *1516:A1 *1517:I0 0.000596099
6 *1516:A2 *1517:I0 5.16292e-05
7 *1517:S *1517:I0 0
8 *1870:D *1517:I0 0.000137908
9 *176:110 *1517:I0 2.32595e-05
*RES
1 *1516:ZN *1517:I0 15.21 
*END

*D_NET *227 0.000256133
*CONN
*I *1519:A3 I *D gf180mcu_fd_sc_mcu7t5v0__nand3_1
*I *1518:ZN O *D gf180mcu_fd_sc_mcu7t5v0__nand2_1
*CAP
1 *1519:A3 4.11659e-05
2 *1518:ZN 4.11659e-05
3 *1518:A1 *1519:A3 3.97987e-05
4 *159:12 *1519:A3 0.000134003
*RES
1 *1518:ZN *1519:A3 9.54 
*END

*D_NET *228 0.00160791
*CONN
*I *1520:C I *D gf180mcu_fd_sc_mcu7t5v0__oai221_1
*I *1519:ZN O *D gf180mcu_fd_sc_mcu7t5v0__nand3_1
*CAP
1 *1520:C 0.000106586
2 *1519:ZN 0.000106586
3 *1520:C *1899:I 0.000173279
4 *1520:C *434:40 0.000637531
5 *1520:C *478:12 9.39061e-05
6 *1520:C *478:14 0.000490017
*RES
1 *1519:ZN *1520:C 20.52 
*END

*D_NET *229 0.00119724
*CONN
*I *1523:A2 I *D gf180mcu_fd_sc_mcu7t5v0__aoi22_1
*I *1520:ZN O *D gf180mcu_fd_sc_mcu7t5v0__oai221_1
*CAP
1 *1523:A2 0.000140832
2 *1520:ZN 0.000140832
3 *1523:A2 *434:40 0.000109569
4 *1519:A1 *1523:A2 2.65444e-06
5 *1519:A2 *1523:A2 6.11769e-05
6 *180:10 *1523:A2 0.000742178
*RES
1 *1520:ZN *1523:A2 11.07 
*END

*D_NET *230 0.00720359
*CONN
*I *1522:C I *D gf180mcu_fd_sc_mcu7t5v0__aoi211_1
*I *1521:Z O *D gf180mcu_fd_sc_mcu7t5v0__and4_1
*CAP
1 *1522:C 0.000864478
2 *1521:Z 0.000864478
3 *1522:C *1417:I 0.000521737
4 *1522:C *1436:A1 7.49684e-05
5 *1522:C *1515:A4 5.9182e-05
6 *1522:C *1521:A4 1.31385e-05
7 *1522:C *1523:A1 1.44713e-05
8 *1522:C *1531:A2 0.000553471
9 *1522:C *1531:A3 0.000150746
10 *1522:C *1788:B2 0
11 *1522:C *1883:CLK 0.000283759
12 *1522:C *491:23 2.57552e-05
13 *1522:C *491:45 1.31385e-05
14 *1522:C *492:235 0.000268684
15 *1522:C *581:42 0.00126869
16 *1522:C *582:128 0.000154116
17 *1496:A1 *1522:C 6.13859e-05
18 *1496:A2 *1522:C 0.000517466
19 *1496:C *1522:C 0.000146678
20 *141:26 *1522:C 0.00132234
21 *141:54 *1522:C 1.96079e-05
22 *141:153 *1522:C 5.29961e-06
*RES
1 *1521:Z *1522:C 30.33 
*END

*D_NET *231 0.00921724
*CONN
*I *1523:A1 I *D gf180mcu_fd_sc_mcu7t5v0__aoi22_1
*I *1522:ZN O *D gf180mcu_fd_sc_mcu7t5v0__aoi211_1
*CAP
1 *1523:A1 0.00161723
2 *1522:ZN 0.00161723
3 *1523:A1 *1424:I 0.000219997
4 *1523:A1 *1436:A1 1.13477e-05
5 *1523:A1 *1442:A2 0.00134159
6 *1523:A1 *1520:B2 0.000653848
7 *1523:A1 *1533:I0 0.000279204
8 *1496:A2 *1523:A1 1.39839e-05
9 *1497:A1 *1523:A1 7.45484e-05
10 *1502:S *1523:A1 0.00177541
11 *1516:A2 *1523:A1 0.000150744
12 *1517:I0 *1523:A1 0.000329038
13 *1522:C *1523:A1 1.44713e-05
14 *176:43 *1523:A1 0.0001657
15 *176:80 *1523:A1 0.000135897
16 *176:87 *1523:A1 9.85983e-05
17 *176:110 *1523:A1 5.47553e-05
18 *207:6 *1523:A1 0
19 *208:22 *1523:A1 2.36914e-05
20 *208:31 *1523:A1 0.000618603
21 *208:92 *1523:A1 2.13487e-05
*RES
1 *1522:ZN *1523:A1 35.01 
*END

*D_NET *232 0.00720439
*CONN
*I *1527:A1 I *D gf180mcu_fd_sc_mcu7t5v0__oai21_1
*I *1524:ZN O *D gf180mcu_fd_sc_mcu7t5v0__nor2_1
*CAP
1 *1527:A1 0.00197297
2 *1524:ZN 0.00197297
3 *1527:A1 *1527:A2 3.64225e-05
4 *1527:A1 *1527:B 0.000158798
5 *1527:A1 *1631:S1 0.000294944
6 *1527:A1 *1632:I3 0.000170119
7 *1527:A1 *1632:S0 6.99911e-06
8 *1527:A1 *1633:A2 7.70028e-05
9 *1527:A1 *1789:A1 0.000106536
10 *1527:A1 *1792:A1 8.57077e-05
11 *1527:A1 *1865:CLK 0.000517285
12 *1527:A1 *461:12 4.34691e-05
13 *1527:A1 *478:71 0
14 *1527:A1 *488:127 3.84416e-05
15 *1527:A1 *520:16 0.000144738
16 *1527:A1 *562:81 0.000119101
17 *1527:A1 *582:85 0.000144947
18 *1511:A1 *1527:A1 0
19 *1517:I0 *1527:A1 0.000208507
20 *1867:D *1527:A1 0.000257314
21 *1869:D *1527:A1 0.000109559
22 *176:110 *1527:A1 0.000304769
23 *180:10 *1527:A1 0.000433797
*RES
1 *1524:ZN *1527:A1 35.37 
*END

*D_NET *233 0.00384673
*CONN
*I *1527:A2 I *D gf180mcu_fd_sc_mcu7t5v0__oai21_1
*I *1525:ZN O *D gf180mcu_fd_sc_mcu7t5v0__oai22_1
*CAP
1 *1527:A2 0.00102471
2 *1525:ZN 0.00102471
3 *1527:A2 *1631:S1 0.000264683
4 *1527:A2 *492:296 0.000363688
5 *1527:A2 *492:313 0.000588725
6 *1527:A2 *504:33 3.78484e-05
7 *1527:A2 *582:85 3.76941e-05
8 *1527:A1 *1527:A2 3.64225e-05
9 *1869:D *1527:A2 2.35868e-05
10 *141:129 *1527:A2 0.000353147
11 *176:110 *1527:A2 9.15116e-05
*RES
1 *1525:ZN *1527:A2 35.73 
*END

*D_NET *234 0.00876175
*CONN
*I *1527:B I *D gf180mcu_fd_sc_mcu7t5v0__oai21_1
*I *1526:ZN O *D gf180mcu_fd_sc_mcu7t5v0__nand4_1
*CAP
1 *1527:B 0.00187042
2 *1526:ZN 0.00187042
3 *1527:B *1507:I1 0.000365645
4 *1527:B *1512:I1 0
5 *1527:B *1515:A4 1.19491e-05
6 *1527:B *1521:A4 3.02306e-05
7 *1527:B *1526:A2 2.31089e-05
8 *1527:B *1526:A3 0.000345279
9 *1527:B *1526:A4 0.00049538
10 *1527:B *1531:A4 0.000131992
11 *1527:B *1532:B 0.000115213
12 *1527:B *1533:I0 2.50126e-05
13 *1527:B *1631:I1 1.71215e-05
14 *1527:B *1784:B2 0.000798097
15 *1527:B *1786:A1 2.76794e-05
16 *1527:B *1786:B2 0
17 *1527:B *1790:A1 7.10395e-05
18 *1527:B *1791:A1 0.000252588
19 *1527:B *1923:I 0.000175953
20 *1527:B *1928:I 0.000977192
21 *1527:B *477:100 0
22 *1527:B *492:262 0.000101355
23 *1527:B *520:16 0.000166843
24 *1527:B *559:20 4.78068e-05
25 *1527:B *581:131 2.30981e-05
26 *1521:A1 *1527:B 1.79237e-05
27 *1527:A1 *1527:B 0.000158798
28 *1846:D *1527:B 0.000431338
29 *1849:D *1527:B 0.000210264
*RES
1 *1526:ZN *1527:B 36.99 
*END

*D_NET *235 0.00342166
*CONN
*I *1528:I0 I *D gf180mcu_fd_sc_mcu7t5v0__mux2_2
*I *1527:ZN O *D gf180mcu_fd_sc_mcu7t5v0__oai21_1
*CAP
1 *1528:I0 0.000580395
2 *1527:ZN 0.000580395
3 *1528:I0 *1899:I 4.83522e-05
4 *1528:I0 *558:42 0.000362319
5 *1507:I0 *1528:I0 0.000380315
6 *1511:A1 *1528:I0 0.000498681
7 *1528:S *1528:I0 0.000963648
8 *208:43 *1528:I0 7.55765e-06
*RES
1 *1527:ZN *1528:I0 24.3 
*END

*D_NET *236 0.0144463
*CONN
*I *1532:A1 I *D gf180mcu_fd_sc_mcu7t5v0__oai21_1
*I *1529:ZN O *D gf180mcu_fd_sc_mcu7t5v0__nor2_1
*CAP
1 *1532:A1 0.00156475
2 *1529:ZN 0.00156475
3 *1532:A1 *1533:I0 0.0024241
4 *1532:A1 *1632:I0 0
5 *1532:A1 *1632:I1 0.000554508
6 *1532:A1 *1784:A1 0.00039463
7 *1532:A1 *1790:B2 0.00032812
8 *1532:A1 *1792:A1 3.22122e-05
9 *1532:A1 *1796:A1 0.000195527
10 *1532:A1 *1846:CLK 0.00190458
11 *1532:A1 *1849:CLK 0.000252393
12 *1532:A1 *1966:I 1.20708e-05
13 *1532:A1 *478:131 9.20698e-05
14 *1532:A1 *479:6 0.000406329
15 *1532:A1 *479:8 0.000469308
16 *1532:A1 *479:10 0.000930572
17 *1532:A1 *561:38 0.00194028
18 *1532:A1 *563:60 0.000125039
19 *1532:A1 *578:6 0
20 DAT_O[7] *1532:A1 0.000943622
21 *1812:D *1532:A1 0.00031149
*RES
1 *1529:ZN *1532:A1 42.39 
*END

*D_NET *237 0.00477567
*CONN
*I *1532:A2 I *D gf180mcu_fd_sc_mcu7t5v0__oai21_1
*I *1530:ZN O *D gf180mcu_fd_sc_mcu7t5v0__oai22_1
*CAP
1 *1532:A2 0.000550041
2 *1530:ZN 0.000550041
3 *1532:A2 *1532:B 6.03144e-06
4 *1532:A2 *1675:S 0.000496178
5 *1532:A2 *1782:B2 7.66114e-06
6 *1532:A2 *1784:A1 4.56242e-05
7 *1532:A2 *1784:B2 0.000621237
8 *1532:A2 *1788:A1 0.000514667
9 *1532:A2 *1788:B1 8.49208e-05
10 *1532:A2 *1790:B2 8.12856e-06
11 *1532:A2 *1866:CLK 0.000428251
12 *1532:A2 *434:90 9.84061e-05
13 *1532:A2 *434:111 0.000466894
14 *1532:A2 *477:100 0.0005319
15 *1512:I0 *1532:A2 4.08423e-05
16 *1516:B *1532:A2 0
17 *1530:A2 *1532:A2 0.00015547
18 *1530:B1 *1532:A2 1.61174e-05
19 *1845:D *1532:A2 0.000153256
20 *1846:D *1532:A2 0
*RES
1 *1530:ZN *1532:A2 25.65 
*END

*D_NET *238 0.00427698
*CONN
*I *1532:B I *D gf180mcu_fd_sc_mcu7t5v0__oai21_1
*I *1531:ZN O *D gf180mcu_fd_sc_mcu7t5v0__nand4_1
*CAP
1 *1532:B 0.000681516
2 *1531:ZN 0.000681516
3 *1532:B *1526:A3 9.97179e-05
4 *1532:B *1531:A3 0.000254794
5 *1532:B *1531:A4 0.00141319
6 *1532:B *1784:A1 0.000403202
7 *1532:B *1788:B1 9.1627e-06
8 *1532:B *1788:B2 9.43811e-05
9 *1532:B *477:100 2.4462e-05
10 *1532:B *491:23 0.000311071
11 *1527:B *1532:B 0.000115213
12 *1532:A2 *1532:B 6.03144e-06
13 *1846:D *1532:B 0.000182722
*RES
1 *1531:ZN *1532:B 26.64 
*END

*D_NET *239 0.0107058
*CONN
*I *1533:I0 I *D gf180mcu_fd_sc_mcu7t5v0__mux2_2
*I *1532:ZN O *D gf180mcu_fd_sc_mcu7t5v0__oai21_1
*CAP
1 *1533:I0 0.00164067
2 *1532:ZN 0.00164067
3 *1533:I0 *1424:I 0.000360177
4 *1533:I0 *1442:A2 0.000517026
5 *1533:I0 *1520:B2 0.000184352
6 *1533:I0 *1632:I0 0.000308232
7 *1533:I0 *1676:S 0
8 *1533:I0 *1784:B2 3.24083e-05
9 *1533:I0 *1788:A1 0.00036947
10 *1533:I0 *1791:A1 0.000204502
11 *1533:I0 *1865:CLK 0.000100047
12 *1533:I0 *1921:I 0.00136213
13 *1533:I0 *1923:I 0.000109569
14 *1533:I0 *520:26 9.84908e-05
15 *1523:A1 *1533:I0 0.000279204
16 *1527:B *1533:I0 2.50126e-05
17 *1532:A1 *1533:I0 0.0024241
18 *1848:D *1533:I0 0.000839654
19 *1869:D *1533:I0 0.000210052
*RES
1 *1532:ZN *1533:I0 48.69 
*END

*D_NET *240 0.00680893
*CONN
*I *1764:A2 I *D gf180mcu_fd_sc_mcu7t5v0__aoi21_1
*I *1573:A1 I *D gf180mcu_fd_sc_mcu7t5v0__aoi211_1
*I *1568:A1 I *D gf180mcu_fd_sc_mcu7t5v0__aoi211_1
*I *1560:A2 I *D gf180mcu_fd_sc_mcu7t5v0__nor4_1
*I *1556:A2 I *D gf180mcu_fd_sc_mcu7t5v0__nor4_1
*I *1534:Z O *D gf180mcu_fd_sc_mcu7t5v0__and2_1
*CAP
1 *1764:A2 0.000170485
2 *1573:A1 0
3 *1568:A1 0.000360791
4 *1560:A2 0
5 *1556:A2 6.6307e-05
6 *1534:Z 0.000370229
7 *240:43 0.000315228
8 *240:28 0.000522863
9 *240:10 0.000190759
10 *240:8 0.00051201
11 *1556:A2 *1556:A4 5.53168e-05
12 *1556:A2 *1560:A3 0.000458794
13 *1556:A2 *244:10 0.000174497
14 *1568:A1 *1568:C 6.92926e-05
15 *1568:A1 *1573:C 4.23531e-05
16 *1568:A1 *242:12 0
17 *1568:A1 *476:21 1.19491e-05
18 *1568:A1 *492:25 0
19 *1764:A2 *1429:A3 0.000183662
20 *1764:A2 *1560:A4 1.71254e-05
21 *1764:A2 *1571:B1 6.84053e-05
22 *1764:A2 *273:8 0.000307423
23 *1764:A2 *492:25 1.71254e-05
24 *240:8 *1883:CLK 0
25 *240:8 *242:12 4.40447e-05
26 *240:8 *476:21 0
27 *240:10 *1556:A4 0.000515833
28 *240:10 *492:25 0.000320271
29 *240:28 *1556:A4 0.000138305
30 *240:28 *492:25 0.000283821
31 *240:43 *1556:A4 0.000194518
32 *240:43 *1560:A4 6.03772e-05
33 *240:43 *492:25 0.000562027
34 *1579:A1 *1568:A1 2.33065e-05
35 *1579:A1 *240:8 0
36 *1764:A1 *1764:A2 1.07374e-05
37 *206:12 *1556:A2 0.000169908
38 *206:28 *1556:A2 0.000204177
39 *206:28 *240:10 5.79557e-05
40 *206:37 *240:10 0.000309027
*RES
1 *1534:Z *240:8 11.25 
2 *240:8 *240:10 2.97 
3 *240:10 *1556:A2 11.07 
4 *240:10 *1560:A2 9 
5 *240:8 *240:28 0.81 
6 *240:28 *1568:A1 11.43 
7 *240:28 *240:43 2.07 
8 *240:43 *1573:A1 9 
9 *240:43 *1764:A2 11.16 
*END

*D_NET *241 0.0138108
*CONN
*I *1574:A1 I *D gf180mcu_fd_sc_mcu7t5v0__nand2_1
*I *1798:A1 I *D gf180mcu_fd_sc_mcu7t5v0__oai21_1
*I *1581:A1 I *D gf180mcu_fd_sc_mcu7t5v0__nor2_1
*I *1569:A1 I *D gf180mcu_fd_sc_mcu7t5v0__nand2_1
*I *1536:A2 I *D gf180mcu_fd_sc_mcu7t5v0__nor3_1
*I *1544:A2 I *D gf180mcu_fd_sc_mcu7t5v0__nand4_1
*I *1542:A4 I *D gf180mcu_fd_sc_mcu7t5v0__nand4_1
*I *1535:ZN O *D gf180mcu_fd_sc_mcu7t5v0__nand2_1
*CAP
1 *1574:A1 0
2 *1798:A1 0.000412313
3 *1581:A1 0
4 *1569:A1 0.000126579
5 *1536:A2 0
6 *1544:A2 0
7 *1542:A4 0.000617864
8 *1535:ZN 3.91407e-05
9 *241:70 0.000583768
10 *241:64 0.000287629
11 *241:49 0.00029175
12 *241:16 0.000725405
13 *241:14 0.0003418
14 *241:8 0.000322396
15 *1542:A4 *1462:B2 0.000330141
16 *1542:A4 *242:12 2.70026e-05
17 *1542:A4 *243:8 4.77448e-05
18 *1542:A4 *244:10 0.000101406
19 *1542:A4 *556:66 0.000166798
20 *1542:A4 *556:83 0.000351573
21 *1569:A1 *1571:B1 0.000157843
22 *1569:A1 *1574:A2 0.000502347
23 *1569:A1 *584:20 8.49208e-05
24 *1798:A1 *1576:A2 9.90193e-05
25 *1798:A1 *1580:A2 7.20168e-05
26 *1798:A1 *1799:A2 0.000167083
27 *1798:A1 *1905:I 7.94868e-06
28 *1798:A1 *454:12 8.22523e-05
29 *1798:A1 *454:14 3.93621e-05
30 *1798:A1 *477:23 7.11037e-06
31 *1798:A1 *492:209 3.29477e-05
32 *1798:A1 *504:33 1.61174e-05
33 *241:8 *1574:A2 0.000289489
34 *241:14 *1536:A3 0.000100105
35 *241:14 *1898:I 7.79185e-06
36 *241:14 *242:12 3.89994e-05
37 *241:14 *471:82 4.24298e-05
38 *241:14 *504:33 0.00126518
39 *241:49 *1898:I 1.69954e-05
40 *241:49 *504:33 0.000126819
41 *241:64 *1571:B1 7.20686e-05
42 *241:64 *1574:A2 4.81281e-05
43 *241:64 *1898:I 2.20164e-05
44 *241:64 *504:33 0.000135174
45 *241:64 *559:67 0
46 *241:70 *1571:B1 6.57184e-05
47 *241:70 *1576:A2 7.13936e-05
48 *241:70 *1578:A3 4.18699e-05
49 *241:70 *1580:A2 0.00011018
50 *241:70 *504:33 0
51 *1462:B1 *1542:A4 0.000156001
52 *1482:B *1542:A4 0
53 *1482:B *241:14 1.18477e-05
54 *1486:A2 *1542:A4 0.000117729
55 *1492:A1 *1542:A4 0.000130753
56 *1535:A1 *241:8 0.000227032
57 *1535:A1 *241:14 0.000255131
58 *1536:A1 *241:14 0.000255876
59 *1540:C *1542:A4 0.000274929
60 *1542:A3 *1542:A4 0.000435078
61 *1578:A2 *241:8 1.39313e-05
62 *150:36 *1542:A4 0.000894532
63 *157:27 *241:14 0.000773576
64 *157:33 *1542:A4 0.000933828
65 *157:33 *241:14 0
66 *157:37 *1542:A4 0.000592533
67 *193:29 *1542:A4 0
68 *204:12 *241:14 4.29496e-05
69 *204:12 *241:16 7.86369e-05
70 *205:22 *241:14 2.90325e-05
71 *205:22 *241:16 9.07783e-05
*RES
1 *1535:ZN *241:8 9.81 
2 *241:8 *241:14 9.54 
3 *241:14 *241:16 0.99 
4 *241:16 *1542:A4 32.4 
5 *241:16 *1544:A2 4.5 
6 *241:14 *1536:A2 4.5 
7 *241:8 *241:49 0.45 
8 *241:49 *1569:A1 10.71 
9 *241:49 *241:64 5.76 
10 *241:64 *241:70 6.3 
11 *241:70 *1581:A1 9 
12 *241:70 *1798:A1 12.78 
13 *241:64 *1574:A1 4.5 
*END

*D_NET *242 0.0102724
*CONN
*I *1563:A3 I *D gf180mcu_fd_sc_mcu7t5v0__and4_1
*I *1562:A1 I *D gf180mcu_fd_sc_mcu7t5v0__aoi21_1
*I *1558:B2 I *D gf180mcu_fd_sc_mcu7t5v0__aoi221_1
*I *1561:A1 I *D gf180mcu_fd_sc_mcu7t5v0__aoi211_1
*I *1564:A3 I *D gf180mcu_fd_sc_mcu7t5v0__nand4_1
*I *1536:ZN O *D gf180mcu_fd_sc_mcu7t5v0__nor3_1
*CAP
1 *1563:A3 0
2 *1562:A1 0
3 *1558:B2 0
4 *1561:A1 1.33669e-05
5 *1564:A3 6.67458e-05
6 *1536:ZN 0.00110992
7 *242:32 0.000393141
8 *242:22 0.000489239
9 *242:20 0.000349019
10 *242:12 0.00128273
11 *1561:A1 *1770:A2 9.04462e-05
12 *1561:A1 *1839:CLK 9.04462e-05
13 *1564:A3 *1564:A1 1.56862e-05
14 *1564:A3 *1564:A4 3.12451e-05
15 *1564:A3 *1768:A2 0.000930497
16 *242:12 *1561:B 0.000182649
17 *242:12 *1563:A2 2.08301e-05
18 *242:12 *1567:A2 7.88967e-05
19 *242:12 *492:25 0.000758698
20 *242:20 *1561:B 5.78854e-06
21 *242:20 *1562:A2 0.00043392
22 *242:20 *1563:A2 1.0415e-05
23 *242:20 *1566:B1 1.18477e-05
24 *242:20 *1571:A1 0.000202079
25 *242:20 *451:39 2.14274e-05
26 *242:22 *1463:A1 1.77944e-05
27 *242:22 *1561:C 3.12451e-05
28 *242:22 *1565:A2 2.12598e-05
29 *242:22 *250:30 2.38751e-06
30 *242:22 *447:159 0.00032061
31 *242:32 *1561:C 0.000166798
32 *242:32 *1563:A4 0.000509288
33 *242:32 *447:159 7.88206e-05
34 *1482:B *242:12 0
35 *1542:A4 *242:12 2.70026e-05
36 *1568:A1 *242:12 0
37 *1764:A1 *242:12 0.000278763
38 *1838:D *1564:A3 0.000937687
39 *1841:D *242:12 0
40 *1842:D *242:32 6.87129e-05
41 *10:24 *242:12 2.05626e-05
42 *10:24 *242:20 8.68281e-06
43 *157:31 *242:12 4.1068e-05
44 *157:33 *242:12 4.84186e-05
45 *204:12 *242:12 0.000346684
46 *205:22 *242:12 0
47 *205:22 *242:22 0.000674551
48 *240:8 *242:12 4.40447e-05
49 *241:14 *242:12 3.89994e-05
*RES
1 *1536:ZN *242:12 22.86 
2 *242:12 *242:20 10.8 
3 *242:20 *242:22 2.43 
4 *242:22 *242:32 16.2 
5 *242:32 *1564:A3 11.7 
6 *242:32 *1561:A1 9.27 
7 *242:22 *1558:B2 4.5 
8 *242:20 *1562:A1 4.5 
9 *242:12 *1563:A3 4.5 
*END

*D_NET *243 0.00442006
*CONN
*I *1544:A3 I *D gf180mcu_fd_sc_mcu7t5v0__nand4_1
*I *1545:B I *D gf180mcu_fd_sc_mcu7t5v0__aoi21_1
*I *1537:Z O *D gf180mcu_fd_sc_mcu7t5v0__and4_1
*CAP
1 *1544:A3 0.000335538
2 *1545:B 0.000147776
3 *1537:Z 0.000575094
4 *243:8 0.00105841
5 *1544:A3 *1556:A4 0
6 *1544:A3 *1560:A4 0
7 *1544:A3 *250:8 1.39839e-05
8 *1544:A3 *250:14 0.000375166
9 *1545:B *246:10 0
10 *243:8 *1894:I 0.000144283
11 *1534:A2 *1544:A3 0.00011461
12 *1540:A2 *1544:A3 0.000144134
13 *1540:A2 *243:8 0.000104641
14 *1540:C *243:8 0.000710908
15 *1542:A3 *243:8 0.000142765
16 *1542:A4 *243:8 4.77448e-05
17 *1545:A1 *1545:B 8.16641e-05
18 *1764:A1 *1544:A3 3.73774e-06
19 *150:19 *243:8 0
20 *153:8 *243:8 0.000119878
21 *157:37 *243:8 4.71736e-05
22 *189:10 *243:8 0.000101812
23 *205:22 *1544:A3 0.000150744
*RES
1 *1537:Z *243:8 15.75 
2 *243:8 *1545:B 9.99 
3 *243:8 *1544:A3 12.06 
*END

*D_NET *244 0.00587574
*CONN
*I *1560:A3 I *D gf180mcu_fd_sc_mcu7t5v0__nor4_1
*I *1556:A3 I *D gf180mcu_fd_sc_mcu7t5v0__nor4_1
*I *1538:ZN O *D gf180mcu_fd_sc_mcu7t5v0__nand4_1
*CAP
1 *1560:A3 6.54517e-05
2 *1556:A3 2.99129e-05
3 *1538:ZN 0.00136124
4 *244:10 0.00145661
5 *1556:A3 *1556:A4 9.04462e-05
6 *1556:A3 *246:10 0
7 *1560:A3 *1556:A4 0.000427492
8 *1560:A3 *1560:A4 9.04462e-05
9 *1560:A3 *250:14 9.04462e-05
10 *244:10 *1537:A4 3.12451e-05
11 *244:10 *1546:A1 0
12 *244:10 *1894:I 6.29822e-05
13 *244:10 *1930:I 6.47307e-05
14 *244:10 *447:115 0
15 *244:10 *473:94 6.31783e-05
16 *1434:A2 *244:10 4.15093e-05
17 *1538:A1 *244:10 0.000286386
18 *1542:A3 *244:10 0
19 *1542:A4 *244:10 0.000101406
20 *1556:A2 *1560:A3 0.000458794
21 *1556:A2 *244:10 0.000174497
22 *128:6 *244:10 2.5688e-05
23 *128:19 *244:10 2.20694e-05
24 *128:28 *244:10 7.191e-07
25 *150:19 *244:10 0.000791931
26 *150:36 *244:10 0.000123345
27 *189:10 *244:10 0
28 *206:12 *244:10 1.52191e-05
*RES
1 *1538:ZN *244:10 19.62 
2 *244:10 *1556:A3 9.27 
3 *244:10 *1560:A3 10.62 
*END

*D_NET *245 0.00300103
*CONN
*I *1588:B1 I *D gf180mcu_fd_sc_mcu7t5v0__oai32_1
*I *1590:A2 I *D gf180mcu_fd_sc_mcu7t5v0__oai33_1
*I *1539:ZN O *D gf180mcu_fd_sc_mcu7t5v0__nand3_1
*CAP
1 *1588:B1 0.000135584
2 *1590:A2 0.000140171
3 *1539:ZN 0.000198773
4 *245:10 0.000474528
5 *1588:B1 *1590:A3 3.72269e-05
6 *1590:A2 *1588:A2 2.36813e-05
7 *245:10 *1911:I 0.000356057
8 *245:10 *492:133 5.50497e-05
9 *1552:A1 *1588:B1 3.73774e-06
10 *1552:A1 *1590:A2 1.51153e-05
11 *1588:A1 *1588:B1 0.000119192
12 *1588:A1 *1590:A2 0.00047198
13 *1588:A1 *245:10 0
14 *1590:A1 *1590:A2 0.000130887
15 *1590:A1 *245:10 0.000289812
16 *1879:D *245:10 1.91657e-05
17 *129:12 *245:10 0.000506211
18 *142:97 *245:10 2.38529e-05
*RES
1 *1539:ZN *245:10 16.29 
2 *245:10 *1590:A2 6.39 
3 *245:10 *1588:B1 5.58 
*END

*D_NET *246 0.00646313
*CONN
*I *1558:A2 I *D gf180mcu_fd_sc_mcu7t5v0__aoi221_1
*I *1541:I I *D gf180mcu_fd_sc_mcu7t5v0__clkinv_1
*I *1540:ZN O *D gf180mcu_fd_sc_mcu7t5v0__aoi211_1
*CAP
1 *1558:A2 0.000436794
2 *1541:I 3.95682e-05
3 *1540:ZN 0.000981958
4 *246:10 0.00145832
5 *1558:A2 *1565:A2 0.000467494
6 *1558:A2 *1566:A3 0.000164908
7 *1558:A2 *1566:B1 1.60909e-05
8 *1558:A2 *1566:B2 3.01487e-05
9 *1558:A2 *1770:A1 9.09626e-05
10 *1558:A2 *451:26 0.000143921
11 *1558:A2 *492:50 6.20146e-05
12 *1558:A2 *492:52 2.5666e-05
13 *246:10 *1461:A3 0.000297533
14 *246:10 *1556:A4 0
15 *246:10 *1557:C 0.000242896
16 *246:10 *1566:A3 1.0415e-05
17 *246:10 *251:8 0
18 *246:10 *492:164 5.62899e-05
19 *1540:B *246:10 0.000303527
20 *1545:A1 *246:10 0
21 *1545:B *246:10 0
22 *1553:A1 *246:10 2.24298e-05
23 *1556:A3 *246:10 0
24 *1558:A1 *1558:A2 8.07906e-05
25 *1566:A2 *246:10 5.71402e-05
26 *1875:D *1558:A2 1.74082e-05
27 *146:45 *246:10 0.000231655
28 *157:50 *246:10 3.97987e-05
29 *172:25 *246:10 0.000684218
30 *175:30 *246:10 0.000395165
31 *205:22 *1558:A2 7.36358e-06
32 *205:24 *1558:A2 9.86506e-05
*RES
1 *1540:ZN *246:10 14.13 
2 *246:10 *1541:I 4.77 
3 *246:10 *1558:A2 17.1 
*END

*D_NET *247 0.00302372
*CONN
*I *1566:A3 I *D gf180mcu_fd_sc_mcu7t5v0__oai32_1
*I *1555:A3 I *D gf180mcu_fd_sc_mcu7t5v0__and4_1
*I *1543:A3 I *D gf180mcu_fd_sc_mcu7t5v0__nand3_1
*I *1541:ZN O *D gf180mcu_fd_sc_mcu7t5v0__clkinv_1
*CAP
1 *1566:A3 8.80314e-05
2 *1555:A3 0.000133144
3 *1543:A3 0.000151749
4 *1541:ZN 0
5 *247:8 0.000440771
6 *247:6 0.000243909
7 *1543:A3 *1543:A1 0.000464575
8 *1543:A3 *492:52 7.45535e-06
9 *1555:A3 *1555:A1 1.9093e-05
10 *1555:A3 *1557:B 9.85987e-06
11 *1555:A3 *248:18 3.12451e-05
12 *1566:A3 *492:52 1.75833e-05
13 *1566:A3 *492:164 9.04462e-05
14 *247:8 *492:52 7.4601e-06
15 *1553:A1 *1566:A3 5.06104e-06
16 *1555:A2 *1555:A3 0.00021703
17 *1558:A2 *1566:A3 0.000164908
18 *146:23 *1543:A3 0.000104575
19 *146:36 *1543:A3 8.97548e-05
20 *146:36 *247:8 0.00028429
21 *205:24 *1543:A3 2.88577e-05
22 *205:24 *1566:A3 0.000110143
23 *205:24 *247:8 0.000284123
24 *205:26 *1543:A3 1.92385e-05
25 *246:10 *1566:A3 1.0415e-05
*RES
1 *1541:ZN *247:6 9 
2 *247:6 *247:8 2.07 
3 *247:8 *1543:A3 10.71 
4 *247:8 *1555:A3 9.99 
5 *247:6 *1566:A3 10.08 
*END

*D_NET *248 0.00604491
*CONN
*I *1543:A1 I *D gf180mcu_fd_sc_mcu7t5v0__nand3_1
*I *1555:A1 I *D gf180mcu_fd_sc_mcu7t5v0__and4_1
*I *1542:ZN O *D gf180mcu_fd_sc_mcu7t5v0__nand4_1
*CAP
1 *1543:A1 0.00014801
2 *1555:A1 8.33396e-05
3 *1542:ZN 0.000594596
4 *248:18 0.000825945
5 *1543:A1 *250:30 6.13859e-05
6 *1543:A1 *492:52 1.00759e-05
7 *1555:A1 *1555:A4 0
8 *248:18 *1460:A2 0.000289489
9 *248:18 *1460:A3 2.08301e-05
10 *248:18 *1475:A1 0.000215116
11 *248:18 *1547:A1 0.000224239
12 *248:18 *1557:B 0
13 *248:18 *1557:C 0.000378851
14 *248:18 *1893:I 3.9698e-05
15 *248:18 *1930:I 9.28737e-05
16 *248:18 *449:40 0
17 *1474:A3 *248:18 0.000204385
18 *1474:A4 *248:18 1.37517e-05
19 *1543:A2 *1543:A1 0.000521938
20 *1543:A3 *1543:A1 0.000464575
21 *1547:A2 *1555:A1 8.49208e-05
22 *1547:A2 *248:18 0.000666369
23 *1555:A2 *1555:A1 0.00021703
24 *1555:A3 *1555:A1 1.9093e-05
25 *1555:A3 *248:18 3.12451e-05
26 *1873:D *1555:A1 6.52201e-05
27 *179:21 *248:18 0.000681999
28 *205:26 *1543:A1 8.99346e-05
*RES
1 *1542:ZN *248:18 12.15 
2 *248:18 *1555:A1 5.49 
3 *248:18 *1543:A1 15.57 
*END

*D_NET *249 0.00272269
*CONN
*I *1552:B2 I *D gf180mcu_fd_sc_mcu7t5v0__oai221_1
*I *1549:A2 I *D gf180mcu_fd_sc_mcu7t5v0__oai221_1
*I *1543:ZN O *D gf180mcu_fd_sc_mcu7t5v0__nand3_1
*CAP
1 *1552:B2 0
2 *1549:A2 0.000235645
3 *1543:ZN 0.000206723
4 *249:8 0.000442369
5 *1549:A2 *1549:C 0.000237866
6 *1549:A2 *1552:A2 0.00046676
7 *1549:A2 *250:30 1.85326e-05
8 *1549:A2 *492:52 0.00011019
9 *249:8 *250:30 0.000109127
10 *249:8 *492:52 0.000261354
11 *1549:B2 *1549:A2 0.000406879
12 *1552:A1 *1549:A2 4.77814e-05
13 *1871:D *1549:A2 0.000177559
14 *1872:D *1549:A2 1.90777e-06
*RES
1 *1543:ZN *249:8 11.25 
2 *249:8 *1549:A2 12.78 
3 *249:8 *1552:B2 9 
*END

*D_NET *250 0.0187734
*CONN
*I *1579:B1 I *D gf180mcu_fd_sc_mcu7t5v0__oai32_1
*I *1565:A1 I *D gf180mcu_fd_sc_mcu7t5v0__nand2_1
*I *1571:A1 I *D gf180mcu_fd_sc_mcu7t5v0__aoi22_1
*I *1549:B1 I *D gf180mcu_fd_sc_mcu7t5v0__oai221_1
*I *1552:A2 I *D gf180mcu_fd_sc_mcu7t5v0__oai221_1
*I *1544:ZN O *D gf180mcu_fd_sc_mcu7t5v0__nand4_1
*CAP
1 *1579:B1 0.000435144
2 *1565:A1 8.60213e-05
3 *1571:A1 0.000899923
4 *1549:B1 0
5 *1552:A2 0.000246344
6 *1544:ZN 3.18404e-05
7 *250:30 0.00132408
8 *250:16 0.00198807
9 *250:14 0.000809735
10 *250:8 0.00118029
11 *1552:A2 *473:98 0
12 *1565:A1 *1566:B1 0.000291039
13 *1565:A1 *448:94 1.32256e-06
14 *1565:A1 *451:26 0
15 *1565:A1 *492:50 1.1941e-06
16 *1571:A1 *1562:A2 0.000151112
17 *1571:A1 *1566:B1 1.36511e-05
18 *1571:A1 *1571:A2 0.000485888
19 *1571:A1 *1767:A1 0.000392348
20 *1571:A1 *1773:A1 6.81061e-06
21 *1571:A1 *1840:CLK 2.33065e-05
22 *1571:A1 *448:94 0.000219904
23 *1571:A1 *476:49 2.19387e-06
24 *1571:A1 *499:14 0.000180381
25 *1579:B1 *1578:A3 1.7301e-05
26 *1579:B1 *1579:A3 0
27 *1579:B1 *504:33 0
28 *250:14 *1422:I 0.000153272
29 *250:14 *1560:A4 3.64675e-05
30 *250:14 *251:8 2.23145e-05
31 *250:14 *448:94 0.000206288
32 *250:14 *451:39 0.000152367
33 *250:16 *448:94 0.00020236
34 *250:16 *451:26 0.000167441
35 *250:16 *451:39 6.2979e-05
36 *250:30 *1551:A2 7.191e-07
37 *250:30 *1552:C 4.38357e-05
38 *250:30 *1564:A4 0
39 *250:30 *1565:A2 0.000310418
40 *250:30 *257:10 0.000322676
41 *250:30 *447:47 0
42 *250:30 *448:94 0.000218691
43 *250:30 *449:10 0
44 *250:30 *449:27 9.78433e-05
45 *250:30 *451:26 0.000272758
46 *250:30 *473:98 0
47 *1464:A1 *250:14 0.000643006
48 *1534:A1 *1579:B1 6.85018e-05
49 *1534:A2 *1579:B1 0.000873201
50 *1534:A2 *250:14 0.000583544
51 *1543:A1 *250:30 6.13859e-05
52 *1543:A2 *250:30 0.00055701
53 *1544:A3 *250:8 1.39839e-05
54 *1544:A3 *250:14 0.000375166
55 *1545:A2 *250:14 7.59619e-05
56 *1549:A2 *1552:A2 0.00046676
57 *1549:A2 *250:30 1.85326e-05
58 *1549:B2 *250:30 0.000234117
59 *1553:A2 *250:30 4.82122e-05
60 *1560:A3 *250:14 9.04462e-05
61 *1764:A1 *1579:B1 0.000295146
62 *1764:A1 *250:8 3.97987e-05
63 *1872:D *1552:A2 5.33037e-05
64 *205:22 *250:14 0.000783205
65 *205:22 *250:30 0.000319929
66 *205:24 *250:30 0.00162316
67 *205:26 *250:30 0.000126986
68 *206:8 *250:14 5.00799e-05
69 *242:20 *1571:A1 0.000202079
70 *242:22 *250:30 2.38751e-06
71 *249:8 *250:30 0.000109127
*RES
1 *1544:ZN *250:8 9.27 
2 *250:8 *250:14 13.32 
3 *250:14 *250:16 0.63 
4 *250:16 *250:30 21.69 
5 *250:30 *1552:A2 15.48 
6 *250:30 *1549:B1 4.5 
7 *250:16 *1571:A1 21.42 
8 *250:14 *1565:A1 14.31 
9 *250:8 *1579:B1 13.59 
*END

*D_NET *251 0.00903086
*CONN
*I *1573:C I *D gf180mcu_fd_sc_mcu7t5v0__aoi211_1
*I *1568:C I *D gf180mcu_fd_sc_mcu7t5v0__aoi211_1
*I *1546:A1 I *D gf180mcu_fd_sc_mcu7t5v0__nand4_1
*I *1545:ZN O *D gf180mcu_fd_sc_mcu7t5v0__aoi21_1
*CAP
1 *1573:C 0.000234152
2 *1568:C 7.38392e-05
3 *1546:A1 0.000575996
4 *1545:ZN 0.000274319
5 *251:23 0.00100664
6 *251:8 0.00154896
7 *1546:A1 *1475:A1 0.000295943
8 *1546:A1 *1893:I 8.57965e-05
9 *1546:A1 *447:62 1.18477e-05
10 *1546:A1 *447:115 0.000222062
11 *1546:A1 *447:126 0.0015109
12 *1568:C *1567:A1 0
13 *1573:C *476:21 0.00052031
14 *251:8 *1422:I 9.90362e-06
15 *251:8 *1556:A4 0.000150744
16 *251:23 *1776:A2 0
17 *251:23 *447:126 0.000336099
18 *251:23 *447:159 0.000288831
19 *1430:A2 *1546:A1 4.6613e-06
20 *1464:A1 *251:8 2.89427e-06
21 *1546:A2 *1546:A1 7.73347e-05
22 *1546:A3 *1546:A1 4.09629e-05
23 *1566:A2 *251:8 6.54075e-05
24 *1567:A3 *251:23 1.50951e-05
25 *1567:A4 *251:23 0.000107817
26 *1568:A1 *1568:C 6.92926e-05
27 *1568:A1 *1573:C 4.23531e-05
28 *1568:B *1568:C 0.000308212
29 *1568:B *1573:C 0.000456959
30 *1579:A1 *1573:C 0.000150744
31 *1842:D *251:23 0
32 *149:12 *251:23 0
33 *150:19 *1546:A1 1.69023e-06
34 *179:8 *1546:A1 1.24166e-05
35 *206:8 *251:8 0.000475333
36 *206:12 *1546:A1 0
37 *206:12 *251:23 0
38 *206:28 *251:23 0
39 *206:37 *251:23 0
40 *206:58 *1573:C 3.10415e-05
41 *244:10 *1546:A1 0
42 *246:10 *251:8 0
43 *250:14 *251:8 2.23145e-05
*RES
1 *1545:ZN *251:8 11.61 
2 *251:8 *1546:A1 15.3 
3 *251:8 *251:23 9.99 
4 *251:23 *1568:C 5.49 
5 *251:23 *1573:C 16.38 
*END

*D_NET *252 0.00204626
*CONN
*I *1547:A1 I *D gf180mcu_fd_sc_mcu7t5v0__nand2_1
*I *1546:ZN O *D gf180mcu_fd_sc_mcu7t5v0__nand4_1
*CAP
1 *1547:A1 0.000232465
2 *1546:ZN 0.000232465
3 *1547:A1 *1430:A4 8.49143e-05
4 *1547:A1 *1474:A2 9.39061e-05
5 *1547:A1 *1475:A1 9.04462e-05
6 *1547:A1 *1475:A2 9.39061e-05
7 *1547:A1 *1893:I 0.00012687
8 *1547:A1 *448:71 2.39993e-05
9 *1547:A1 *449:40 0.000396058
10 *1547:A1 *450:65 0.000333595
11 *1430:A2 *1547:A1 8.5878e-05
12 *1547:A2 *1547:A1 2.75149e-05
13 *248:18 *1547:A1 0.000224239
*RES
1 *1546:ZN *1547:A1 21.42 
*END

*D_NET *253 0.00590475
*CONN
*I *1557:A2 I *D gf180mcu_fd_sc_mcu7t5v0__aoi211_1
*I *1551:A2 I *D gf180mcu_fd_sc_mcu7t5v0__nand2_1
*I *1548:A2 I *D gf180mcu_fd_sc_mcu7t5v0__nand2_1
*I *1547:ZN O *D gf180mcu_fd_sc_mcu7t5v0__nand2_1
*CAP
1 *1557:A2 0
2 *1551:A2 0.000177423
3 *1548:A2 2.73337e-06
4 *1547:ZN 0.000156113
5 *253:20 0.000540624
6 *253:10 0.000516581
7 *1548:A2 *447:25 0.000400853
8 *1548:A2 *473:98 0.000393144
9 *1551:A2 *1549:C 0
10 *1551:A2 *447:47 0.000236727
11 *253:10 *449:40 0.000449717
12 *253:20 *1423:I 1.85337e-05
13 *253:20 *1554:A1 0
14 *253:20 *447:23 0.00081246
15 *253:20 *447:25 0.000138056
16 *253:20 *448:21 0.000174642
17 *253:20 *449:27 9.85004e-05
18 *253:20 *449:40 0.000406775
19 *253:20 *473:98 0.000528649
20 *1547:A2 *253:10 0.0001763
21 *1547:A2 *253:20 9.3226e-06
22 *1549:B2 *1551:A2 0
23 *1557:A1 *253:10 3.92279e-05
24 *1873:D *253:20 0.000627647
25 *250:30 *1551:A2 7.191e-07
*RES
1 *1547:ZN *253:10 6.57 
2 *253:10 *253:20 10.26 
3 *253:20 *1548:A2 9.99 
4 *253:20 *1551:A2 10.53 
5 *253:10 *1557:A2 4.5 
*END

*D_NET *254 0.000815915
*CONN
*I *1549:C I *D gf180mcu_fd_sc_mcu7t5v0__oai221_1
*I *1548:ZN O *D gf180mcu_fd_sc_mcu7t5v0__nand2_1
*CAP
1 *1549:C 0.000142281
2 *1548:ZN 0.000142281
3 *1549:A2 *1549:C 0.000237866
4 *1549:B2 *1549:C 0.000237866
5 *1551:A2 *1549:C 0
6 *1871:D *1549:C 5.56207e-05
*RES
1 *1548:ZN *1549:C 10.53 
*END

*D_NET *255 0.000358577
*CONN
*I *1552:B1 I *D gf180mcu_fd_sc_mcu7t5v0__oai221_1
*I *1550:Z O *D gf180mcu_fd_sc_mcu7t5v0__or2_1
*CAP
1 *1552:B1 0.000111738
2 *1550:Z 0.000111738
3 *1552:B1 *1551:A1 2.71612e-05
4 *1552:B1 *1552:C 2.75149e-05
5 *1549:B2 *1552:B1 8.0425e-05
*RES
1 *1550:Z *1552:B1 9.9 
*END

*D_NET *256 0.000656122
*CONN
*I *1552:C I *D gf180mcu_fd_sc_mcu7t5v0__oai221_1
*I *1551:ZN O *D gf180mcu_fd_sc_mcu7t5v0__nand2_1
*CAP
1 *1552:C 0.000231523
2 *1551:ZN 0.000231523
3 *1552:C *1551:A1 6.3635e-05
4 *1549:B2 *1552:C 5.80909e-05
5 *1552:B1 *1552:C 2.75149e-05
6 *250:30 *1552:C 4.38357e-05
*RES
1 *1551:ZN *1552:C 10.8 
*END

*D_NET *257 0.00500282
*CONN
*I *1563:A4 I *D gf180mcu_fd_sc_mcu7t5v0__and4_1
*I *1558:B1 I *D gf180mcu_fd_sc_mcu7t5v0__aoi221_1
*I *1564:A4 I *D gf180mcu_fd_sc_mcu7t5v0__nand4_1
*I *1553:ZN O *D gf180mcu_fd_sc_mcu7t5v0__nor2_1
*CAP
1 *1563:A4 0.000460095
2 *1558:B1 0
3 *1564:A4 0.000282589
4 *1553:ZN 0.000294789
5 *257:12 0.000282589
6 *257:10 0.000754884
7 *1563:A4 *1561:C 6.85018e-05
8 *1563:A4 *447:159 2.79529e-05
9 *1563:A4 *450:21 9.41135e-05
10 *1563:A4 *450:23 0.000250818
11 *1563:A4 *450:59 9.86221e-06
12 *1564:A4 *1561:C 2.96306e-05
13 *1564:A4 *1564:A1 1.68677e-06
14 *1564:A4 *1565:A2 0.000180689
15 *257:10 *1555:A4 7.96333e-06
16 *257:10 *1561:C 4.34691e-05
17 *257:10 *1564:A1 0.000191934
18 *257:10 *449:10 6.17613e-06
19 *257:10 *449:66 0.000112003
20 *257:10 *450:23 7.50811e-05
21 *257:10 *492:164 1.17652e-05
22 *1564:A3 *1564:A4 3.12451e-05
23 *1842:D *1563:A4 0.000946625
24 *205:22 *257:10 6.38612e-06
25 *242:32 *1563:A4 0.000509288
26 *250:30 *1564:A4 0
27 *250:30 *257:10 0.000322676
*RES
1 *1553:ZN *257:10 12.6 
2 *257:10 *257:12 4.5 
3 *257:12 *1564:A4 6.48 
4 *257:12 *1558:B1 4.5 
5 *257:10 *1563:A4 22.86 
*END

*D_NET *258 0.00141423
*CONN
*I *1555:A4 I *D gf180mcu_fd_sc_mcu7t5v0__and4_1
*I *1554:Z O *D gf180mcu_fd_sc_mcu7t5v0__xor2_1
*CAP
1 *1555:A4 0.000318372
2 *1554:Z 0.000318372
3 *1555:A4 *449:27 5.79059e-06
4 *1553:A2 *1555:A4 0.00076373
5 *1555:A1 *1555:A4 0
6 *1873:D *1555:A4 0
7 *257:10 *1555:A4 7.96333e-06
*RES
1 *1554:Z *1555:A4 11.97 
*END

*D_NET *259 0.00137762
*CONN
*I *1557:B I *D gf180mcu_fd_sc_mcu7t5v0__aoi211_1
*I *1555:Z O *D gf180mcu_fd_sc_mcu7t5v0__and4_1
*CAP
1 *1557:B 0.00028135
2 *1555:Z 0.00028135
3 *1557:B *1557:C 1.48739e-05
4 *1557:B *492:52 0.000203424
5 *1553:A1 *1557:B 5.23357e-05
6 *1555:A3 *1557:B 9.85987e-06
7 *146:36 *1557:B 0.00052864
8 *146:45 *1557:B 5.78854e-06
9 *248:18 *1557:B 0
*RES
1 *1555:Z *1557:B 20.7 
*END

*D_NET *260 0.00414424
*CONN
*I *1557:C I *D gf180mcu_fd_sc_mcu7t5v0__aoi211_1
*I *1556:ZN O *D gf180mcu_fd_sc_mcu7t5v0__nor4_1
*CAP
1 *1557:C 0.000791809
2 *1556:ZN 0.000791809
3 *1557:C *448:84 1.07281e-05
4 *1557:C *492:52 8.26766e-05
5 *1474:A4 *1557:C 0.000174506
6 *1557:B *1557:C 1.48739e-05
7 *1566:A2 *1557:C 0.000624253
8 *146:45 *1557:C 0
9 *172:25 *1557:C 0.00103184
10 *246:10 *1557:C 0.000242896
11 *248:18 *1557:C 0.000378851
*RES
1 *1556:ZN *1557:C 26.73 
*END

*D_NET *261 0.00142793
*CONN
*I *1561:C I *D gf180mcu_fd_sc_mcu7t5v0__aoi211_1
*I *1558:ZN O *D gf180mcu_fd_sc_mcu7t5v0__aoi221_1
*CAP
1 *1561:C 0.000264423
2 *1558:ZN 0.000264423
3 *1561:C *1463:A1 0.000399367
4 *1561:C *1561:B 1.90868e-05
5 *1561:C *1565:A2 0
6 *1561:C *1770:A1 3.19379e-05
7 *1561:C *1839:CLK 1.15771e-05
8 *1561:C *447:159 1.18477e-05
9 *1563:A4 *1561:C 6.85018e-05
10 *1564:A4 *1561:C 2.96306e-05
11 *205:22 *1561:C 8.56272e-05
12 *242:22 *1561:C 3.12451e-05
13 *242:32 *1561:C 0.000166798
14 *257:10 *1561:C 4.34691e-05
*RES
1 *1558:ZN *1561:C 20.7 
*END

*D_NET *262 0.00608808
*CONN
*I *1572:A4 I *D gf180mcu_fd_sc_mcu7t5v0__nand4_1
*I *1562:A2 I *D gf180mcu_fd_sc_mcu7t5v0__aoi21_1
*I *1561:A2 I *D gf180mcu_fd_sc_mcu7t5v0__aoi211_1
*I *1559:Z O *D gf180mcu_fd_sc_mcu7t5v0__and4_1
*CAP
1 *1572:A4 0
2 *1562:A2 0.000172092
3 *1561:A2 0.000190647
4 *1559:Z 0.000114513
5 *262:23 0.000681682
6 *262:8 0.00081475
7 *1561:A2 *1559:A3 0.000411561
8 *1561:A2 *1768:A2 0.000218664
9 *1561:A2 *1770:A2 0.000336644
10 *1561:A2 *1841:CLK 0
11 *1561:A2 *450:21 0.00069039
12 *1562:A2 *1571:A2 0.00023968
13 *1562:A2 *451:39 7.85875e-05
14 *1562:A2 *451:69 0.00120643
15 *262:8 *279:63 1.4774e-05
16 *262:8 *450:10 1.61174e-05
17 *262:8 *450:21 2.30653e-05
18 *262:23 *1429:A2 2.89427e-06
19 *262:23 *1559:A2 0
20 *262:23 *1571:A2 2.10877e-05
21 *262:23 *1952:I 0
22 *262:23 *279:63 0.000114409
23 *262:23 *450:21 8.22041e-06
24 *1571:A1 *1562:A2 0.000151112
25 *1841:D *262:23 3.29504e-05
26 *10:24 *1561:A2 0.000113889
27 *242:20 *1562:A2 0.00043392
*RES
1 *1559:Z *262:8 5.22 
2 *262:8 *1561:A2 16.92 
3 *262:8 *262:23 3.33 
4 *262:23 *1562:A2 17.19 
5 *262:23 *1572:A4 4.5 
*END

*D_NET *263 0.00495099
*CONN
*I *1561:B I *D gf180mcu_fd_sc_mcu7t5v0__aoi211_1
*I *1560:ZN O *D gf180mcu_fd_sc_mcu7t5v0__nor4_1
*CAP
1 *1561:B 0.000760669
2 *1560:ZN 0.000760669
3 *1561:B *1463:A1 0.00200264
4 *1561:B *1563:A2 2.36914e-05
5 *1561:B *1567:A2 0.000424357
6 *1561:B *1839:CLK 0.000121827
7 *1561:B *447:159 4.09038e-05
8 *1561:B *450:49 0.000290869
9 *1561:C *1561:B 1.90868e-05
10 *1839:D *1561:B 0.000235035
11 *10:24 *1561:B 0
12 *205:22 *1561:B 8.28069e-05
13 *242:12 *1561:B 0.000182649
14 *242:20 *1561:B 5.78854e-06
*RES
1 *1560:ZN *1561:B 17.82 
*END

*D_NET *264 0.00191819
*CONN
*I *1566:B1 I *D gf180mcu_fd_sc_mcu7t5v0__oai32_1
*I *1562:ZN O *D gf180mcu_fd_sc_mcu7t5v0__aoi21_1
*CAP
1 *1566:B1 0.000435807
2 *1562:ZN 0.000435807
3 *1566:B1 *1565:A2 0.000133034
4 *1566:B1 *1566:B2 0.000135874
5 *1566:B1 *448:84 2.00872e-05
6 *1566:B1 *451:39 0.000164228
7 *1566:B1 *492:33 3.44029e-05
8 *1566:B1 *492:50 9.18491e-06
9 *1558:A2 *1566:B1 1.60909e-05
10 *1565:A1 *1566:B1 0.000291039
11 *1571:A1 *1566:B1 1.36511e-05
12 *1875:D *1566:B1 8.19687e-05
13 *131:44 *1566:B1 0.000135171
14 *242:20 *1566:B1 1.18477e-05
*RES
1 *1562:ZN *1566:B1 21.87 
*END

*D_NET *265 0.000131894
*CONN
*I *1570:A2 I *D gf180mcu_fd_sc_mcu7t5v0__nor2_1
*I *1563:Z O *D gf180mcu_fd_sc_mcu7t5v0__and4_1
*CAP
1 *1570:A2 6.5947e-05
2 *1563:Z 6.5947e-05
*RES
1 *1563:Z *1570:A2 9.45 
*END

*D_NET *266 0.00280936
*CONN
*I *1565:A2 I *D gf180mcu_fd_sc_mcu7t5v0__nand2_1
*I *1564:ZN O *D gf180mcu_fd_sc_mcu7t5v0__nand4_1
*CAP
1 *1565:A2 0.000424451
2 *1564:ZN 0.000424451
3 *1565:A2 *1564:A1 1.30091e-05
4 *1565:A2 *1566:B2 0.000114054
5 *1565:A2 *448:94 0.000703257
6 *1558:A2 *1565:A2 0.000467494
7 *1561:C *1565:A2 0
8 *1564:A4 *1565:A2 0.000180689
9 *1566:B1 *1565:A2 0.000133034
10 *1875:D *1565:A2 6.99566e-06
11 *131:44 *1565:A2 1.02497e-05
12 *242:22 *1565:A2 2.12598e-05
13 *250:30 *1565:A2 0.000310418
*RES
1 *1564:ZN *1565:A2 14.13 
*END

*D_NET *267 0.000551613
*CONN
*I *1566:B2 I *D gf180mcu_fd_sc_mcu7t5v0__oai32_1
*I *1565:ZN O *D gf180mcu_fd_sc_mcu7t5v0__nand2_1
*CAP
1 *1566:B2 0.000135768
2 *1565:ZN 0.000135768
3 *1558:A2 *1566:B2 3.01487e-05
4 *1565:A2 *1566:B2 0.000114054
5 *1566:B1 *1566:B2 0.000135874
*RES
1 *1565:ZN *1566:B2 10.26 
*END

*D_NET *268 0.000114966
*CONN
*I *1568:A2 I *D gf180mcu_fd_sc_mcu7t5v0__aoi211_1
*I *1567:ZN O *D gf180mcu_fd_sc_mcu7t5v0__nand4_1
*CAP
1 *1568:A2 5.74829e-05
2 *1567:ZN 5.74829e-05
*RES
1 *1567:ZN *1568:A2 9.45 
*END

*D_NET *269 0.0042443
*CONN
*I *1571:B2 I *D gf180mcu_fd_sc_mcu7t5v0__aoi22_1
*I *1575:A2 I *D gf180mcu_fd_sc_mcu7t5v0__nor2_1
*I *1568:ZN O *D gf180mcu_fd_sc_mcu7t5v0__aoi211_1
*CAP
1 *1571:B2 0.000243443
2 *1575:A2 0
3 *1568:ZN 9.42298e-05
4 *269:10 0.000337673
5 *1571:B2 *1776:A2 0.000927961
6 *1571:B2 *1840:CLK 0.000735474
7 *1571:B2 *453:15 0.000752893
8 *1571:B2 *453:21 0.000234541
9 *1571:B2 *492:15 5.24647e-06
10 *269:10 *1776:A2 0.000376286
11 *269:10 *272:10 3.25273e-05
12 *269:10 *453:21 0.00011731
13 *269:10 *476:21 0
14 *1568:B *269:10 0.000319607
15 *1840:D *1571:B2 6.71071e-05
*RES
1 *1568:ZN *269:10 10.8 
2 *269:10 *1575:A2 9 
3 *269:10 *1571:B2 13.68 
*END

*D_NET *270 0.0059605
*CONN
*I *1571:B1 I *D gf180mcu_fd_sc_mcu7t5v0__aoi22_1
*I *1569:ZN O *D gf180mcu_fd_sc_mcu7t5v0__nand2_1
*CAP
1 *1571:B1 0.00127116
2 *1569:ZN 0.00127116
3 *1571:B1 *1429:A3 4.89196e-07
4 *1571:B1 *1576:A2 5.79792e-06
5 *1571:B1 *1576:B 0.000278763
6 *1571:B1 *1578:A3 0
7 *1571:B1 *1581:A2 7.0188e-05
8 *1571:B1 *1764:B 8.59949e-05
9 *1571:B1 *1799:B 0.00022164
10 *1571:B1 *1840:CLK 0.00119942
11 *1571:B1 *1877:CLK 0.000159751
12 *1571:B1 *1952:I 0
13 *1571:B1 *279:8 0.000216101
14 *1571:B1 *476:47 0
15 *1571:B1 *476:49 0
16 *1571:B1 *584:20 8.49208e-05
17 *1569:A1 *1571:B1 0.000157843
18 *1764:A1 *1571:B1 0.000227025
19 *1764:A2 *1571:B1 6.84053e-05
20 *1853:D *1571:B1 0.00010528
21 *1876:D *1571:B1 0.000119182
22 *1877:D *1571:B1 0.000279593
23 *241:64 *1571:B1 7.20686e-05
24 *241:70 *1571:B1 6.57184e-05
*RES
1 *1569:ZN *1571:B1 22.05 
*END

*D_NET *271 0.00191125
*CONN
*I *1571:A2 I *D gf180mcu_fd_sc_mcu7t5v0__aoi22_1
*I *1570:ZN O *D gf180mcu_fd_sc_mcu7t5v0__nor2_1
*CAP
1 *1571:A2 0.000127999
2 *1570:ZN 0.000127999
3 *1571:A2 *1773:A1 0.000744717
4 *1571:A2 *451:69 0.000117249
5 *1562:A2 *1571:A2 0.00023968
6 *1571:A1 *1571:A2 0.000485888
7 *1841:D *1571:A2 4.6635e-05
8 *262:23 *1571:A2 2.10877e-05
*RES
1 *1570:ZN *1571:A2 21.42 
*END

*D_NET *272 0.00468143
*CONN
*I *1573:A2 I *D gf180mcu_fd_sc_mcu7t5v0__aoi211_1
*I *1579:A2 I *D gf180mcu_fd_sc_mcu7t5v0__oai32_1
*I *1572:ZN O *D gf180mcu_fd_sc_mcu7t5v0__nand4_1
*CAP
1 *1573:A2 5.55848e-05
2 *1579:A2 0.000258698
3 *1572:ZN 0.000303816
4 *272:10 0.000618098
5 *1573:A2 *1429:A3 0.000158788
6 *1579:A2 *1429:A3 6.03144e-06
7 *1579:A2 *1883:CLK 8.17346e-05
8 *1579:A2 *476:21 0.000490549
9 *1579:A2 *559:67 0.000673772
10 *272:10 *1429:A3 0.000551711
11 *272:10 *1572:A1 0.000415016
12 *272:10 *1572:A3 5.23429e-06
13 *272:10 *1576:B 0.000569413
14 *272:10 *1952:I 0.000129597
15 *272:10 *453:21 9.81259e-05
16 *1568:B *1579:A2 8.3864e-05
17 *1568:B *272:10 0.000148866
18 *269:10 *272:10 3.25273e-05
*RES
1 *1572:ZN *272:10 9.27 
2 *272:10 *1579:A2 8.1 
3 *272:10 *1573:A2 5.22 
*END

*D_NET *273 0.00204844
*CONN
*I *1577:A2 I *D gf180mcu_fd_sc_mcu7t5v0__nor2_1
*I *1576:A1 I *D gf180mcu_fd_sc_mcu7t5v0__aoi21_1
*I *1573:ZN O *D gf180mcu_fd_sc_mcu7t5v0__aoi211_1
*CAP
1 *1577:A2 2.85768e-05
2 *1576:A1 0
3 *1573:ZN 0.000107484
4 *273:8 0.000136061
5 *1577:A2 *1971:I 0
6 *1577:A2 *492:25 0.000427025
7 *273:8 *1971:I 0
8 *273:8 *492:25 0.00072417
9 *1764:A1 *273:8 0
10 *1764:A2 *273:8 0.000307423
11 *1853:D *1577:A2 0.000317701
*RES
1 *1573:ZN *273:8 10.89 
2 *273:8 *1576:A1 9 
3 *273:8 *1577:A2 10.17 
*END

*D_NET *274 0.00241758
*CONN
*I *1576:A2 I *D gf180mcu_fd_sc_mcu7t5v0__aoi21_1
*I *1574:ZN O *D gf180mcu_fd_sc_mcu7t5v0__nand2_1
*CAP
1 *1576:A2 0.000380922
2 *1574:ZN 0.000380922
3 *1576:A2 *1577:A1 2.03496e-05
4 *1576:A2 *1580:A1 0.000151417
5 *1576:A2 *1580:A2 0.000275517
6 *1576:A2 *1799:A2 0.000101615
7 *1576:A2 *1878:CLK 0.000354728
8 *1576:A2 *492:209 0
9 *1576:A2 *504:33 9.35086e-05
10 *1571:B1 *1576:A2 5.79792e-06
11 *1798:A1 *1576:A2 9.90193e-05
12 *1853:D *1576:A2 0.000373918
13 *1878:D *1576:A2 0.000108466
14 *241:70 *1576:A2 7.13936e-05
*RES
1 *1574:ZN *1576:A2 23.04 
*END

*D_NET *275 0.00223216
*CONN
*I *1576:B I *D gf180mcu_fd_sc_mcu7t5v0__aoi21_1
*I *1575:ZN O *D gf180mcu_fd_sc_mcu7t5v0__nor2_1
*CAP
1 *1576:B 0.000224888
2 *1575:ZN 0.000224888
3 *1576:B *1429:A3 0.00057287
4 *1576:B *476:15 0.000146222
5 *1576:B *476:21 9.34988e-05
6 *1576:B *492:25 0.000121621
7 *1571:B1 *1576:B 0.000278763
8 *272:10 *1576:B 0.000569413
*RES
1 *1575:ZN *1576:B 21.69 
*END

*D_NET *276 0.000494663
*CONN
*I *1580:A1 I *D gf180mcu_fd_sc_mcu7t5v0__nor2_1
*I *1577:ZN O *D gf180mcu_fd_sc_mcu7t5v0__nor2_1
*CAP
1 *1580:A1 9.59146e-05
2 *1577:ZN 9.59146e-05
3 *1580:A1 *1577:A1 0.000151417
4 *1576:A2 *1580:A1 0.000151417
*RES
1 *1577:ZN *1580:A1 10.26 
*END

*D_NET *277 0.00158675
*CONN
*I *1579:A3 I *D gf180mcu_fd_sc_mcu7t5v0__oai32_1
*I *1578:ZN O *D gf180mcu_fd_sc_mcu7t5v0__nand3_1
*CAP
1 *1579:A3 0.00017782
2 *1578:ZN 0.00017782
3 *1579:A3 *1883:CLK 0.000586561
4 *1579:A3 *504:33 0.000353651
5 *1579:A3 *559:67 8.91442e-05
6 *1578:A1 *1579:A3 0.000201749
7 *1579:B1 *1579:A3 0
*RES
1 *1578:ZN *1579:A3 20.52 
*END

*D_NET *278 0.0015075
*CONN
*I *1580:A2 I *D gf180mcu_fd_sc_mcu7t5v0__nor2_1
*I *1579:ZN O *D gf180mcu_fd_sc_mcu7t5v0__oai32_1
*CAP
1 *1580:A2 0.000205983
2 *1579:ZN 0.000205983
3 *1580:A2 *1578:A3 4.07944e-05
4 *1580:A2 *454:14 0.000321505
5 *1580:A2 *504:33 0
6 *1576:A2 *1580:A2 0.000275517
7 *1798:A1 *1580:A2 7.20168e-05
8 *1853:D *1580:A2 0.000275517
9 *241:70 *1580:A2 0.00011018
*RES
1 *1579:ZN *1580:A2 21.06 
*END

*D_NET *279 0.0204749
*CONN
*I *1775:A2 I *D gf180mcu_fd_sc_mcu7t5v0__aoi22_1
*I *1771:A2 I *D gf180mcu_fd_sc_mcu7t5v0__aoi22_1
*I *1773:A2 I *D gf180mcu_fd_sc_mcu7t5v0__aoi22_1
*I *1767:A2 I *D gf180mcu_fd_sc_mcu7t5v0__aoi22_1
*I *1769:A2 I *D gf180mcu_fd_sc_mcu7t5v0__aoi22_1
*I *1765:A2 I *D gf180mcu_fd_sc_mcu7t5v0__aoi22_1
*I *1777:A2 I *D gf180mcu_fd_sc_mcu7t5v0__aoi22_1
*I *1779:A2 I *D gf180mcu_fd_sc_mcu7t5v0__aoi22_1
*I *1764:B I *D gf180mcu_fd_sc_mcu7t5v0__aoi21_1
*I *1581:ZN O *D gf180mcu_fd_sc_mcu7t5v0__nor2_1
*CAP
1 *1775:A2 0
2 *1771:A2 0.000836657
3 *1773:A2 0.00022603
4 *1767:A2 9.08365e-05
5 *1769:A2 0.000123868
6 *1765:A2 2.6693e-05
7 *1777:A2 5.01601e-05
8 *1779:A2 5.78783e-05
9 *1764:B 3.76617e-05
10 *1581:ZN 0.000108986
11 *279:63 0.000649816
12 *279:57 0.000698621
13 *279:55 0.000523637
14 *279:51 0.00130261
15 *279:40 0.000542493
16 *279:34 0.000705342
17 *279:19 0.000762687
18 *279:8 0.000361568
19 *1765:A2 *1765:A1 9.30128e-05
20 *1765:A2 *1769:B2 1.31271e-05
21 *1767:A2 *1767:A1 0.00028291
22 *1767:A2 *476:49 1.01643e-05
23 *1769:A2 *1769:A1 8.49143e-05
24 *1769:A2 *1769:B1 0.000201529
25 *1769:A2 *1769:B2 0.000303031
26 *1769:A2 *1770:A2 0.000164228
27 *1769:A2 *476:55 7.34904e-05
28 *1771:A2 *1771:B1 8.12856e-06
29 *1771:A2 *1772:A2 0.00183857
30 *1771:A2 *1777:B2 8.8011e-05
31 *1771:A2 *1954:I 1.35491e-05
32 *1771:A2 *501:10 3.11532e-05
33 *1773:A2 *492:6 2.39483e-05
34 *1773:A2 *518:33 0.000111431
35 *1777:A2 *1844:CLK 3.53558e-05
36 *1777:A2 *477:31 0
37 *1779:A2 *1779:A1 0.000565009
38 *1779:A2 *1780:A2 1.39313e-05
39 *1779:A2 *477:23 0.000618003
40 *279:19 *1971:I 0.000254253
41 *279:19 *454:12 0.00102429
42 *279:19 *454:14 0.000553471
43 *279:19 *518:10 0.000171937
44 *279:34 *1775:A1 1.61174e-05
45 *279:34 *1779:B2 0.000306084
46 *279:34 *1780:A2 0.000616837
47 *279:34 *454:10 0.000186403
48 *279:34 *454:12 9.92405e-05
49 *279:34 *477:31 1.10094e-05
50 *279:34 *518:10 0.000199701
51 *279:40 *1775:A1 0.000174039
52 *279:40 *1775:B1 6.99566e-06
53 *279:40 *1777:A1 0.000168084
54 *279:40 *1777:B2 2.31089e-05
55 *279:40 *477:31 2.46943e-05
56 *279:51 *1777:B2 0.000119315
57 *279:51 *1844:CLK 0.000234117
58 *279:51 *477:31 1.5132e-05
59 *279:51 *477:33 8.06336e-05
60 *279:51 *477:48 3.50135e-05
61 *279:51 *498:12 8.68281e-06
62 *279:55 *1767:B2 4.72305e-06
63 *279:55 *1841:CLK 0.000430475
64 *279:55 *518:52 4.44491e-05
65 *279:57 *1841:CLK 0.00110106
66 *279:57 *518:52 0.000219448
67 *279:57 *518:58 4.03682e-05
68 *279:63 *1765:A1 0.000329596
69 *279:63 *1769:B2 2.38751e-06
70 *279:63 *1837:CLK 3.12451e-05
71 *279:63 *1841:CLK 0.000826771
72 *279:63 *1952:I 2.54602e-05
73 *279:63 *450:10 1.43879e-05
74 *279:63 *518:58 0.000269961
75 ADDR_O[1] *1771:A2 6.92926e-05
76 *1571:B1 *1764:B 8.59949e-05
77 *1571:B1 *279:8 0.000216101
78 *1842:D *1769:A2 8.43025e-06
79 *1843:D *1771:A2 0.000423952
80 *1843:D *279:55 6.34976e-05
81 *1853:D *1764:B 9.05508e-05
82 *1853:D *279:8 3.65101e-05
83 *1853:D *279:19 0
84 *1853:D *279:34 0
85 *10:24 *1769:A2 2.84401e-06
86 *262:8 *279:63 1.4774e-05
87 *262:23 *279:63 0.000114409
*RES
1 *1581:ZN *279:8 5.4 
2 *279:8 *1764:B 5.13 
3 *279:8 *279:19 8.73 
4 *279:19 *1779:A2 10.71 
5 *279:19 *279:34 9.72 
6 *279:34 *279:40 2.25 
7 *279:40 *1777:A2 4.95 
8 *279:40 *279:51 6.75 
9 *279:51 *279:55 1.98 
10 *279:55 *279:57 2.97 
11 *279:57 *279:63 9.9 
12 *279:63 *1765:A2 4.77 
13 *279:63 *1769:A2 15.48 
14 *279:57 *1767:A2 9.81 
15 *279:55 *1773:A2 10.53 
16 *279:51 *1771:A2 17.28 
17 *279:34 *1775:A2 4.5 
*END

*D_NET *280 0.00172532
*CONN
*I *1799:A1 I *D gf180mcu_fd_sc_mcu7t5v0__aoi21_1
*I *1582:ZN O *D gf180mcu_fd_sc_mcu7t5v0__nand2_1
*CAP
1 *1799:A1 7.5007e-05
2 *1582:ZN 7.5007e-05
3 *1799:A1 *1581:A2 0.000756109
4 *1799:A1 *1799:B 0.000814533
5 *1582:A2 *1799:A1 4.6613e-06
*RES
1 *1582:ZN *1799:A1 11.25 
*END

*D_NET *281 0.00250967
*CONN
*I *1594:A1 I *D gf180mcu_fd_sc_mcu7t5v0__aoi21_1
*I *1584:A2 I *D gf180mcu_fd_sc_mcu7t5v0__nand2_1
*I *1583:ZN O *D gf180mcu_fd_sc_mcu7t5v0__nand3_1
*CAP
1 *1594:A1 0.000257368
2 *1584:A2 0.000174397
3 *1583:ZN 0.000104699
4 *281:8 0.000536464
5 *1594:A1 *1574:A2 0.000230959
6 *1594:A1 *582:132 0.000425761
7 *1594:A1 *583:10 0.000137948
8 *1594:A1 *583:16 8.16691e-05
9 *281:8 *1883:CLK 5.5916e-05
10 *281:8 *583:16 0.000294431
11 *1481:A1 *281:8 4.6613e-06
12 *1491:B *1584:A2 0
13 *1493:A3 *1584:A2 1.25794e-05
14 *1584:A1 *281:8 0
15 *1892:I *1584:A2 7.55765e-06
16 *140:27 *1594:A1 6.219e-05
17 *140:33 *1584:A2 9.11911e-05
18 *140:33 *1594:A1 1.47998e-05
19 *192:12 *1584:A2 1.58979e-05
20 *192:12 *1594:A1 1.18076e-06
*RES
1 *1583:ZN *281:8 10.17 
2 *281:8 *1584:A2 10.62 
3 *281:8 *1594:A1 11.88 
*END

*D_NET *282 0.00759474
*CONN
*I *1590:B1 I *D gf180mcu_fd_sc_mcu7t5v0__oai33_1
*I *1588:A2 I *D gf180mcu_fd_sc_mcu7t5v0__oai32_1
*I *1584:ZN O *D gf180mcu_fd_sc_mcu7t5v0__nand2_1
*CAP
1 *1590:B1 2.25718e-05
2 *1588:A2 0.000156784
3 *1584:ZN 0.00131757
4 *282:8 0.00149693
5 *1588:A2 *1590:A3 0.000445488
6 *1590:B1 *1590:A3 9.04462e-05
7 *282:8 *1590:A3 9.39061e-05
8 *282:8 *1913:I 0
9 *282:8 *581:25 0
10 *282:8 *581:31 0
11 *1476:A1 *282:8 0
12 *1477:A2 *282:8 0.000118679
13 *1477:B *282:8 0
14 *1481:A2 *282:8 7.584e-06
15 *1491:B *282:8 7.95552e-06
16 *1493:A3 *282:8 2.15668e-05
17 *1494:A1 *282:8 0.000100784
18 *1494:B *282:8 6.0354e-06
19 *1552:A1 *1588:A2 0.000205471
20 *1588:A1 *1588:A2 0.00115696
21 *1588:A1 *282:8 0.000460092
22 *1590:A1 *1590:B1 3.12451e-05
23 *1590:A1 *282:8 2.08933e-05
24 *1590:A2 *1588:A2 2.36813e-05
25 *1880:D *1588:A2 0.000294431
26 *140:33 *282:8 0
27 *140:41 *282:8 0.00143828
28 *154:35 *282:8 2.39362e-05
29 *190:16 *282:8 0
30 *194:8 *282:8 6.17613e-06
31 *208:22 *282:8 4.7273e-05
*RES
1 *1584:ZN *282:8 20.61 
2 *282:8 *1588:A2 12.69 
3 *282:8 *1590:B1 9.27 
*END

*D_NET *283 0.00237851
*CONN
*I *1590:A3 I *D gf180mcu_fd_sc_mcu7t5v0__oai33_1
*I *1586:ZN O *D gf180mcu_fd_sc_mcu7t5v0__nand2_1
*CAP
1 *1590:A3 0.000338891
2 *1586:ZN 0.000338891
3 *1590:A3 *492:133 0.000925861
4 *1588:A2 *1590:A3 0.000445488
5 *1588:B1 *1590:A3 3.72269e-05
6 *1590:A1 *1590:A3 0.0001078
7 *1590:B1 *1590:A3 9.04462e-05
8 *282:8 *1590:A3 9.39061e-05
*RES
1 *1586:ZN *1590:A3 21.96 
*END

*D_NET *284 0.00117056
*CONN
*I *1588:B2 I *D gf180mcu_fd_sc_mcu7t5v0__oai32_1
*I *1587:ZN O *D gf180mcu_fd_sc_mcu7t5v0__nand4_1
*CAP
1 *1588:B2 0.000148272
2 *1587:ZN 0.000148272
3 *1588:B2 *492:133 4.71078e-05
4 *1588:B2 *585:34 0.000255088
5 *1588:B2 *585:45 0.000307423
6 *1552:A1 *1588:B2 0
7 *1586:A1 *1588:B2 1.6462e-05
8 *144:14 *1588:B2 2.89427e-06
9 *144:27 *1588:B2 0.000245037
*RES
1 *1587:ZN *1588:B2 19.98 
*END

*D_NET *285 0.00296735
*CONN
*I *1592:B I *D gf180mcu_fd_sc_mcu7t5v0__aoi211_1
*I *1591:ZN O *D gf180mcu_fd_sc_mcu7t5v0__aoi21_1
*CAP
1 *1592:B 0.000506927
2 *1591:ZN 0.000506927
3 *1592:B *1478:B 5.96002e-05
4 *1592:B *1505:A3 1.24166e-05
5 *1592:B *1574:A2 0.000100113
6 *1592:B *492:235 0.000139148
7 *1592:B *581:99 2.81341e-05
8 *1592:B *583:10 0.000446646
9 *1592:B *583:73 0.000702875
10 *1591:A2 *1592:B 0.00018454
11 *1881:D *1592:B 2.11239e-05
12 *192:8 *1592:B 0.000258897
*RES
1 *1591:ZN *1592:B 23.85 
*END

*D_NET *286 0.00158842
*CONN
*I *1594:A2 I *D gf180mcu_fd_sc_mcu7t5v0__aoi21_1
*I *1593:ZN O *D gf180mcu_fd_sc_mcu7t5v0__nand3_1
*CAP
1 *1594:A2 0.000205257
2 *1593:ZN 0.000205257
3 *1594:A2 *1569:A2 0.000147951
4 *1594:A2 *581:46 0.000319216
5 *1594:A2 *581:48 0.000142047
6 *1594:A2 *581:52 0.000345298
7 *1781:A1 *1594:A2 0.000223398
*RES
1 *1593:ZN *1594:A2 11.79 
*END

*D_NET *287 0.00175889
*CONN
*I *1596:A1 I *D gf180mcu_fd_sc_mcu7t5v0__nor2_1
*I *1599:A2 I *D gf180mcu_fd_sc_mcu7t5v0__oai22_1
*I *1595:ZN O *D gf180mcu_fd_sc_mcu7t5v0__nand2_1
*CAP
1 *1596:A1 0.000166648
2 *1599:A2 7.09274e-05
3 *1595:ZN 0.000188348
4 *287:8 0.000425924
5 *1596:A1 *1699:A3 4.59827e-06
6 *1596:A1 *1817:CLK 8.58946e-05
7 *1596:A1 *288:12 0.000102952
8 *1596:A1 *288:16 1.62518e-05
9 *1596:A1 *484:52 6.07964e-05
10 *1599:A2 *1817:CLK 4.62218e-05
11 *1599:A2 *291:14 8.58946e-05
12 *287:8 *1599:B1 0.000133776
13 *287:8 *1699:A3 3.64793e-05
14 *287:8 *289:23 4.78068e-05
15 *287:8 *484:27 0.000114819
16 *287:8 *484:46 0.000137335
17 *287:8 *484:52 3.42213e-05
*RES
1 *1595:ZN *287:8 11.25 
2 *287:8 *1599:A2 9.63 
3 *287:8 *1596:A1 10.62 
*END

*D_NET *288 0.00729231
*CONN
*I *1699:A2 I *D gf180mcu_fd_sc_mcu7t5v0__nor4_1
*I *1670:A4 I *D gf180mcu_fd_sc_mcu7t5v0__nor4_1
*I *1723:B I *D gf180mcu_fd_sc_mcu7t5v0__aoi21_1
*I *1668:A2 I *D gf180mcu_fd_sc_mcu7t5v0__nor3_1
*I *1596:ZN O *D gf180mcu_fd_sc_mcu7t5v0__nor2_1
*CAP
1 *1699:A2 3.50497e-05
2 *1670:A4 0
3 *1723:B 8.96742e-05
4 *1668:A2 3.68336e-05
5 *1596:ZN 0.00021247
6 *288:29 0.000466666
7 *288:16 0.000464018
8 *288:12 0.000297712
9 *1668:A2 *1699:A4 9.09812e-05
10 *1668:A2 *291:14 3.84635e-06
11 *1699:A2 *1817:CLK 9.12635e-05
12 *1699:A2 *291:14 6.12687e-06
13 *1723:B *1761:A2 0.00110785
14 *1723:B *485:18 0.000431877
15 *288:12 *1817:CLK 4.59142e-05
16 *288:12 *484:52 0
17 *288:12 *484:71 0.000599488
18 *288:12 *492:54 0.000186024
19 *288:12 *492:58 0.000149891
20 *288:16 *1699:A3 3.42509e-05
21 *288:16 *1699:A4 0.000430475
22 *288:16 *492:58 0.000613229
23 *288:29 *1698:A1 0.00016568
24 *288:29 *1699:A4 0.000188473
25 *288:29 *1722:A2 0.000115902
26 *288:29 *1761:A2 0.000956316
27 *288:29 *291:14 4.70138e-06
28 *288:29 *359:10 1.19161e-05
29 *288:29 *485:18 0.000218192
30 *288:29 *492:58 2.70227e-05
31 *1596:A1 *288:12 0.000102952
32 *1596:A1 *288:16 1.62518e-05
33 *1817:D *288:12 9.12635e-05
*RES
1 *1596:ZN *288:12 11.79 
2 *288:12 *288:16 6.21 
3 *288:16 *1668:A2 4.77 
4 *288:16 *288:29 8.46 
5 *288:29 *1723:B 11.79 
6 *288:29 *1670:A4 9 
7 *288:12 *1699:A2 9.27 
*END

*D_NET *289 0.0018657
*CONN
*I *1599:B1 I *D gf180mcu_fd_sc_mcu7t5v0__oai22_1
*I *1598:A1 I *D gf180mcu_fd_sc_mcu7t5v0__nor2_1
*I *1667:A1 I *D gf180mcu_fd_sc_mcu7t5v0__oai21_1
*I *1597:ZN O *D gf180mcu_fd_sc_mcu7t5v0__nand2_1
*CAP
1 *1599:B1 0.000108485
2 *1598:A1 0
3 *1667:A1 9.70162e-05
4 *1597:ZN 7.78184e-05
5 *289:23 0.000224915
6 *289:8 0.000291264
7 *1599:B1 *1599:B2 2.08042e-05
8 *1599:B1 *1763:A2 2.09122e-05
9 *1599:B1 *484:46 0.000169515
10 *1667:A1 *1670:A3 0.000100105
11 *289:8 *1670:A3 2.75951e-05
12 *289:8 *485:18 6.23445e-05
13 *289:23 *1595:A1 5.34014e-05
14 *289:23 *484:27 2.05328e-05
15 *289:23 *485:18 3.33106e-05
16 *1763:A1 *1599:B1 8.89418e-05
17 *1763:A1 *289:23 0.00023578
18 *1836:D *1599:B1 0
19 *142:33 *289:23 5.13763e-05
20 *287:8 *1599:B1 0.000133776
21 *287:8 *289:23 4.78068e-05
*RES
1 *1597:ZN *289:8 5.22 
2 *289:8 *1667:A1 5.22 
3 *289:8 *289:23 6.3 
4 *289:23 *1598:A1 9 
5 *289:23 *1599:B1 10.62 
*END

*D_NET *290 0.00200512
*CONN
*I *1699:A3 I *D gf180mcu_fd_sc_mcu7t5v0__nor4_1
*I *1668:A3 I *D gf180mcu_fd_sc_mcu7t5v0__nor3_1
*I *1598:ZN O *D gf180mcu_fd_sc_mcu7t5v0__nor2_1
*CAP
1 *1699:A3 5.37621e-05
2 *1668:A3 0
3 *1598:ZN 0.00019366
4 *290:10 0.000247422
5 *1699:A3 *1699:A4 0.000390584
6 *1699:A3 *484:46 0.000199194
7 *290:10 *1595:A2 3.65186e-05
8 *290:10 *1699:A4 0.000182206
9 *290:10 *1761:A2 6.71645e-05
10 *290:10 *1763:A2 6.01367e-05
11 *290:10 *359:10 9.04462e-05
12 *290:10 *484:27 0.000218349
13 *290:10 *484:46 0.000164916
14 *290:10 *485:18 1.36414e-05
15 *290:10 *492:58 1.17934e-05
16 *1596:A1 *1699:A3 4.59827e-06
17 *287:8 *1699:A3 3.64793e-05
18 *288:16 *1699:A3 3.42509e-05
*RES
1 *1598:ZN *290:10 11.16 
2 *290:10 *1668:A3 9 
3 *290:10 *1699:A3 10.17 
*END

*D_NET *291 0.00684369
*CONN
*I *1701:B I *D gf180mcu_fd_sc_mcu7t5v0__aoi211_1
*I *1600:I I *D gf180mcu_fd_sc_mcu7t5v0__clkinv_1
*I *1599:ZN O *D gf180mcu_fd_sc_mcu7t5v0__oai22_1
*CAP
1 *1701:B 0.000411084
2 *1600:I 0.000170298
3 *1599:ZN 0.000796926
4 *291:14 0.00137831
5 *1600:I *300:20 0
6 *1600:I *372:10 0
7 *1701:B *1700:A1 0
8 *1701:B *1818:CLK 2.77926e-05
9 *1701:B *300:20 0
10 *1701:B *361:30 2.31089e-05
11 *1701:B *492:105 9.04462e-05
12 *291:14 *1698:A1 0.00131205
13 *291:14 *1700:A4 0.000908459
14 *291:14 *1817:CLK 4.80772e-05
15 *291:14 *304:16 7.07276e-05
16 *291:14 *304:27 0.000892379
17 *291:14 *359:10 0
18 *291:14 *484:46 0.000367433
19 *291:14 *484:71 2.33596e-05
20 *1599:A2 *291:14 8.58946e-05
21 *1668:A2 *291:14 3.84635e-06
22 *1699:A2 *291:14 6.12687e-06
23 *1701:A1 *1701:B 0.000101615
24 *139:103 *291:14 0.000121054
25 *288:29 *291:14 4.70138e-06
*RES
1 *1599:ZN *291:14 18.36 
2 *291:14 *1600:I 10.17 
3 *291:14 *1701:B 11.88 
*END

*D_NET *292 0.0153971
*CONN
*I *1669:A1 I *D gf180mcu_fd_sc_mcu7t5v0__nand2_1
*I *1661:A2 I *D gf180mcu_fd_sc_mcu7t5v0__nand3_1
*I *1630:A2 I *D gf180mcu_fd_sc_mcu7t5v0__aoi21_1
*I *1600:ZN O *D gf180mcu_fd_sc_mcu7t5v0__clkinv_1
*CAP
1 *1669:A1 9.81707e-05
2 *1661:A2 2.2935e-05
3 *1630:A2 7.69248e-05
4 *1600:ZN 0.000647728
5 *292:18 0.00225395
6 *292:8 0.00289999
7 *1630:A2 *1662:A1 0.000234541
8 *1630:A2 *1662:A2 1.36885e-05
9 *1630:A2 *316:43 0.000141355
10 *1630:A2 *567:20 9.85004e-05
11 *1661:A2 *1661:A3 3.98088e-05
12 *1661:A2 *1731:A1 2.31089e-05
13 *1669:A1 *1687:A3 4.78286e-05
14 *1669:A1 *1702:A2 9.84908e-05
15 *1669:A1 *1702:A3 9.84908e-05
16 *1669:A1 *1718:A1 1.79237e-05
17 *1669:A1 *297:30 7.84068e-05
18 *1669:A1 *360:6 1.0415e-05
19 *292:8 *1687:A3 3.61249e-05
20 *292:8 *1702:A2 3.03502e-05
21 *292:8 *1726:A2 6.97788e-07
22 *292:8 *300:22 2.44668e-07
23 *292:8 *309:12 1.36099e-05
24 *292:8 *317:12 8.66004e-05
25 *292:8 *372:10 0.000203481
26 *292:18 *1662:A2 0.000176893
27 *292:18 *1726:A2 2.09336e-06
28 *292:18 *1733:A2 0.00015651
29 *292:18 *1737:A1 0.000371639
30 *292:18 *1739:A2 0.00609444
31 *292:18 *297:20 0.000566458
32 *292:18 *316:43 5.49141e-05
33 *292:18 *359:86 0.000222203
34 *292:18 *385:42 0.000325877
35 *292:18 *385:44 0.000135496
36 *292:18 *487:41 0
37 *1666:A1 *292:8 0
38 *1687:A1 *292:8 0
39 *1731:B2 *292:18 1.09807e-05
40 *126:21 *292:18 6.21988e-06
41 *138:36 *292:8 0
*RES
1 *1600:ZN *292:8 14.13 
2 *292:8 *292:18 30.51 
3 *292:18 *1630:A2 10.08 
4 *292:18 *1661:A2 9.27 
5 *292:8 *1669:A1 10.17 
*END

*D_NET *293 0.00966106
*CONN
*I *1729:A2 I *D gf180mcu_fd_sc_mcu7t5v0__nand4_1
*I *1710:A2 I *D gf180mcu_fd_sc_mcu7t5v0__nand4_1
*I *1601:ZN O *D gf180mcu_fd_sc_mcu7t5v0__nor2_1
*CAP
1 *1729:A2 0.000147757
2 *1710:A2 0.00154935
3 *1601:ZN 0
4 *293:4 0.00169711
5 *1710:A2 *1603:A3 3.91349e-05
6 *1710:A2 *1622:A2 0.00012512
7 *1710:A2 *1622:A3 0.000303573
8 *1710:A2 *1684:A1 0.000262076
9 *1710:A2 *1684:A2 0.000158788
10 *1710:A2 *1691:A2 0.000238643
11 *1710:A2 *1693:A3 0.00032357
12 *1710:A2 *1708:A3 0.0011973
13 *1710:A2 *1709:A2 0.000316683
14 *1710:A2 *1710:A1 0.000209048
15 *1710:A2 *1710:A4 0.000125365
16 *1710:A2 *1721:A1 1.98195e-05
17 *1710:A2 *1726:A1 8.87168e-05
18 *1710:A2 *295:12 0.000118831
19 *1710:A2 *299:16 0.000202261
20 *1710:A2 *300:22 0.000130184
21 *1710:A2 *309:31 1.2308e-05
22 *1710:A2 *370:12 0.000153489
23 *1710:A2 *386:18 0.000120926
24 *1710:A2 *387:14 5.25547e-05
25 *1710:A2 *480:32 2.66533e-05
26 *1710:A2 *480:42 7.21026e-05
27 *1710:A2 *487:120 0.000161805
28 *1710:A2 *489:39 0.00011337
29 *1710:A2 *489:49 2.22631e-05
30 *1710:A2 *489:68 0.00035741
31 *1710:A2 *567:77 0
32 *1710:A2 *567:88 1.31385e-05
33 *1729:A2 *1721:A1 7.41732e-05
34 *1729:A2 *489:33 0.00013316
35 *1729:A2 *489:39 0.00027605
36 *1601:A1 *1729:A2 0.000240538
37 *1625:A1 *1710:A2 0.000532185
38 *123:57 *1710:A2 2.26987e-05
39 *123:95 *1710:A2 2.28956e-05
*RES
1 *1601:ZN *293:4 4.5 
2 *293:4 *1710:A2 40.23 
3 *293:4 *1729:A2 6.21 
*END

*D_NET *294 0.00419504
*CONN
*I *1686:A4 I *D gf180mcu_fd_sc_mcu7t5v0__nand4_1
*I *1605:A4 I *D gf180mcu_fd_sc_mcu7t5v0__nand4_1
*I *1685:A4 I *D gf180mcu_fd_sc_mcu7t5v0__and4_1
*I *1602:ZN O *D gf180mcu_fd_sc_mcu7t5v0__nor2_1
*CAP
1 *1686:A4 3.78079e-05
2 *1605:A4 0
3 *1685:A4 0.000316334
4 *1602:ZN 0.000103297
5 *294:10 0.000444145
6 *294:8 0.000268917
7 *1685:A4 *1616:A1 0.000502544
8 *1685:A4 *1686:A1 8.83517e-06
9 *1685:A4 *487:72 0.000285887
10 *1685:A4 *487:74 0.00115984
11 *1685:A4 *487:76 0.000154262
12 *1686:A4 *1602:A1 0
13 *1686:A4 *487:120 0.000142883
14 *294:8 *309:31 0
15 *294:8 *487:68 0.000289482
16 *294:10 *1686:A1 1.73111e-06
17 *294:10 *487:68 4.09191e-05
18 *294:10 *487:72 0.000324784
19 *294:10 *487:120 8.56918e-05
20 *1692:A3 *294:8 2.76752e-05
*RES
1 *1602:ZN *294:8 9.99 
2 *294:8 *294:10 1.17 
3 *294:10 *1685:A4 13.23 
4 *294:10 *1605:A4 9 
5 *294:8 *1686:A4 9.45 
*END

*D_NET *295 0.00692315
*CONN
*I *1693:A2 I *D gf180mcu_fd_sc_mcu7t5v0__nand4_1
*I *1688:A3 I *D gf180mcu_fd_sc_mcu7t5v0__nand4_1
*I *1708:A3 I *D gf180mcu_fd_sc_mcu7t5v0__nand4_1
*I *1603:ZN O *D gf180mcu_fd_sc_mcu7t5v0__nor3_1
*CAP
1 *1693:A2 0
2 *1688:A3 0
3 *1708:A3 0.000625706
4 *1603:ZN 0.000147551
5 *295:12 0.000853715
6 *295:8 0.00037556
7 *1708:A3 *1694:A3 1.39464e-05
8 *1708:A3 *1709:A2 0.000322897
9 *1708:A3 *1710:A3 6.84426e-06
10 *1708:A3 *1710:A4 2.13441e-06
11 *1708:A3 *307:22 0.000155674
12 *1708:A3 *309:31 0.000651619
13 *1708:A3 *375:12 5.56454e-05
14 *1708:A3 *387:14 7.11733e-06
15 *1708:A3 *480:62 0.000349069
16 *295:8 *1603:A3 0
17 *295:8 *1691:A1 9.49421e-05
18 *295:8 *1693:A1 9.67043e-05
19 *295:8 *1694:B 0.000291749
20 *295:12 *1691:A2 0.00044291
21 *295:12 *1694:A3 4.50984e-05
22 *295:12 *309:31 0.000162347
23 *1625:A1 *295:8 0.000905787
24 *1710:A2 *1708:A3 0.0011973
25 *1710:A2 *295:12 0.000118831
*RES
1 *1603:ZN *295:8 7.38 
2 *295:8 *295:12 6.57 
3 *295:12 *1708:A3 15.93 
4 *295:12 *1688:A3 9 
5 *295:8 *1693:A2 4.5 
*END

*D_NET *296 0.000319053
*CONN
*I *1683:A2 I *D gf180mcu_fd_sc_mcu7t5v0__oai21_1
*I *1604:ZN O *D gf180mcu_fd_sc_mcu7t5v0__nand4_1
*CAP
1 *1683:A2 0.000128264
2 *1604:ZN 0.000128264
3 *1683:A2 *309:31 1.19491e-05
4 *1683:A2 *366:12 2.79026e-05
5 *124:37 *1683:A2 2.26729e-05
*RES
1 *1604:ZN *1683:A2 10.17 
*END

*D_NET *297 0.0105854
*CONN
*I *1616:A1 I *D gf180mcu_fd_sc_mcu7t5v0__nand3_1
*I *1702:A4 I *D gf180mcu_fd_sc_mcu7t5v0__nand4_1
*I *1696:A3 I *D gf180mcu_fd_sc_mcu7t5v0__nand4_1
*I *1682:A2 I *D gf180mcu_fd_sc_mcu7t5v0__nand2_1
*I *1605:ZN O *D gf180mcu_fd_sc_mcu7t5v0__nand4_1
*CAP
1 *1616:A1 0.000725582
2 *1702:A4 0
3 *1696:A3 0
4 *1682:A2 0.000176546
5 *1605:ZN 0
6 *297:30 0.000583148
7 *297:20 0.000961542
8 *297:4 0.00128052
9 *1616:A1 *1621:B 0
10 *1616:A1 *1628:A2 0.000183652
11 *1616:A1 *1686:A1 1.91584e-05
12 *1616:A1 *1703:A2 9.40954e-05
13 *1616:A1 *1706:A2 3.70642e-05
14 *1616:A1 *385:10 8.15858e-05
15 *1616:A1 *480:50 3.77483e-05
16 *1616:A1 *487:76 3.82269e-05
17 *1616:A1 *567:45 0.000167848
18 *1682:A2 *1666:A2 1.84476e-05
19 *1682:A2 *1698:A2 0.000167319
20 *1682:A2 *317:12 5.5916e-05
21 *1682:A2 *317:16 0.000107788
22 *297:20 *1692:A1 0.000163704
23 *297:20 *1692:A2 0.000106536
24 *297:20 *1694:A3 0.000100647
25 *297:20 *1702:A3 8.05869e-05
26 *297:20 *307:22 0.000367843
27 *297:20 *317:45 6.44696e-05
28 *297:20 *483:63 3.92172e-06
29 *297:20 *490:97 6.34901e-05
30 *297:20 *567:51 3.42783e-05
31 *297:30 *1666:A2 0.000480268
32 *297:30 *1700:A4 3.60189e-05
33 *297:30 *1702:A3 1.61174e-05
34 *297:30 *317:12 0.000114129
35 *297:30 *317:45 0.000303259
36 *297:30 *356:88 3.0177e-06
37 *297:30 *360:6 0.000366407
38 *297:30 *422:30 0.000339214
39 *297:30 *486:114 0.000866087
40 *1666:A1 *297:30 0.000228716
41 *1669:A1 *297:30 7.84068e-05
42 *1685:A4 *1616:A1 0.000502544
43 *1703:A1 *1616:A1 0.000460458
44 *138:16 *297:30 8.9944e-05
45 *138:36 *297:30 4.011e-05
46 *139:76 *1682:A2 0.000372615
47 *292:18 *297:20 0.000566458
*RES
1 *1605:ZN *297:4 4.5 
2 *297:4 *297:20 23.94 
3 *297:20 *297:30 15.75 
4 *297:30 *1682:A2 15.66 
5 *297:30 *1696:A3 4.5 
6 *297:20 *1702:A4 4.5 
7 *297:4 *1616:A1 20.34 
*END

*D_NET *298 0.00286686
*CONN
*I *1628:A1 I *D gf180mcu_fd_sc_mcu7t5v0__aoi21_1
*I *1710:A3 I *D gf180mcu_fd_sc_mcu7t5v0__nand4_1
*I *1606:ZN O *D gf180mcu_fd_sc_mcu7t5v0__nor2_1
*CAP
1 *1628:A1 0.000273992
2 *1710:A3 0.000504735
3 *1606:ZN 0.000163252
4 *298:8 0.00094198
5 *1628:A1 *1628:A2 5.97457e-06
6 *1628:A1 *1628:B 0.00037349
7 *1628:A1 *1705:B 1.79237e-05
8 *1628:A1 *375:12 0
9 *1628:A1 *382:6 0
10 *1628:A1 *485:43 0.000126756
11 *1628:A1 *485:55 6.72567e-05
12 *1628:A1 *486:42 9.90362e-06
13 *1710:A3 *1710:A4 0.000171937
14 *1710:A3 *1713:A3 0
15 *1710:A3 *485:55 1.91657e-05
16 *298:8 *485:43 0.000183652
17 *1708:A3 *1710:A3 6.84426e-06
*RES
1 *1606:ZN *298:8 5.94 
2 *298:8 *1710:A3 16.65 
3 *298:8 *1628:A1 7.29 
*END

*D_NET *299 0.0233373
*CONN
*I *1635:B I *D gf180mcu_fd_sc_mcu7t5v0__aoi21_1
*I *1694:A2 I *D gf180mcu_fd_sc_mcu7t5v0__oai31_1
*I *1693:A1 I *D gf180mcu_fd_sc_mcu7t5v0__nand4_1
*I *1729:A3 I *D gf180mcu_fd_sc_mcu7t5v0__nand4_1
*I *1614:A1 I *D gf180mcu_fd_sc_mcu7t5v0__nand2_1
*I *1621:B I *D gf180mcu_fd_sc_mcu7t5v0__aoi21_1
*I *1616:A2 I *D gf180mcu_fd_sc_mcu7t5v0__nand3_1
*I *1703:B I *D gf180mcu_fd_sc_mcu7t5v0__aoi21_1
*I *1607:ZN O *D gf180mcu_fd_sc_mcu7t5v0__nand2_1
*CAP
1 *1635:B 0.000434941
2 *1694:A2 0
3 *1693:A1 0.000151901
4 *1729:A3 0
5 *1614:A1 0.000504781
6 *1621:B 0.000105102
7 *1616:A2 0
8 *1703:B 0.000178521
9 *1607:ZN 0
10 *299:89 0.00163379
11 *299:83 0.00195666
12 *299:74 0.000288927
13 *299:26 0.000260265
14 *299:20 0.000279564
15 *299:16 0.00161923
16 *299:4 0.00127082
17 *1614:A1 *1614:A2 0.00123037
18 *1614:A1 *567:20 0.000891125
19 *1614:A1 *567:30 0.00118759
20 *1621:B *1623:B1 0.000344254
21 *1621:B *1685:A1 0.000145218
22 *1621:B *1706:A1 1.18477e-05
23 *1621:B *386:18 0.000145218
24 *1635:B *1608:A2 2.52774e-05
25 *1635:B *1634:B 0
26 *1635:B *1721:A1 1.00917e-05
27 *1635:B *1730:A2 0.000224146
28 *1635:B *351:26 0.000258308
29 *1635:B *489:6 6.02974e-05
30 *1635:B *489:12 0.00048874
31 *1693:A1 *1610:A3 0
32 *1693:A1 *1691:A1 0.00048604
33 *1693:A1 *1694:B 0.000646023
34 *1703:B *1623:A1 0
35 *1703:B *1623:A2 0.000560019
36 *1703:B *1628:A2 1.27919e-05
37 *1703:B *1706:B 0.000164693
38 *1703:B *382:6 3.22348e-05
39 *299:16 *1604:A4 5.52338e-05
40 *299:16 *1612:A2 0.000168424
41 *299:16 *1622:A3 3.15639e-05
42 *299:16 *1623:A3 0.00174056
43 *299:16 *1623:B1 1.47105e-05
44 *299:16 *1707:B1 7.64901e-05
45 *299:16 *403:14 0.00012512
46 *299:16 *480:32 0.000734673
47 *299:16 *480:42 5.44715e-05
48 *299:16 *488:68 0.000457955
49 *299:16 *489:39 3.92905e-06
50 *299:16 *489:49 0.000164228
51 *299:16 *490:52 5.678e-05
52 *299:16 *490:76 5.28249e-05
53 *299:16 *490:87 0.00014259
54 *299:20 *567:30 0.000381221
55 *299:26 *1623:A2 5.82028e-05
56 *299:26 *1623:B1 0.000146059
57 *299:26 *1628:A2 9.96101e-05
58 *299:74 *1620:A2 0.000143583
59 *299:74 *1745:A1 0.000290119
60 *299:74 *300:81 0.000227882
61 *299:74 *480:32 0.00011349
62 *299:74 *480:114 0.000101425
63 *299:74 *489:33 0.000155226
64 *299:74 *489:39 3.07932e-05
65 *299:83 *1620:A2 3.8182e-05
66 *299:83 *1729:A4 0.00016583
67 *299:83 *300:81 0.000128346
68 *1616:A1 *1621:B 0
69 *1660:B *1635:B 0.000654113
70 *1683:A1 *299:16 9.52721e-05
71 *1703:A1 *1621:B 4.843e-05
72 *1703:A1 *1703:B 0.000643498
73 *1703:A1 *299:26 2.87341e-05
74 *1710:A2 *299:16 0.000202261
75 *123:95 *1693:A1 0
76 *295:8 *1693:A1 9.67043e-05
*RES
1 *1607:ZN *299:4 4.5 
2 *299:4 *299:16 20.34 
3 *299:16 *299:20 5.49 
4 *299:20 *299:26 5.4 
5 *299:26 *1703:B 7.83 
6 *299:26 *1616:A2 4.5 
7 *299:20 *1621:B 10.44 
8 *299:16 *1614:A1 20.52 
9 *299:4 *299:74 7.83 
10 *299:74 *1729:A3 9 
11 *299:74 *299:83 0.81 
12 *299:83 *299:89 17.01 
13 *299:89 *1693:A1 11.34 
14 *299:89 *1694:A2 9 
15 *299:83 *1635:B 13.77 
*END

*D_NET *300 0.0237558
*CONN
*I *1613:A2 I *D gf180mcu_fd_sc_mcu7t5v0__nand4_1
*I *1736:A4 I *D gf180mcu_fd_sc_mcu7t5v0__nor4_1
*I *1729:A4 I *D gf180mcu_fd_sc_mcu7t5v0__nand4_1
*I *1700:A2 I *D gf180mcu_fd_sc_mcu7t5v0__nand4_1
*I *1689:A1 I *D gf180mcu_fd_sc_mcu7t5v0__aoi21_1
*I *1692:A2 I *D gf180mcu_fd_sc_mcu7t5v0__nand4_1
*I *1710:A4 I *D gf180mcu_fd_sc_mcu7t5v0__nand4_1
*I *1608:ZN O *D gf180mcu_fd_sc_mcu7t5v0__nor2_1
*CAP
1 *1613:A2 0
2 *1736:A4 0.000531154
3 *1729:A4 5.75371e-05
4 *1700:A2 0
5 *1689:A1 0
6 *1692:A2 0.000273838
7 *1710:A4 0.000417897
8 *1608:ZN 0
9 *300:81 0.0012473
10 *300:62 0.000850362
11 *300:22 0.00104647
12 *300:20 0.000587742
13 *300:16 0.000553972
14 *300:4 0.000397645
15 *1692:A2 *1692:A1 0
16 *1692:A2 *1709:A3 0.00015507
17 *1692:A2 *307:22 6.62654e-05
18 *1692:A2 *317:45 3.01487e-05
19 *1692:A2 *388:18 4.53024e-05
20 *1692:A2 *483:63 0.000204056
21 *1710:A4 *1713:A3 0
22 *1710:A4 *1726:A1 0.000137859
23 *1710:A4 *1726:A2 0.000779526
24 *1710:A4 *387:14 0.000100267
25 *1710:A4 *388:18 5.37336e-05
26 *1729:A4 *1608:A1 6.81154e-05
27 *1729:A4 *1620:A2 0.000124055
28 *1729:A4 *1634:B 3.1302e-05
29 *1729:A4 *1721:A1 9.85004e-05
30 *1736:A4 *1613:A1 5.20456e-05
31 *1736:A4 *1736:A2 0.000217048
32 *1736:A4 *1746:A2 9.88967e-05
33 *1736:A4 *1747:A1 2.60665e-06
34 *1736:A4 *1748:A1 0.000292516
35 *1736:A4 *305:12 0
36 *1736:A4 *490:29 0.000331082
37 *300:16 *1608:A1 9.04462e-05
38 *300:16 *1608:A2 3.01487e-05
39 *300:16 *1634:B 5.60661e-06
40 *300:16 *1689:B 0.00225467
41 *300:16 *1695:S 0.00015651
42 *300:16 *316:125 0.000826709
43 *300:16 *359:40 0.000164219
44 *300:16 *484:71 0.00056881
45 *300:20 *1689:B 4.843e-05
46 *300:20 *1700:A3 0.000167278
47 *300:20 *359:40 0
48 *300:20 *372:10 0.000127778
49 *300:22 *1689:B 1.17934e-05
50 *300:22 *1691:A2 4.93098e-06
51 *300:22 *1702:A2 0.000240827
52 *300:22 *1726:A2 0.00038692
53 *300:22 *359:25 9.556e-05
54 *300:22 *370:12 0.000581297
55 *300:22 *372:10 0.00178661
56 *300:62 *1608:A1 9.04462e-05
57 *300:62 *1608:A2 6.02974e-05
58 *300:62 *1634:B 0.000343864
59 *300:81 *1744:A1 1.56087e-05
60 *300:81 *1744:A2 5.74032e-05
61 *300:81 *1745:A2 0.000648015
62 *300:81 *1745:B 0.000363869
63 *300:81 *1747:A1 0.000154363
64 *300:81 *1748:A1 8.7594e-05
65 *300:81 *1751:A1 2.76189e-05
66 *300:81 *385:38 5.45553e-05
67 *300:81 *480:28 7.1331e-05
68 *300:81 *480:114 1.7368e-05
69 *1600:I *300:20 0
70 *1613:A3 *300:81 1.0415e-05
71 *1625:A1 *300:22 0.000473735
72 *1701:B *300:20 0
73 *1708:A3 *1710:A4 2.13441e-06
74 *1710:A2 *1710:A4 0.000125365
75 *1710:A2 *300:22 0.000130184
76 *1710:A3 *1710:A4 0.000171937
77 *1736:A3 *1736:A4 2.69292e-05
78 *124:10 *300:81 5.30918e-06
79 *124:33 *300:81 0.000227032
80 *125:16 *1736:A4 2.36152e-06
81 *139:103 *300:16 0.00346065
82 *139:103 *300:62 2.42051e-05
83 *139:103 *300:81 7.34904e-05
84 *292:8 *300:22 2.44668e-07
85 *297:20 *1692:A2 0.000106536
86 *299:74 *300:81 0.000227882
87 *299:83 *1729:A4 0.00016583
88 *299:83 *300:81 0.000128346
*RES
1 *1608:ZN *300:4 4.5 
2 *300:4 *300:16 19.98 
3 *300:16 *300:20 6.39 
4 *300:20 *300:22 6.57 
5 *300:22 *1710:A4 13.05 
6 *300:22 *1692:A2 11.97 
7 *300:20 *1689:A1 9 
8 *300:16 *1700:A2 4.5 
9 *300:4 *300:62 5.76 
10 *300:62 *1729:A4 10.08 
11 *300:62 *300:81 11.79 
12 *300:81 *1736:A4 17.73 
13 *300:81 *1613:A2 4.5 
*END

*D_NET *301 0.00866106
*CONN
*I *1612:A2 I *D gf180mcu_fd_sc_mcu7t5v0__nor4_1
*I *1690:A1 I *D gf180mcu_fd_sc_mcu7t5v0__oai22_1
*I *1707:A1 I *D gf180mcu_fd_sc_mcu7t5v0__oai221_1
*I *1728:B I *D gf180mcu_fd_sc_mcu7t5v0__aoi211_1
*I *1609:ZN O *D gf180mcu_fd_sc_mcu7t5v0__nand2_1
*CAP
1 *1612:A2 0.000597208
2 *1690:A1 0
3 *1707:A1 0
4 *1728:B 0.000151917
5 *1609:ZN 0.000183682
6 *301:12 0.000248438
7 *301:10 0.00020197
8 *301:8 0.00088634
9 *1612:A2 *1604:A4 0.000109874
10 *1612:A2 *1691:A1 0
11 *1612:A2 *1707:C 0.000296926
12 *1612:A2 *1721:A1 0.000151417
13 *1612:A2 *356:42 0.0012027
14 *1612:A2 *489:39 0.00035741
15 *1612:A2 *489:49 6.10987e-05
16 *1612:A2 *490:87 0.000129087
17 *1728:B *1616:A3 0.000330103
18 *1728:B *1623:A1 0.000101624
19 *1728:B *1690:A2 0.000145765
20 *1728:B *303:14 0.000289405
21 *1728:B *490:50 3.73774e-06
22 *301:8 *385:27 4.26496e-05
23 *301:8 *403:14 0.00092587
24 *301:10 *1690:A2 0.000153283
25 *301:10 *1707:C 0.00016287
26 *301:10 *490:87 0.000206695
27 *301:12 *1690:A2 0.000534309
28 *301:12 *490:76 4.6977e-05
29 *301:12 *490:87 5.62747e-05
30 *1610:A2 *1612:A2 0
31 *1690:B2 *1728:B 0.000255088
32 *1690:B2 *301:12 0.000231483
33 *1746:B *301:8 0.000428433
34 *299:16 *1612:A2 0.000168424
*RES
1 *1609:ZN *301:8 11.61 
2 *301:8 *301:10 1.53 
3 *301:10 *301:12 1.53 
4 *301:12 *1728:B 11.34 
5 *301:12 *1707:A1 9 
6 *301:10 *1690:A1 9 
7 *301:8 *1612:A2 16.47 
*END

*D_NET *302 0.00316644
*CONN
*I *1700:A3 I *D gf180mcu_fd_sc_mcu7t5v0__nand4_1
*I *1689:A2 I *D gf180mcu_fd_sc_mcu7t5v0__aoi21_1
*I *1610:ZN O *D gf180mcu_fd_sc_mcu7t5v0__nor3_1
*CAP
1 *1700:A3 6.27041e-05
2 *1689:A2 1.62668e-05
3 *1610:ZN 0.000421008
4 *302:18 0.000499979
5 *1689:A2 *1691:A3 3.55118e-05
6 *1689:A2 *372:10 0.000106536
7 *1700:A3 *1689:B 0.000247389
8 *1700:A3 *359:40 8.54106e-06
9 *302:18 *1689:B 0.00015079
10 *302:18 *1691:A3 0.000177026
11 *302:18 *1694:A1 8.05869e-05
12 *302:18 *1695:S 0.000100105
13 *302:18 *304:16 0.000646917
14 *302:18 *359:25 0.000235076
15 *302:18 *359:40 3.22348e-05
16 *123:95 *302:18 0.000155486
17 *139:103 *1689:A2 1.56779e-05
18 *139:103 *302:18 7.32062e-06
19 *300:20 *1700:A3 0.000167278
*RES
1 *1610:ZN *302:18 10.35 
2 *302:18 *1689:A2 4.77 
3 *302:18 *1700:A3 14.49 
*END

*D_NET *303 0.00476966
*CONN
*I *1728:C I *D gf180mcu_fd_sc_mcu7t5v0__aoi211_1
*I *1707:A2 I *D gf180mcu_fd_sc_mcu7t5v0__oai221_1
*I *1690:A2 I *D gf180mcu_fd_sc_mcu7t5v0__oai22_1
*I *1623:A1 I *D gf180mcu_fd_sc_mcu7t5v0__oai32_1
*I *1611:ZN O *D gf180mcu_fd_sc_mcu7t5v0__nand3_1
*CAP
1 *1728:C 0
2 *1707:A2 0
3 *1690:A2 8.15106e-05
4 *1623:A1 0.000218046
5 *1611:ZN 0.000190172
6 *303:16 0.000299557
7 *303:14 0.000103817
8 *303:12 0.00029399
9 *1623:A1 *1616:A3 0.000408449
10 *1623:A1 *1628:A2 0.000116385
11 *1623:A1 *1707:C 0.000164219
12 *1623:A1 *485:55 6.97788e-07
13 *1623:A1 *485:64 9.82424e-06
14 *1690:A2 *1707:C 0.000795001
15 *303:12 *1616:A3 1.84476e-05
16 *303:12 *1731:A1 9.04462e-05
17 *303:12 *305:12 1.17455e-05
18 *303:12 *486:63 0.000403964
19 *303:14 *1731:A1 0.000158788
20 *303:14 *490:50 3.11786e-05
21 *1690:B2 *1623:A1 7.69881e-05
22 *1703:B *1623:A1 0
23 *1728:B *1623:A1 0.000101624
24 *1728:B *1690:A2 0.000145765
25 *1728:B *303:14 0.000289405
26 *134:38 *1623:A1 7.20436e-05
27 *301:10 *1690:A2 0.000153283
28 *301:12 *1690:A2 0.000534309
*RES
1 *1611:ZN *303:12 14.94 
2 *303:12 *303:14 1.17 
3 *303:14 *303:16 4.5 
4 *303:16 *1623:A1 11.79 
5 *303:16 *1690:A2 11.25 
6 *303:14 *1707:A2 4.5 
7 *303:12 *1728:C 4.5 
*END

*D_NET *304 0.00914198
*CONN
*I *1697:I0 I *D gf180mcu_fd_sc_mcu7t5v0__mux2_2
*I *1698:A1 I *D gf180mcu_fd_sc_mcu7t5v0__aoi21_1
*I *1721:A2 I *D gf180mcu_fd_sc_mcu7t5v0__aoi21_1
*I *1612:ZN O *D gf180mcu_fd_sc_mcu7t5v0__nor4_1
*CAP
1 *1697:I0 0
2 *1698:A1 0.000292044
3 *1721:A2 3.44897e-05
4 *1612:ZN 0.000702527
5 *304:27 0.000527702
6 *304:16 0.000972675
7 *1698:A1 *1697:S 4.83522e-05
8 *1698:A1 *1698:A2 4.34121e-06
9 *1698:A1 *1722:A2 0.000301809
10 *1698:A1 *359:10 0
11 *304:16 *1610:A3 0.000213904
12 *304:16 *1689:B 0.000148939
13 *304:16 *1691:A3 0.000177026
14 *304:16 *1700:A4 6.16698e-05
15 *304:16 *1721:A1 0.000783441
16 *304:16 *372:10 0.000229822
17 *304:27 *1697:S 9.16703e-05
18 *304:27 *1721:B 0
19 *304:27 *1722:A2 7.34423e-05
20 *1610:A2 *304:16 0.000507492
21 *1612:A1 *304:16 1.61174e-05
22 *123:85 *304:16 0.000666489
23 *123:95 *304:16 0.000200267
24 *288:29 *1698:A1 0.00016568
25 *291:14 *1698:A1 0.00131205
26 *291:14 *304:16 7.07276e-05
27 *291:14 *304:27 0.000892379
28 *302:18 *304:16 0.000646917
*RES
1 *1612:ZN *304:16 14.94 
2 *304:16 *1721:A2 4.77 
3 *304:16 *304:27 3.06 
4 *304:27 *1698:A1 9.45 
5 *304:27 *1697:I0 4.5 
*END

*D_NET *305 0.00907247
*CONN
*I *1744:A1 I *D gf180mcu_fd_sc_mcu7t5v0__oai221_1
*I *1614:A2 I *D gf180mcu_fd_sc_mcu7t5v0__nand2_1
*I *1616:A3 I *D gf180mcu_fd_sc_mcu7t5v0__nand3_1
*I *1613:ZN O *D gf180mcu_fd_sc_mcu7t5v0__nand4_1
*CAP
1 *1744:A1 6.3034e-05
2 *1614:A2 0.000244682
3 *1616:A3 0.000358754
4 *1613:ZN 4.76709e-05
5 *305:12 0.001353
6 *305:8 0.000860268
7 *1614:A2 *1731:A1 0.000236014
8 *1614:A2 *567:20 4.83522e-05
9 *1616:A3 *1623:A2 0.0004846
10 *1616:A3 *1628:A2 7.55765e-06
11 *1616:A3 *1685:A1 0.0001078
12 *1616:A3 *1731:A1 7.07276e-05
13 *1616:A3 *386:18 1.4382e-06
14 *1616:A3 *490:50 0
15 *1616:A3 *567:20 1.61174e-05
16 *1616:A3 *567:30 6.44696e-05
17 *1744:A1 *1747:A1 6.58723e-05
18 *1744:A1 *480:28 0.00038692
19 *305:8 *487:51 0.000334562
20 *305:12 *480:28 0.000416021
21 *305:12 *486:63 0
22 *1614:A1 *1614:A2 0.00123037
23 *1623:A1 *1616:A3 0.000408449
24 *1703:A1 *1616:A3 0.000130381
25 *1728:B *1616:A3 0.000330103
26 *1736:A3 *305:12 6.53133e-05
27 *1736:A4 *305:12 0
28 *123:44 *305:12 9.44609e-06
29 *123:57 *305:12 3.53326e-05
30 *124:33 *305:8 0.000334562
31 *125:16 *305:12 0.000698984
32 *125:34 *1744:A1 0.000146939
33 *125:34 *305:12 0.000113228
34 *134:8 *1616:A3 0.000162562
35 *134:38 *1616:A3 0.000193141
36 *300:81 *1744:A1 1.56087e-05
37 *303:12 *1616:A3 1.84476e-05
38 *303:12 *305:12 1.17455e-05
*RES
1 *1613:ZN *305:8 9.99 
2 *305:8 *305:12 10.17 
3 *305:12 *1616:A3 9.63 
4 *305:12 *1614:A2 8.19 
5 *305:8 *1744:A1 10.17 
*END

*D_NET *306 0.000586337
*CONN
*I *1661:A3 I *D gf180mcu_fd_sc_mcu7t5v0__nand3_1
*I *1614:ZN O *D gf180mcu_fd_sc_mcu7t5v0__nand2_1
*CAP
1 *1661:A3 8.44251e-05
2 *1614:ZN 8.44251e-05
3 *1661:A3 *1731:A1 2.56311e-05
4 *1661:A3 *567:20 0.000352047
5 *1661:A2 *1661:A3 3.98088e-05
*RES
1 *1614:ZN *1661:A3 9.99 
*END

*D_NET *307 0.00255494
*CONN
*I *1709:A1 I *D gf180mcu_fd_sc_mcu7t5v0__nand3_1
*I *1725:B I *D gf180mcu_fd_sc_mcu7t5v0__oai211_1
*I *1615:ZN O *D gf180mcu_fd_sc_mcu7t5v0__nand4_1
*CAP
1 *1709:A1 0
2 *1725:B 0.000103092
3 *1615:ZN 0.000496362
4 *307:22 0.000599454
5 *1725:B *1702:A3 0.000130361
6 *1725:B *388:18 8.33579e-05
7 *307:22 *1605:A3 0.000244531
8 *307:22 *1694:A3 9.94002e-06
9 *307:22 *1702:A3 0.000124167
10 *307:22 *388:18 0.000114246
11 *307:22 *490:97 5.96479e-05
12 *1692:A2 *307:22 6.62654e-05
13 *1692:A3 *307:22 0
14 *1708:A3 *307:22 0.000155674
15 *297:20 *307:22 0.000367843
*RES
1 *1615:ZN *307:22 18.45 
2 *307:22 *1725:B 5.49 
3 *307:22 *1709:A1 4.5 
*END

*D_NET *308 0.000711165
*CONN
*I *1629:A1 I *D gf180mcu_fd_sc_mcu7t5v0__nand3_1
*I *1616:ZN O *D gf180mcu_fd_sc_mcu7t5v0__nand3_1
*CAP
1 *1629:A1 0.000281728
2 *1616:ZN 0.000281728
3 *1629:A1 *1623:B2 6.93035e-05
4 *1629:A1 *1969:I 7.84068e-05
*RES
1 *1616:ZN *1629:A1 19.8 
*END

*D_NET *309 0.0136275
*CONN
*I *1753:A2 I *D gf180mcu_fd_sc_mcu7t5v0__nand4_1
*I *1751:A2 I *D gf180mcu_fd_sc_mcu7t5v0__nand4_1
*I *1683:B I *D gf180mcu_fd_sc_mcu7t5v0__oai21_1
*I *1702:A1 I *D gf180mcu_fd_sc_mcu7t5v0__nand4_1
*I *1617:ZN O *D gf180mcu_fd_sc_mcu7t5v0__nor2_1
*CAP
1 *1753:A2 0
2 *1751:A2 0.000230998
3 *1683:B 0
4 *1702:A1 0
5 *1617:ZN 0.00020027
6 *309:48 0.00174862
7 *309:31 0.00233614
8 *309:12 0.00101879
9 *1751:A2 *1753:A3 3.48116e-05
10 *1751:A2 *1753:A4 0.000361038
11 *1751:A2 *422:30 0
12 *1751:A2 *422:41 0
13 *1751:A2 *488:37 2.75886e-05
14 *309:12 *1687:A3 3.61249e-05
15 *309:12 *422:30 0.000110231
16 *309:31 *1686:A3 1.43546e-05
17 *309:31 *1694:A3 0.000105579
18 *309:31 *366:12 3.6834e-05
19 *309:31 *422:30 0.000256804
20 *309:31 *487:120 0.000372037
21 *309:31 *489:49 0.00015123
22 *309:31 *489:68 4.57916e-05
23 *309:31 *567:77 0.000559764
24 *309:48 *1622:A2 0.000354719
25 *309:48 *1744:B2 0.00017123
26 *309:48 *1744:C 0.000215799
27 *309:48 *1745:A1 0.000201502
28 *309:48 *1751:A1 3.29869e-06
29 *309:48 *1753:A3 1.97748e-06
30 *309:48 *1753:A4 5.60661e-06
31 *309:48 *1754:B 3.22122e-05
32 *309:48 *480:32 0.000114044
33 *309:48 *487:41 9.04462e-05
34 *309:48 *487:45 0.000289489
35 *309:48 *488:37 0.00186971
36 *309:48 *488:39 3.59064e-05
37 *309:48 *488:49 0.000131469
38 *309:48 *489:33 2.93619e-05
39 *309:48 *489:49 9.28737e-05
40 *1683:A2 *309:31 1.19491e-05
41 *1687:A1 *309:12 7.50811e-05
42 *1692:A3 *309:31 0
43 *1708:A3 *309:31 0.000651619
44 *1710:A2 *309:31 1.2308e-05
45 *124:35 *309:48 0
46 *124:37 *309:48 0
47 *124:83 *309:48 0
48 *137:14 *309:48 2.03826e-05
49 *138:36 *309:12 5.01515e-05
50 *142:14 *309:12 0.000401206
51 *142:14 *309:31 0.000942195
52 *292:8 *309:12 1.36099e-05
53 *294:8 *309:31 0
54 *295:12 *309:31 0.000162347
*RES
1 *1617:ZN *309:12 15.66 
2 *309:12 *1702:A1 13.5 
3 *309:12 *309:31 18.63 
4 *309:31 *1683:B 4.5 
5 *309:31 *309:48 13.68 
6 *309:48 *1751:A2 15.21 
7 *309:48 *1753:A2 4.5 
*END

*D_NET *310 0.00071676
*CONN
*I *1619:A1 I *D gf180mcu_fd_sc_mcu7t5v0__nor2_1
*I *1618:ZN O *D gf180mcu_fd_sc_mcu7t5v0__nand2_1
*CAP
1 *1619:A1 0.000113806
2 *1618:ZN 0.000113806
3 *1619:A1 *311:12 0.000177559
4 *1619:A1 *485:43 1.19491e-05
5 *1619:A1 *486:29 0.000110838
6 *1619:A1 *486:42 1.61174e-05
7 *138:12 *1619:A1 0.000172683
*RES
1 *1618:ZN *1619:A1 10.53 
*END

*D_NET *311 0.00523122
*CONN
*I *1623:B2 I *D gf180mcu_fd_sc_mcu7t5v0__oai32_1
*I *1708:A4 I *D gf180mcu_fd_sc_mcu7t5v0__nand4_1
*I *1619:ZN O *D gf180mcu_fd_sc_mcu7t5v0__nor2_1
*CAP
1 *1623:B2 0.00064564
2 *1708:A4 0
3 *1619:ZN 0.000429216
4 *311:12 0.00107486
5 *1623:B2 *1623:A2 4.47101e-05
6 *1623:B2 *1628:A2 0.00107532
7 *1623:B2 *1629:A2 4.83522e-05
8 *1623:B2 *1629:A3 5.69319e-05
9 *1623:B2 *1703:A2 3.48193e-05
10 *1623:B2 *1706:B 0.000252844
11 *1623:B2 *1969:I 4.18632e-05
12 *1623:B2 *375:12 9.78505e-05
13 *1623:B2 *386:18 0.000141427
14 *1623:B2 *567:45 4.93782e-06
15 *1623:B2 *567:51 3.97987e-05
16 *311:12 *1704:A2 8.71641e-05
17 *311:12 *1706:B 0.000231246
18 *311:12 *1712:A1 7.71476e-06
19 *311:12 *1713:A2 0.00015997
20 *311:12 *1715:A2 2.19007e-05
21 *311:12 *386:18 0.000151558
22 *311:12 *486:42 9.57035e-05
23 *1619:A1 *311:12 0.000177559
24 *1629:A1 *1623:B2 6.93035e-05
25 *138:12 *311:12 3.55118e-05
26 *138:73 *311:12 0.000205026
*RES
1 *1619:ZN *311:12 9.54 
2 *311:12 *1708:A4 4.5 
3 *311:12 *1623:B2 20.52 
*END

*D_NET *312 0.00437329
*CONN
*I *1634:B I *D gf180mcu_fd_sc_mcu7t5v0__aoi21_1
*I *1622:A1 I *D gf180mcu_fd_sc_mcu7t5v0__nand3_1
*I *1620:ZN O *D gf180mcu_fd_sc_mcu7t5v0__nand2_1
*CAP
1 *1634:B 0.000539256
2 *1622:A1 0.000228091
3 *1620:ZN 0
4 *312:4 0.000767347
5 *1622:A1 *1620:A2 1.07374e-05
6 *1622:A1 *316:99 0
7 *1622:A1 *316:125 6.31783e-05
8 *1622:A1 *356:42 0.000441629
9 *1634:B *1608:A1 0.000546549
10 *1634:B *1608:A2 0.00013218
11 *1634:B *1620:A2 9.86752e-05
12 *1634:B *316:97 0.000252681
13 *1634:B *316:125 6.317e-05
14 *1634:B *351:26 0.000286386
15 *1634:B *489:12 0
16 *1635:B *1634:B 0
17 *1729:A4 *1634:B 3.1302e-05
18 *123:72 *1622:A1 3.02306e-05
19 *123:74 *1622:A1 3.29477e-05
20 *139:103 *1634:B 0.000499457
21 *300:16 *1634:B 5.60661e-06
22 *300:62 *1634:B 0.000343864
*RES
1 *1620:ZN *312:4 4.5 
2 *312:4 *1622:A1 15.66 
3 *312:4 *1634:B 19.89 
*END

*D_NET *313 0.00140927
*CONN
*I *1623:B1 I *D gf180mcu_fd_sc_mcu7t5v0__oai32_1
*I *1621:ZN O *D gf180mcu_fd_sc_mcu7t5v0__aoi21_1
*CAP
1 *1623:B1 0.000249759
2 *1621:ZN 0.000249759
3 *1623:B1 *1623:A3 2.07943e-05
4 *1623:B1 *1706:A1 3.31833e-05
5 *1621:B *1623:B1 0.000344254
6 *1690:B2 *1623:B1 0
7 *1703:A1 *1623:B1 0.000289443
8 *123:10 *1623:B1 6.13133e-05
9 *299:16 *1623:B1 1.47105e-05
10 *299:26 *1623:B1 0.000146059
*RES
1 *1621:ZN *1623:B1 20.25 
*END

*D_NET *314 0.000905855
*CONN
*I *1684:A1 I *D gf180mcu_fd_sc_mcu7t5v0__nand2_1
*I *1622:ZN O *D gf180mcu_fd_sc_mcu7t5v0__nand3_1
*CAP
1 *1684:A1 0.000216476
2 *1622:ZN 0.000216476
3 *1684:A1 *1684:A2 4.62661e-05
4 *1684:A1 *1721:A1 6.14858e-05
5 *1684:A1 *489:39 0.000103075
6 *1710:A2 *1684:A1 0.000262076
*RES
1 *1622:ZN *1684:A1 11.43 
*END

*D_NET *315 0.000391126
*CONN
*I *1629:A2 I *D gf180mcu_fd_sc_mcu7t5v0__nand3_1
*I *1623:ZN O *D gf180mcu_fd_sc_mcu7t5v0__oai32_1
*CAP
1 *1629:A2 0.000167073
2 *1623:ZN 0.000167073
3 *1629:A2 *1628:A2 8.62786e-06
4 *1623:B2 *1629:A2 4.83522e-05
*RES
1 *1623:ZN *1629:A2 10.35 
*END

*D_NET *316 0.0333858
*CONN
*I *1751:A3 I *D gf180mcu_fd_sc_mcu7t5v0__nand4_1
*I *1677:A2 I *D gf180mcu_fd_sc_mcu7t5v0__nand4_1
*I *1673:A2 I *D gf180mcu_fd_sc_mcu7t5v0__nand4_1
*I *1671:A2 I *D gf180mcu_fd_sc_mcu7t5v0__nand4_1
*I *1689:B I *D gf180mcu_fd_sc_mcu7t5v0__aoi21_1
*I *1745:A1 I *D gf180mcu_fd_sc_mcu7t5v0__oai21_1
*I *1744:B1 I *D gf180mcu_fd_sc_mcu7t5v0__oai221_1
*I *1753:A3 I *D gf180mcu_fd_sc_mcu7t5v0__nand4_1
*I *1731:B1 I *D gf180mcu_fd_sc_mcu7t5v0__aoi22_1
*I *1628:A2 I *D gf180mcu_fd_sc_mcu7t5v0__aoi21_1
*I *1624:ZN O *D gf180mcu_fd_sc_mcu7t5v0__nor2_1
*CAP
1 *1751:A3 0.000108112
2 *1677:A2 0.000105031
3 *1673:A2 0.000311727
4 *1671:A2 0.000115237
5 *1689:B 0.000624881
6 *1745:A1 0.00018476
7 *1744:B1 3.95599e-05
8 *1753:A3 0.000160093
9 *1731:B1 0
10 *1628:A2 0.000829149
11 *1624:ZN 0
12 *316:125 0.000906012
13 *316:99 0.000459375
14 *316:97 0.0012389
15 *316:87 0.00141008
16 *316:81 0.000732988
17 *316:62 0.000589202
18 *316:58 0.000932802
19 *316:43 0.00154203
20 *316:4 0.00160804
21 *1628:A2 *1623:A2 5.00115e-05
22 *1628:A2 *1630:A1 0.000202293
23 *1628:A2 *1703:A2 0.000433797
24 *1628:A2 *1705:B 7.96333e-06
25 *1628:A2 *1969:I 0
26 *1628:A2 *382:6 2.14748e-05
27 *1628:A2 *485:55 0
28 *1628:A2 *567:20 9.13244e-05
29 *1671:A2 *356:42 0.00043521
30 *1673:A2 *1633:A2 0
31 *1673:A2 *1677:A3 0.000646868
32 *1673:A2 *1808:CLK 3.94192e-05
33 *1673:A2 *359:61 0
34 *1673:A2 *361:71 7.54878e-05
35 *1677:A2 *1633:A2 0.000112008
36 *1689:B *1694:A1 7.20334e-05
37 *1689:B *1695:S 1.98047e-05
38 *1689:B *1721:A1 0.000147238
39 *1689:B *359:25 0.000386163
40 *1689:B *359:40 6.10354e-05
41 *1744:B1 *1608:A1 0.000226823
42 *1745:A1 *1744:B2 0
43 *1745:A1 *480:32 0.000150744
44 *1745:A1 *489:33 2.65063e-05
45 *1751:A3 *1751:A4 1.0415e-05
46 *1751:A3 *1823:CLK 4.80371e-05
47 *1751:A3 *359:86 9.16703e-05
48 *1753:A3 *1751:A1 0.000152367
49 *1753:A3 *1753:A4 1.18477e-05
50 *1753:A3 *488:37 0.000183189
51 *316:43 *1630:A1 0.000150416
52 *316:43 *1630:B 1.74018e-05
53 *316:43 *1662:A1 3.55537e-05
54 *316:43 *1662:A2 0.000225865
55 *316:43 *1664:A1 1.23607e-05
56 *316:43 *1731:A1 3.46409e-05
57 *316:43 *1739:A3 0
58 *316:43 *1969:I 5.34514e-05
59 *316:43 *322:12 3.98088e-05
60 *316:43 *516:14 0
61 *316:43 *567:20 0.000874824
62 *316:58 *1403:I 0.000392492
63 *316:58 *1661:A1 4.29496e-05
64 *316:58 *1734:A2 0.000106536
65 *316:58 *1734:B 0.000119814
66 *316:58 *1823:CLK 9.09976e-05
67 *316:58 *352:12 0.000200085
68 *316:58 *359:86 0.000172267
69 *316:58 *404:28 0
70 *316:58 *487:41 0.000185235
71 *316:58 *516:14 2.13478e-05
72 *316:62 *352:12 0.000208327
73 *316:62 *488:37 0.000491913
74 *316:81 *1633:A2 0.000182992
75 *316:81 *1753:A1 3.56071e-05
76 *316:81 *352:12 0.000721872
77 *316:81 *488:37 0.000312562
78 *316:87 *1397:I 1.0415e-05
79 *316:87 *1677:A4 0.000482834
80 *316:87 *351:26 0
81 *316:97 *1608:A1 0.000164228
82 *316:97 *1633:A2 0
83 *316:97 *1677:A4 0.000125121
84 *316:97 *1807:CLK 0.000169524
85 *316:97 *351:26 0.000136783
86 *316:97 *359:53 0.000208631
87 *316:97 *359:61 0
88 *316:99 *1608:A1 0.00125973
89 *1616:A1 *1628:A2 0.000183652
90 *1616:A3 *1628:A2 7.55765e-06
91 *1622:A1 *316:99 0
92 *1622:A1 *316:125 6.31783e-05
93 *1623:A1 *1628:A2 0.000116385
94 *1623:B2 *1628:A2 0.00107532
95 *1628:A1 *1628:A2 5.97457e-06
96 *1629:A2 *1628:A2 8.62786e-06
97 *1630:A2 *316:43 0.000141355
98 *1634:B *316:97 0.000252681
99 *1634:B *316:125 6.317e-05
100 *1649:A1 *316:81 0.0013904
101 *1674:A1 *1673:A2 3.48522e-05
102 *1700:A3 *1689:B 0.000247389
103 *1703:A1 *1628:A2 3.22122e-05
104 *1703:B *1628:A2 1.27919e-05
105 *1731:B2 *316:43 1.34934e-05
106 *1731:B2 *316:58 7.82949e-05
107 *1751:A2 *1753:A3 3.48116e-05
108 *1808:D *1673:A2 5.06271e-05
109 *120:19 *1677:A2 0.000684683
110 *120:19 *316:81 0.000273552
111 *123:57 *1744:B1 6.02234e-05
112 *123:57 *316:99 0.000123229
113 *123:72 *316:99 5.46383e-05
114 *123:74 *1689:B 0
115 *123:74 *316:125 0
116 *123:85 *1689:B 0.000115096
117 *123:95 *1689:B 2.38983e-05
118 *126:21 *316:58 1.4273e-05
119 *134:14 *1628:A2 0.000273755
120 *134:38 *1628:A2 0.000537405
121 *139:103 *1689:B 0.000162728
122 *139:103 *316:97 0.000271813
123 *292:18 *316:43 5.49141e-05
124 *299:26 *1628:A2 9.96101e-05
125 *299:74 *1745:A1 0.000290119
126 *300:16 *1689:B 0.00225467
127 *300:16 *316:125 0.000826709
128 *300:20 *1689:B 4.843e-05
129 *300:22 *1689:B 1.17934e-05
130 *302:18 *1689:B 0.00015079
131 *304:16 *1689:B 0.000148939
132 *309:48 *1745:A1 0.000201502
133 *309:48 *1753:A3 1.97748e-06
*RES
1 *1624:ZN *316:4 4.5 
2 *316:4 *1628:A2 14.94 
3 *316:4 *316:43 16.65 
4 *316:43 *1731:B1 4.5 
5 *316:43 *316:58 15.75 
6 *316:58 *316:62 5.85 
7 *316:62 *1753:A3 19.35 
8 *316:62 *316:81 6.57 
9 *316:81 *316:87 11.25 
10 *316:87 *316:97 16.83 
11 *316:97 *316:99 3.33 
12 *316:99 *1744:B1 9.63 
13 *316:99 *1745:A1 10.89 
14 *316:97 *316:125 6.75 
15 *316:125 *1689:B 22.86 
16 *316:125 *1671:A2 14.67 
17 *316:87 *1673:A2 11.97 
18 *316:81 *1677:A2 10.71 
19 *316:58 *1751:A3 5.31 
*END

*D_NET *317 0.0100108
*CONN
*I *1696:A2 I *D gf180mcu_fd_sc_mcu7t5v0__nand4_1
*I *1709:A3 I *D gf180mcu_fd_sc_mcu7t5v0__nand3_1
*I *1725:C I *D gf180mcu_fd_sc_mcu7t5v0__oai211_1
*I *1749:A4 I *D gf180mcu_fd_sc_mcu7t5v0__nor4_1
*I *1717:A1 I *D gf180mcu_fd_sc_mcu7t5v0__aoi211_1
*I *1670:A1 I *D gf180mcu_fd_sc_mcu7t5v0__nor4_1
*I *1625:ZN O *D gf180mcu_fd_sc_mcu7t5v0__nand2_1
*CAP
1 *1696:A2 0
2 *1709:A3 6.0593e-05
3 *1725:C 0
4 *1749:A4 0
5 *1717:A1 0
6 *1670:A1 0
7 *1625:ZN 0.000399563
8 *317:45 0.000410975
9 *317:36 0.000544623
10 *317:29 0.000552326
11 *317:16 0.000832025
12 *317:12 0.000873503
13 *1709:A3 *388:18 0.000418993
14 *317:12 *1744:A2 0
15 *317:12 *359:10 7.20334e-05
16 *317:12 *359:25 0.000537709
17 *317:12 *370:6 0
18 *317:12 *372:10 0.000393144
19 *317:16 *1670:A2 0
20 *317:16 *1698:A2 7.0736e-05
21 *317:16 *1761:A2 3.12451e-05
22 *317:16 *359:10 0.000351194
23 *317:16 *361:30 1.4382e-06
24 *317:29 *1670:A2 1.86452e-05
25 *317:29 *1718:C 0.000126062
26 *317:29 *1722:A2 0.000121888
27 *317:29 *1722:B 5.47541e-05
28 *317:29 *361:30 0.000451316
29 *317:29 *396:8 7.77106e-05
30 *317:29 *472:12 0.000662855
31 *317:36 *1750:I1 0.000334499
32 *317:36 *483:63 9.5105e-05
33 *317:36 *486:103 0.000795772
34 *317:45 *1702:A3 1.30094e-05
35 *317:45 *360:6 6.17789e-06
36 *317:45 *388:18 6.87372e-05
37 *317:45 *483:63 0.000241427
38 *317:45 *486:103 3.01487e-05
39 *317:45 *486:114 0.000203968
40 *1666:A1 *317:12 6.51414e-06
41 *1682:A2 *317:12 5.5916e-05
42 *1682:A2 *317:16 0.000107788
43 *1692:A2 *1709:A3 0.00015507
44 *1692:A2 *317:45 3.01487e-05
45 *1717:B *317:36 1.0415e-05
46 *1717:C *317:36 5.60661e-06
47 *139:72 *317:29 0.000218664
48 *139:76 *317:29 0
49 *292:8 *317:12 8.66004e-05
50 *297:20 *317:45 6.44696e-05
51 *297:30 *317:12 0.000114129
52 *297:30 *317:45 0.000303259
*RES
1 *1625:ZN *317:12 18.36 
2 *317:12 *317:16 4.5 
3 *317:16 *1670:A1 4.5 
4 *317:16 *317:29 14.22 
5 *317:29 *1717:A1 4.5 
6 *317:29 *317:36 2.61 
7 *317:36 *1749:A4 4.5 
8 *317:36 *317:45 4.14 
9 *317:45 *1725:C 4.5 
10 *317:45 *1709:A3 5.67 
11 *317:12 *1696:A2 4.5 
*END

*D_NET *318 0.000904806
*CONN
*I *1705:B I *D gf180mcu_fd_sc_mcu7t5v0__aoi21_1
*I *1628:B I *D gf180mcu_fd_sc_mcu7t5v0__aoi21_1
*I *1626:ZN O *D gf180mcu_fd_sc_mcu7t5v0__nor2_1
*CAP
1 *1705:B 8.88119e-05
2 *1628:B 4.60894e-05
3 *1626:ZN 0.000134901
4 *1628:B *485:55 9.98816e-05
5 *1705:B *375:12 4.83522e-05
6 *1705:B *485:43 1.07374e-05
7 *1705:B *486:42 7.66556e-05
8 *1628:A1 *1628:B 0.00037349
9 *1628:A1 *1705:B 1.79237e-05
10 *1628:A2 *1705:B 7.96333e-06
*RES
1 *1626:ZN *1628:B 9.99 
2 *1626:ZN *1705:B 10.08 
*END

*D_NET *319 0.000692182
*CONN
*I *1713:A1 I *D gf180mcu_fd_sc_mcu7t5v0__and3_1
*I *1627:ZN O *D gf180mcu_fd_sc_mcu7t5v0__nand2_1
*CAP
1 *1713:A1 6.98941e-05
2 *1627:ZN 6.98941e-05
3 *1713:A1 *485:43 0.000151427
4 *1713:A1 *486:29 3.55118e-05
5 *1713:A1 *486:42 0.000365454
*RES
1 *1627:ZN *1713:A1 10.26 
*END

*D_NET *320 0.00273474
*CONN
*I *1629:A3 I *D gf180mcu_fd_sc_mcu7t5v0__nand3_1
*I *1628:ZN O *D gf180mcu_fd_sc_mcu7t5v0__aoi21_1
*CAP
1 *1629:A3 0.000171564
2 *1628:ZN 0.000171564
3 *1629:A3 *1969:I 0.00124414
4 *1629:A3 *485:55 0.00109053
5 *1623:B2 *1629:A3 5.69319e-05
*RES
1 *1628:ZN *1629:A3 13.23 
*END

*D_NET *321 0.0032652
*CONN
*I *1630:A1 I *D gf180mcu_fd_sc_mcu7t5v0__aoi21_1
*I *1629:ZN O *D gf180mcu_fd_sc_mcu7t5v0__nand3_1
*CAP
1 *1630:A1 0.000941461
2 *1629:ZN 0.000941461
3 *1630:A1 *1630:B 3.55118e-05
4 *1630:A1 *1662:A1 0.000362773
5 *1630:A1 *1662:A2 1.51153e-05
6 *1630:A1 *1662:B 3.02306e-05
7 *1630:A1 *1664:A1 8.00409e-05
8 *1630:A1 *1969:I 0.000505896
9 *1628:A2 *1630:A1 0.000202293
10 *316:43 *1630:A1 0.000150416
*RES
1 *1629:ZN *1630:A1 18.36 
*END

*D_NET *322 0.001755
*CONN
*I *1663:A1 I *D gf180mcu_fd_sc_mcu7t5v0__or2_1
*I *1662:B I *D gf180mcu_fd_sc_mcu7t5v0__oai21_1
*I *1630:ZN O *D gf180mcu_fd_sc_mcu7t5v0__aoi21_1
*CAP
1 *1663:A1 0
2 *1662:B 6.27545e-05
3 *1630:ZN 0.000203511
4 *322:12 0.000266265
5 *1662:B *1664:A1 0.000436469
6 *1662:B *1969:I 0.000586561
7 *322:12 *1630:B 2.31089e-05
8 *322:12 *1662:A1 2.70125e-05
9 *322:12 *1663:A2 6.22032e-05
10 *322:12 *1664:A1 1.70787e-05
11 *1630:A1 *1662:B 3.02306e-05
12 *316:43 *322:12 3.98088e-05
*RES
1 *1630:ZN *322:12 14.94 
2 *322:12 *1662:B 6.3 
3 *322:12 *1663:A1 4.5 
*END

*D_NET *323 0.00907701
*CONN
*I *1634:A1 I *D gf180mcu_fd_sc_mcu7t5v0__aoi21_1
*I *1631:Z O *D gf180mcu_fd_sc_mcu7t5v0__mux4_1
*CAP
1 *1634:A1 0.00159087
2 *1631:Z 0.00159087
3 *1634:A1 *1440:A4 2.73771e-05
4 *1634:A1 *1673:A1 0
5 *1634:A1 *1783:A2 0.000305176
6 *1634:A1 *1802:A1 0.000881502
7 *1634:A1 *1803:B 5.22588e-06
8 *1634:A1 *1808:CLK 0
9 *1634:A1 *1934:I 0.000549826
10 *1634:A1 *351:26 1.91584e-05
11 *1634:A1 *359:61 0.000653857
12 *1634:A1 *455:8 0.000101415
13 *1634:A1 *475:103 0
14 *1634:A1 *492:262 0.0014126
15 *1634:A1 *557:10 0
16 *1634:A1 *557:32 0
17 *1634:A1 *582:43 6.79498e-05
18 *1467:A1 *1634:A1 1.17821e-05
19 *1470:A1 *1634:A1 0
20 *1507:I0 *1634:A1 0
21 *1803:A2 *1634:A1 0.000140263
22 *152:69 *1634:A1 4.58556e-05
23 *157:73 *1634:A1 0
24 *160:12 *1634:A1 0
25 *175:40 *1634:A1 8.38345e-06
26 *176:37 *1634:A1 0.0016649
*RES
1 *1631:Z *1634:A1 36.45 
*END

*D_NET *324 0.0123215
*CONN
*I *1633:A2 I *D gf180mcu_fd_sc_mcu7t5v0__nand2_1
*I *1632:Z O *D gf180mcu_fd_sc_mcu7t5v0__mux4_1
*CAP
1 *1633:A2 0.00266301
2 *1632:Z 0.00266301
3 *1633:A2 *1398:I 0
4 *1633:A2 *1502:I1 0.000431801
5 *1633:A2 *1632:S0 8.63254e-05
6 *1633:A2 *1678:A2 5.81806e-05
7 *1633:A2 *1805:B 7.03284e-05
8 *1633:A2 *1865:CLK 0.0010984
9 *1633:A2 *1915:I 0.000464388
10 *1633:A2 *352:12 9.5189e-05
11 *1633:A2 *520:16 0.000213472
12 *1633:A2 *558:27 0
13 *1498:A1 *1633:A2 0.000206869
14 *1501:A2 *1633:A2 0.00102543
15 *1506:B *1633:A2 0.000334407
16 *1519:A1 *1633:A2 1.53768e-06
17 *1520:A2 *1633:A2 8.67164e-05
18 *1527:A1 *1633:A2 7.70028e-05
19 *1660:B *1633:A2 0.000297517
20 *1673:A2 *1633:A2 0
21 *1674:A1 *1633:A2 0
22 *1677:A2 *1633:A2 0.000112008
23 *120:19 *1633:A2 0.000103798
24 *141:82 *1633:A2 0.000286424
25 *141:84 *1633:A2 0.00153508
26 *152:77 *1633:A2 2.04445e-05
27 *175:51 *1633:A2 9.05643e-06
28 *175:55 *1633:A2 8.82579e-05
29 *179:110 *1633:A2 0.000109817
30 *316:81 *1633:A2 0.000182992
31 *316:97 *1633:A2 0
*RES
1 *1632:Z *1633:A2 42.84 
*END

*D_NET *325 0.000325945
*CONN
*I *1635:A2 I *D gf180mcu_fd_sc_mcu7t5v0__aoi21_1
*I *1633:ZN O *D gf180mcu_fd_sc_mcu7t5v0__nand2_1
*CAP
1 *1635:A2 8.25922e-05
2 *1633:ZN 8.25922e-05
3 *1633:A1 *1635:A2 3.46409e-05
4 *1660:B *1635:A2 3.56823e-05
5 *124:83 *1635:A2 9.04376e-05
*RES
1 *1633:ZN *1635:A2 9.81 
*END

*D_NET *326 0.0014574
*CONN
*I *1635:A1 I *D gf180mcu_fd_sc_mcu7t5v0__aoi21_1
*I *1634:ZN O *D gf180mcu_fd_sc_mcu7t5v0__aoi21_1
*CAP
1 *1635:A1 0.000170879
2 *1634:ZN 0.000170879
3 *1635:A1 *1662:A2 0.000151427
4 *1635:A1 *359:61 0.000515792
5 *1660:B *1635:A1 0.000436478
6 *124:83 *1635:A1 1.19491e-05
*RES
1 *1634:ZN *1635:A1 20.52 
*END

*D_NET *327 0.00577137
*CONN
*I *1662:A2 I *D gf180mcu_fd_sc_mcu7t5v0__oai21_1
*I *1635:ZN O *D gf180mcu_fd_sc_mcu7t5v0__aoi21_1
*CAP
1 *1662:A2 0.00156271
2 *1635:ZN 0.00156271
3 *1662:A2 *1662:A1 7.48689e-05
4 *1662:A2 *1664:A1 1.61174e-05
5 *1662:A2 *1733:A2 2.78423e-05
6 *1662:A2 *1742:A2 0
7 *1662:A2 *1743:A2 0.000428002
8 *1662:A2 *359:61 0.00121449
9 *1662:A2 *359:67 0.000175877
10 *1662:A2 *359:86 3.49918e-05
11 *1630:A1 *1662:A2 1.51153e-05
12 *1630:A2 *1662:A2 1.36885e-05
13 *1633:A1 *1662:A2 0
14 *1635:A1 *1662:A2 0.000151427
15 *1743:A1 *1662:A2 0
16 *1824:D *1662:A2 0
17 *124:83 *1662:A2 9.07783e-05
18 *292:18 *1662:A2 0.000176893
19 *316:43 *1662:A2 0.000225865
*RES
1 *1635:ZN *1662:A2 30.6 
*END

*D_NET *328 0.00146111
*CONN
*I *1656:A1 I *D gf180mcu_fd_sc_mcu7t5v0__aoi22_1
*I *1642:A1 I *D gf180mcu_fd_sc_mcu7t5v0__aoi222_1
*I *1636:ZN O *D gf180mcu_fd_sc_mcu7t5v0__nand2_1
*CAP
1 *1656:A1 0.000187072
2 *1642:A1 9.13124e-05
3 *1636:ZN 0
4 *328:4 0.000278384
5 *1642:A1 *1639:A2 0.000164219
6 *1642:A1 *1656:B2 0.000588683
7 *1656:A1 *1636:A2 3.73774e-06
8 *1656:A1 *1637:A2 7.84041e-05
9 *1656:A1 *1656:B2 6.92926e-05
*RES
1 *1636:ZN *328:4 4.5 
2 *328:4 *1642:A1 15.03 
3 *328:4 *1656:A1 5.94 
*END

*D_NET *329 0.00240152
*CONN
*I *1656:A2 I *D gf180mcu_fd_sc_mcu7t5v0__aoi22_1
*I *1642:A2 I *D gf180mcu_fd_sc_mcu7t5v0__aoi222_1
*I *1637:Z O *D gf180mcu_fd_sc_mcu7t5v0__or2_1
*CAP
1 *1656:A2 6.39126e-05
2 *1642:A2 0.00018598
3 *1637:Z 0.000110052
4 *329:8 0.000359944
5 *1642:A2 *1639:A1 2.77702e-05
6 *1642:A2 *1642:B1 0.000174293
7 *1642:A2 *1656:B1 0.000118541
8 *1642:A2 *1659:A1 0.000215362
9 *1642:A2 *1933:I 0.000234541
10 *1642:A2 *331:10 2.31089e-05
11 *1642:A2 *466:27 0.000126655
12 *1656:A2 *1637:A2 4.843e-05
13 *1656:A2 *1656:B1 0.000113273
14 *1656:A2 *1656:B2 1.48237e-05
15 *1656:A2 *466:27 6.2083e-06
16 *329:8 *1636:A1 0.000476609
17 *329:8 *1639:A2 0.000102014
*RES
1 *1637:Z *329:8 10.35 
2 *329:8 *1642:A2 11.34 
3 *329:8 *1656:A2 9.81 
*END

*D_NET *330 0.00435815
*CONN
*I *1642:B1 I *D gf180mcu_fd_sc_mcu7t5v0__aoi222_1
*I *1656:B1 I *D gf180mcu_fd_sc_mcu7t5v0__aoi22_1
*I *1638:Z O *D gf180mcu_fd_sc_mcu7t5v0__or2_1
*CAP
1 *1642:B1 0.000226883
2 *1656:B1 0.000118468
3 *1638:Z 0.00019979
4 *330:10 0.00054514
5 *1642:B1 *1657:A1 0.000123276
6 *1642:B1 *1657:A2 0.000235639
7 *1642:B1 *1659:A1 4.45215e-05
8 *1642:B1 *331:10 0.000117476
9 *1642:B1 *333:6 3.01487e-05
10 *1656:B1 *1656:B2 1.85284e-05
11 *1656:B1 *1658:A1 0.000841697
12 *1656:B1 *1933:I 0.000299724
13 *1656:B1 *462:21 4.10895e-05
14 *330:10 *1657:A1 0.000731102
15 *330:10 *1658:A2 7.13661e-05
16 *330:10 *1659:A1 0.000307194
17 *1642:A2 *1642:B1 0.000174293
18 *1642:A2 *1656:B1 0.000118541
19 *1656:A2 *1656:B1 0.000113273
*RES
1 *1638:Z *330:10 7.29 
2 *330:10 *1656:B1 16.29 
3 *330:10 *1642:B1 6.57 
*END

*D_NET *331 0.003254
*CONN
*I *1642:B2 I *D gf180mcu_fd_sc_mcu7t5v0__aoi222_1
*I *1656:B2 I *D gf180mcu_fd_sc_mcu7t5v0__aoi22_1
*I *1639:ZN O *D gf180mcu_fd_sc_mcu7t5v0__nand2_1
*CAP
1 *1642:B2 0
2 *1656:B2 0.00037546
3 *1639:ZN 0.000103905
4 *331:10 0.000479364
5 *1656:B2 *1637:A2 0.000245096
6 *1656:B2 *1639:A1 0
7 *1656:B2 *1639:A2 9.22066e-05
8 *1656:B2 *1858:CLK 0
9 *1656:B2 *466:27 0.000716461
10 *1656:B2 *492:331 5.30888e-06
11 *331:10 *1639:A1 2.65444e-06
12 *331:10 *1639:A2 0.000283071
13 *331:10 *333:6 0.000102443
14 *1446:A3 *1656:B2 1.61174e-05
15 *1642:A1 *1656:B2 0.000588683
16 *1642:A2 *331:10 2.31089e-05
17 *1642:B1 *331:10 0.000117476
18 *1656:A1 *1656:B2 6.92926e-05
19 *1656:A2 *1656:B2 1.48237e-05
20 *1656:B1 *1656:B2 1.85284e-05
*RES
1 *1639:ZN *331:10 6.03 
2 *331:10 *1656:B2 18 
3 *331:10 *1642:B2 4.5 
*END

*D_NET *332 0.00404434
*CONN
*I *1657:A1 I *D gf180mcu_fd_sc_mcu7t5v0__aoi22_1
*I *1642:C1 I *D gf180mcu_fd_sc_mcu7t5v0__aoi222_1
*I *1640:Z O *D gf180mcu_fd_sc_mcu7t5v0__or2_1
*CAP
1 *1657:A1 0.000222112
2 *1642:C1 2.74817e-05
3 *1640:Z 0.000128802
4 *332:8 0.000378395
5 *1642:C1 *1641:A1 0.000215362
6 *1642:C1 *470:14 0.000215362
7 *1657:A1 *1657:A2 0.000193316
8 *1657:A1 *1658:A1 1.58782e-05
9 *1657:A1 *1658:A2 1.07374e-05
10 *1657:A1 *1933:I 0.000336156
11 *1657:A1 *466:27 9.06417e-05
12 *332:8 *1640:A2 0.000895621
13 *332:8 *1759:S 0
14 *332:8 *1933:I 0.000101624
15 *332:8 *466:27 0.000358474
16 *1642:B1 *1657:A1 0.000123276
17 *330:10 *1657:A1 0.000731102
*RES
1 *1640:Z *332:8 11.97 
2 *332:8 *1642:C1 9.63 
3 *332:8 *1657:A1 12.51 
*END

*D_NET *333 0.00282342
*CONN
*I *1642:C2 I *D gf180mcu_fd_sc_mcu7t5v0__aoi222_1
*I *1657:A2 I *D gf180mcu_fd_sc_mcu7t5v0__aoi22_1
*I *1641:ZN O *D gf180mcu_fd_sc_mcu7t5v0__nand2_1
*CAP
1 *1642:C2 8.70385e-05
2 *1657:A2 0.000213389
3 *1641:ZN 5.79258e-05
4 *333:6 0.000358353
5 *1642:C2 *466:27 0.000114546
6 *1642:C2 *470:10 0.000101615
7 *1657:A2 *1641:A1 0.000726638
8 *1657:A2 *1658:A1 9.21285e-05
9 *1657:A2 *1658:A2 2.65444e-06
10 *333:6 *1639:A2 3.02306e-05
11 *333:6 *1641:A1 0.000477353
12 *1642:B1 *1657:A2 0.000235639
13 *1642:B1 *333:6 3.01487e-05
14 *1657:A1 *1657:A2 0.000193316
15 *331:10 *333:6 0.000102443
*RES
1 *1641:ZN *333:6 5.85 
2 *333:6 *1657:A2 7.56 
3 *333:6 *1642:C2 14.31 
*END

*D_NET *334 0.00436606
*CONN
*I *1659:A1 I *D gf180mcu_fd_sc_mcu7t5v0__nand3_1
*I *1642:ZN O *D gf180mcu_fd_sc_mcu7t5v0__aoi222_1
*CAP
1 *1659:A1 0.000583069
2 *1642:ZN 0.000583069
3 *1659:A1 *1639:A1 0.00112394
4 *1659:A1 *1639:A2 3.38463e-05
5 *1659:A1 *1645:A1 0.000310002
6 *1659:A1 *1648:A2 3.55118e-05
7 *1659:A1 *1658:A2 5.30888e-06
8 *1659:A1 *1659:A2 5.69319e-05
9 *1659:A1 *1660:A2 0.000140012
10 *1659:A1 *1677:A1 1.37565e-05
11 *1659:A1 *1858:CLK 1.86887e-06
12 *1659:A1 *338:12 0.000304787
13 *1659:A1 *461:25 0.000473735
14 *1642:A2 *1659:A1 0.000215362
15 *1642:B1 *1659:A1 4.45215e-05
16 *142:64 *1659:A1 0.000133143
17 *330:10 *1659:A1 0.000307194
*RES
1 *1642:ZN *1659:A1 25.65 
*END

*D_NET *335 0.00203759
*CONN
*I *1657:B1 I *D gf180mcu_fd_sc_mcu7t5v0__aoi22_1
*I *1648:A1 I *D gf180mcu_fd_sc_mcu7t5v0__aoi22_1
*I *1643:Z O *D gf180mcu_fd_sc_mcu7t5v0__or2_1
*CAP
1 *1657:B1 0.000139717
2 *1648:A1 0.000245957
3 *1643:Z 0.000131724
4 *335:10 0.000517398
5 *1648:A1 *1648:A2 0.000445566
6 *1648:A1 *1657:B2 0.000327261
7 *1648:A1 *469:27 0
8 *1657:B1 *1640:A1 5.42545e-05
9 *1657:B1 *336:10 6.0354e-06
10 *1657:B1 *467:8 2.37543e-05
11 *335:10 *1640:A1 5.01255e-05
12 *335:10 *336:10 5.58585e-05
13 *335:10 *469:27 3.99345e-05
*RES
1 *1643:Z *335:10 10.44 
2 *335:10 *1648:A1 11.25 
3 *335:10 *1657:B1 9.99 
*END

*D_NET *336 0.00298659
*CONN
*I *1657:B2 I *D gf180mcu_fd_sc_mcu7t5v0__aoi22_1
*I *1648:A2 I *D gf180mcu_fd_sc_mcu7t5v0__aoi22_1
*I *1644:ZN O *D gf180mcu_fd_sc_mcu7t5v0__nand2_1
*CAP
1 *1657:B2 0.00014862
2 *1648:A2 0.000162063
3 *1644:ZN 9.80799e-05
4 *336:10 0.000408763
5 *1648:A2 *1660:A2 4.0856e-05
6 *1657:B2 *1658:A1 6.62654e-05
7 *1657:B2 *1658:A2 1.19491e-05
8 *1657:B2 *1759:I0 7.55765e-06
9 *1657:B2 *469:27 0
10 *336:10 *1640:A1 0
11 *336:10 *1643:A2 0.000299705
12 *336:10 *1759:S 0
13 *336:10 *467:8 0.000872495
14 *1648:A1 *1648:A2 0.000445566
15 *1648:A1 *1657:B2 0.000327261
16 *1657:B1 *336:10 6.0354e-06
17 *1659:A1 *1648:A2 3.55118e-05
18 *335:10 *336:10 5.58585e-05
*RES
1 *1644:ZN *336:10 15.75 
2 *336:10 *1648:A2 5.85 
3 *336:10 *1657:B2 6.12 
*END

*D_NET *337 0.00212466
*CONN
*I *1648:B1 I *D gf180mcu_fd_sc_mcu7t5v0__aoi22_1
*I *1647:A1 I *D gf180mcu_fd_sc_mcu7t5v0__nand2_1
*I *1645:Z O *D gf180mcu_fd_sc_mcu7t5v0__or2_1
*CAP
1 *1648:B1 0.000104975
2 *1647:A1 0.000197467
3 *1645:Z 0
4 *337:6 0.000302442
5 *1647:A1 *1647:A2 0.000415855
6 *1647:A1 *1655:A1 0
7 *1647:A1 *1755:I0 0.000382884
8 *1647:A1 *1755:I1 4.78178e-05
9 *1647:A1 *422:56 3.34727e-05
10 *1648:B1 *1645:A1 0.000400853
11 *1648:B1 *1647:A2 0.000171254
12 *1648:B1 *1651:A2 6.76406e-05
13 *1648:B1 *1655:A1 0
*RES
1 *1645:Z *337:6 9 
2 *337:6 *1647:A1 11.7 
3 *337:6 *1648:B1 10.89 
*END

*D_NET *338 0.00389846
*CONN
*I *1648:B2 I *D gf180mcu_fd_sc_mcu7t5v0__aoi22_1
*I *1647:A2 I *D gf180mcu_fd_sc_mcu7t5v0__nand2_1
*I *1646:ZN O *D gf180mcu_fd_sc_mcu7t5v0__nand2_1
*CAP
1 *1648:B2 0
2 *1647:A2 0.000242188
3 *1646:ZN 9.53551e-05
4 *338:12 0.000337544
5 *1647:A2 *1645:A1 0.000255088
6 *1647:A2 *1646:A2 0.000171254
7 *1647:A2 *1755:I0 0.000455766
8 *1647:A2 *1755:I1 2.90241e-05
9 *1647:A2 *466:6 1.23607e-05
10 *1647:A2 *466:23 2.31089e-05
11 *338:12 *1645:A1 0.000185741
12 *338:12 *1646:A2 0.000744294
13 *1647:A1 *1647:A2 0.000415855
14 *1648:B1 *1647:A2 0.000171254
15 *1659:A1 *338:12 0.000304787
16 *1828:D *1647:A2 0.000119192
17 *142:64 *1647:A2 0.000311954
18 *142:64 *338:12 2.36954e-05
*RES
1 *1646:ZN *338:12 11.43 
2 *338:12 *1647:A2 13.86 
3 *338:12 *1648:B2 9 
*END

*D_NET *339 0.00215739
*CONN
*I *1655:A1 I *D gf180mcu_fd_sc_mcu7t5v0__nand4_1
*I *1647:ZN O *D gf180mcu_fd_sc_mcu7t5v0__nand2_1
*CAP
1 *1655:A1 0.000354138
2 *1647:ZN 0.000354138
3 *1655:A1 *1651:A2 0.000204168
4 *1655:A1 *1652:A2 0.000409707
5 *1655:A1 *1659:A3 0.000128618
6 *1655:A1 *1660:A2 0.000220709
7 *1655:A1 *351:26 2.24448e-05
8 *1655:A1 *422:56 0.000463466
9 *1647:A1 *1655:A1 0
10 *1648:B1 *1655:A1 0
*RES
1 *1647:ZN *1655:A1 23.04 
*END

*D_NET *340 0.000302685
*CONN
*I *1659:A2 I *D gf180mcu_fd_sc_mcu7t5v0__nand3_1
*I *1648:ZN O *D gf180mcu_fd_sc_mcu7t5v0__aoi22_1
*CAP
1 *1659:A2 0.000122877
2 *1648:ZN 0.000122877
3 *1659:A1 *1659:A2 5.69319e-05
*RES
1 *1648:ZN *1659:A2 9.9 
*END

*D_NET *341 0.00453439
*CONN
*I *1655:A4 I *D gf180mcu_fd_sc_mcu7t5v0__nand4_1
*I *1654:A1 I *D gf180mcu_fd_sc_mcu7t5v0__and4_1
*I *1649:ZN O *D gf180mcu_fd_sc_mcu7t5v0__nand2_1
*CAP
1 *1655:A4 0.000377973
2 *1654:A1 0
3 *1649:ZN 0.000437066
4 *341:12 0.00081504
5 *1655:A4 *1651:A2 0
6 *1655:A4 *1652:A2 7.55765e-06
7 *1655:A4 *1654:A2 0.000974595
8 *1655:A4 *1654:A4 9.60601e-05
9 *1655:A4 *1655:A2 8.21649e-06
10 *1655:A4 *1655:A3 3.78734e-05
11 *1655:A4 *351:26 0.000322009
12 *1655:A4 *465:34 0
13 *1655:A4 *475:24 2.63437e-05
14 *341:12 *1413:I 0.000131469
15 *341:12 *1414:I 0.000507492
16 *341:12 *1649:A2 4.58862e-05
17 *341:12 *1653:B2 0.00015145
18 *341:12 *1655:A2 0.000172825
19 *341:12 *1660:A1 5.30888e-06
20 *341:12 *1753:A1 0.00013607
21 *341:12 *1895:I 0
22 *1651:A1 *1655:A4 6.34901e-05
23 *1651:A1 *341:12 1.10145e-05
24 *1652:A1 *1655:A4 1.94599e-05
25 *1653:B1 *341:12 0.000174129
26 *1752:A2 *1655:A4 3.73774e-06
27 *1752:A2 *341:12 9.3226e-06
*RES
1 *1649:ZN *341:12 9.36 
2 *341:12 *1654:A1 4.5 
3 *341:12 *1655:A4 17.73 
*END

*D_NET *342 0.00248405
*CONN
*I *1654:A2 I *D gf180mcu_fd_sc_mcu7t5v0__and4_1
*I *1650:ZN O *D gf180mcu_fd_sc_mcu7t5v0__nand2_1
*CAP
1 *1654:A2 7.09235e-05
2 *1650:ZN 7.09235e-05
3 *1654:A2 *1654:A4 5.47541e-05
4 *1654:A2 *475:22 0.000473735
5 *1654:A2 *475:24 0.000839118
6 *1655:A4 *1654:A2 0.000974595
*RES
1 *1650:ZN *1654:A2 21.33 
*END

*D_NET *343 0.0028616
*CONN
*I *1655:A3 I *D gf180mcu_fd_sc_mcu7t5v0__nand4_1
*I *1654:A3 I *D gf180mcu_fd_sc_mcu7t5v0__and4_1
*I *1651:ZN O *D gf180mcu_fd_sc_mcu7t5v0__nand2_1
*CAP
1 *1655:A3 0.000100768
2 *1654:A3 4.81049e-05
3 *1651:ZN 9.15009e-05
4 *343:6 0.000240373
5 *1654:A3 *1654:A4 0.000354728
6 *1654:A3 *1659:A3 6.32404e-06
7 *1654:A3 *1895:I 2.01456e-05
8 *1655:A3 *1652:A2 0.000787434
9 *1655:A3 *1654:A4 0.000309543
10 *1655:A3 *351:26 9.84908e-05
11 *343:6 *1659:A3 2.13487e-05
12 *1651:A1 *1654:A3 0.000496776
13 *1651:A1 *343:6 0.000248193
14 *1655:A4 *1655:A3 3.78734e-05
*RES
1 *1651:ZN *343:6 5.31 
2 *343:6 *1654:A3 5.85 
3 *343:6 *1655:A3 15.84 
*END

*D_NET *344 0.00189594
*CONN
*I *1654:A4 I *D gf180mcu_fd_sc_mcu7t5v0__and4_1
*I *1652:ZN O *D gf180mcu_fd_sc_mcu7t5v0__nand2_1
*CAP
1 *1654:A4 0.000375639
2 *1652:ZN 0.000375639
3 *1654:A4 *1651:A2 0
4 *1654:A4 *1652:A2 0.000106774
5 *1654:A4 *1895:I 0.000146661
6 *1654:A4 *351:26 4.34581e-05
7 *1654:A4 *475:22 1.18528e-05
8 *1651:A1 *1654:A4 2.08301e-05
9 *1654:A2 *1654:A4 5.47541e-05
10 *1654:A3 *1654:A4 0.000354728
11 *1655:A3 *1654:A4 0.000309543
12 *1655:A4 *1654:A4 9.60601e-05
*RES
1 *1652:ZN *1654:A4 22.5 
*END

*D_NET *345 0.00347884
*CONN
*I *1655:A2 I *D gf180mcu_fd_sc_mcu7t5v0__nand4_1
*I *1653:ZN O *D gf180mcu_fd_sc_mcu7t5v0__aoi22_1
*CAP
1 *1655:A2 0.00043444
2 *1653:ZN 0.00043444
3 *1655:A2 *1650:A2 0
4 *1655:A2 *1660:A2 0.000902959
5 *1655:A2 *1935:I 2.38064e-05
6 *1655:A2 *351:26 0.000155486
7 *1655:A2 *456:24 0.000135914
8 *1651:A1 *1655:A2 8.9944e-05
9 *1653:A1 *1655:A2 0.000906852
10 *1653:B1 *1655:A2 0.000213957
11 *1655:A4 *1655:A2 8.21649e-06
12 *341:12 *1655:A2 0.000172825
*RES
1 *1653:ZN *1655:A2 23.67 
*END

*D_NET *346 0.00106545
*CONN
*I *1659:A3 I *D gf180mcu_fd_sc_mcu7t5v0__nand3_1
*I *1654:Z O *D gf180mcu_fd_sc_mcu7t5v0__and4_1
*CAP
1 *1659:A3 0.000256012
2 *1654:Z 0.000256012
3 *1659:A3 *1660:A1 0.000223407
4 *1659:A3 *1660:A2 2.00709e-05
5 *1659:A3 *1895:I 0.000134095
6 *1659:A3 *351:26 9.90362e-06
7 *1651:A1 *1659:A3 9.65355e-06
8 *1654:A3 *1659:A3 6.32404e-06
9 *1655:A1 *1659:A3 0.000128618
10 *343:6 *1659:A3 2.13487e-05
*RES
1 *1654:Z *1659:A3 11.25 
*END

*D_NET *347 0.00332118
*CONN
*I *1660:A1 I *D gf180mcu_fd_sc_mcu7t5v0__oai21_1
*I *1655:ZN O *D gf180mcu_fd_sc_mcu7t5v0__nand4_1
*CAP
1 *1660:A1 0.000736358
2 *1655:ZN 0.000736358
3 *1660:A1 *1414:I 0
4 *1660:A1 *1653:B2 8.3004e-05
5 *1660:A1 *1660:A2 8.69576e-05
6 *1660:A1 *1895:I 0.000202039
7 *1660:A1 *351:26 0.00124775
8 *1659:A3 *1660:A1 0.000223407
9 *341:12 *1660:A1 5.30888e-06
*RES
1 *1655:ZN *1660:A1 16.11 
*END

*D_NET *348 0.00271208
*CONN
*I *1658:A1 I *D gf180mcu_fd_sc_mcu7t5v0__nand2_1
*I *1656:ZN O *D gf180mcu_fd_sc_mcu7t5v0__aoi22_1
*CAP
1 *1658:A1 0.000473632
2 *1656:ZN 0.000473632
3 *1658:A1 *1640:A1 1.86249e-05
4 *1658:A1 *1641:A1 0.000218465
5 *1658:A1 *1658:A2 8.69474e-05
6 *1658:A1 *1759:I0 0
7 *1658:A1 *1933:I 0.000163293
8 *1658:A1 *462:21 0.000261521
9 *1656:B1 *1658:A1 0.000841697
10 *1657:A1 *1658:A1 1.58782e-05
11 *1657:A2 *1658:A1 9.21285e-05
12 *1657:B2 *1658:A1 6.62654e-05
*RES
1 *1656:ZN *1658:A1 23.4 
*END

*D_NET *349 0.000389874
*CONN
*I *1658:A2 I *D gf180mcu_fd_sc_mcu7t5v0__nand2_1
*I *1657:ZN O *D gf180mcu_fd_sc_mcu7t5v0__aoi22_1
*CAP
1 *1658:A2 0.000100456
2 *1657:ZN 0.000100456
3 *1657:A1 *1658:A2 1.07374e-05
4 *1657:A2 *1658:A2 2.65444e-06
5 *1657:B2 *1658:A2 1.19491e-05
6 *1658:A1 *1658:A2 8.69474e-05
7 *1659:A1 *1658:A2 5.30888e-06
8 *330:10 *1658:A2 7.13661e-05
*RES
1 *1657:ZN *1658:A2 10.08 
*END

*D_NET *350 0.0068103
*CONN
*I *1660:A2 I *D gf180mcu_fd_sc_mcu7t5v0__oai21_1
*I *1658:ZN O *D gf180mcu_fd_sc_mcu7t5v0__nand2_1
*CAP
1 *1660:A2 0.00105356
2 *1658:ZN 0.00105356
3 *1660:A2 *1397:I 0.000105977
4 *1660:A2 *1646:A2 0.000150744
5 *1660:A2 *1651:A2 4.91232e-05
6 *1660:A2 *1652:A2 0.000310002
7 *1660:A2 *1896:I 0.000101407
8 *1660:A2 *351:26 0.00204572
9 *1648:A2 *1660:A2 4.0856e-05
10 *1649:A1 *1660:A2 0.000528649
11 *1655:A1 *1660:A2 0.000220709
12 *1655:A2 *1660:A2 0.000902959
13 *1659:A1 *1660:A2 0.000140012
14 *1659:A3 *1660:A2 2.00709e-05
15 *1660:A1 *1660:A2 8.69576e-05
*RES
1 *1658:ZN *1660:A2 38.79 
*END

*D_NET *351 0.0164755
*CONN
*I *1730:A2 I *D gf180mcu_fd_sc_mcu7t5v0__aoi21_1
*I *1721:A1 I *D gf180mcu_fd_sc_mcu7t5v0__aoi21_1
*I *1659:ZN O *D gf180mcu_fd_sc_mcu7t5v0__nand3_1
*CAP
1 *1730:A2 7.43322e-05
2 *1721:A1 0.00119676
3 *1659:ZN 0.00169474
4 *351:26 0.00296583
5 *1721:A1 *1603:A3 1.23607e-05
6 *1721:A1 *1608:A2 0
7 *1721:A1 *1610:A3 0.000213904
8 *1721:A1 *1620:A2 9.92342e-05
9 *1721:A1 *1684:A2 7.191e-07
10 *1721:A1 *1691:A1 0.00158892
11 *1721:A1 *1721:B 1.61174e-05
12 *1721:A1 *1730:B 1.62696e-05
13 *1721:A1 *359:25 0.00019915
14 *1721:A1 *489:33 6.03144e-06
15 *1721:A1 *489:39 2.22631e-05
16 *351:26 *1397:I 6.88651e-06
17 *351:26 *1652:A2 1.4382e-06
18 *351:26 *1730:B 2.16815e-05
19 *351:26 *359:61 0.0001082
20 *351:26 *487:141 2.3312e-05
21 *351:26 *487:156 0
22 *351:26 *489:12 0.000117194
23 *351:26 *489:33 0
24 *1601:A1 *1721:A1 0.000104268
25 *1610:A2 *1721:A1 0.000215887
26 *1612:A1 *1721:A1 0.000162554
27 *1612:A2 *1721:A1 0.000151417
28 *1625:A1 *1721:A1 0
29 *1634:A1 *351:26 1.91584e-05
30 *1634:B *351:26 0.000286386
31 *1635:B *1721:A1 1.00917e-05
32 *1635:B *1730:A2 0.000224146
33 *1635:B *351:26 0.000258308
34 *1654:A4 *351:26 4.34581e-05
35 *1655:A1 *351:26 2.24448e-05
36 *1655:A2 *351:26 0.000155486
37 *1655:A3 *351:26 9.84908e-05
38 *1655:A4 *351:26 0.000322009
39 *1659:A3 *351:26 9.90362e-06
40 *1660:A1 *351:26 0.00124775
41 *1660:A2 *351:26 0.00204572
42 *1660:B *351:26 0.000587741
43 *1684:A1 *1721:A1 6.14858e-05
44 *1689:B *1721:A1 0.000147238
45 *1710:A2 *1721:A1 1.98195e-05
46 *1729:A2 *1721:A1 7.41732e-05
47 *1729:A4 *1721:A1 9.85004e-05
48 *123:72 *1721:A1 0.00027605
49 *123:74 *1721:A1 0.00052747
50 *304:16 *1721:A1 0.000783441
51 *316:87 *351:26 0
52 *316:97 *351:26 0.000136783
*RES
1 *1659:ZN *351:26 40.23 
2 *351:26 *1721:A1 19.08 
3 *351:26 *1730:A2 5.4 
*END

*D_NET *352 0.00555392
*CONN
*I *1731:A2 I *D gf180mcu_fd_sc_mcu7t5v0__aoi22_1
*I *1661:A1 I *D gf180mcu_fd_sc_mcu7t5v0__nand3_1
*I *1660:ZN O *D gf180mcu_fd_sc_mcu7t5v0__oai21_1
*CAP
1 *1731:A2 0
2 *1661:A1 7.04748e-05
3 *1660:ZN 0.00124977
4 *352:12 0.00132024
5 *1661:A1 *1731:A1 0.000222002
6 *1661:A1 *567:20 7.8081e-05
7 *352:12 *1734:A2 0.000140012
8 *352:12 *1734:B 0.00043521
9 *352:12 *1738:A1 0.000122472
10 *352:12 *483:63 3.31858e-06
11 *352:12 *487:41 3.33773e-05
12 *352:12 *488:37 0.000167273
13 *352:12 *516:14 0.000344784
14 *352:12 *567:20 9.84776e-05
15 *1633:A1 *352:12 0
16 *1633:A2 *352:12 9.5189e-05
17 *1743:A1 *352:12 0
18 *1823:D *352:12 0
19 *316:58 *1661:A1 4.29496e-05
20 *316:58 *352:12 0.000200085
21 *316:62 *352:12 0.000208327
22 *316:81 *352:12 0.000721872
*RES
1 *1660:ZN *352:12 25.2 
2 *352:12 *1661:A1 5.49 
3 *352:12 *1731:A2 4.5 
*END

*D_NET *353 0.00125238
*CONN
*I *1662:A1 I *D gf180mcu_fd_sc_mcu7t5v0__oai21_1
*I *1661:ZN O *D gf180mcu_fd_sc_mcu7t5v0__nand3_1
*CAP
1 *1662:A1 0.000200256
2 *1661:ZN 0.000200256
3 *1662:A1 *1664:A1 0.000117116
4 *1662:A1 *1969:I 0
5 *1630:A1 *1662:A1 0.000362773
6 *1630:A2 *1662:A1 0.000234541
7 *1662:A2 *1662:A1 7.48689e-05
8 *316:43 *1662:A1 3.55537e-05
9 *322:12 *1662:A1 2.70125e-05
*RES
1 *1661:ZN *1662:A1 20.34 
*END

*D_NET *354 0.00301024
*CONN
*I *1664:A1 I *D gf180mcu_fd_sc_mcu7t5v0__nand2_1
*I *1662:ZN O *D gf180mcu_fd_sc_mcu7t5v0__oai21_1
*CAP
1 *1664:A1 0.000584098
2 *1662:ZN 0.000584098
3 *1664:A1 *1630:B 0.000287975
4 *1664:A1 *1664:A2 0.000158773
5 *1664:A1 *1969:I 0.000332025
6 *1630:A1 *1664:A1 8.00409e-05
7 *1662:A1 *1664:A1 0.000117116
8 *1662:A2 *1664:A1 1.61174e-05
9 *1662:B *1664:A1 0.000436469
10 *1806:D *1664:A1 0.000384091
11 *1824:D *1664:A1 0
12 *316:43 *1664:A1 1.23607e-05
13 *322:12 *1664:A1 1.70787e-05
*RES
1 *1662:ZN *1664:A1 24.57 
*END

*D_NET *355 0.00214502
*CONN
*I *1664:A2 I *D gf180mcu_fd_sc_mcu7t5v0__nand2_1
*I *1663:Z O *D gf180mcu_fd_sc_mcu7t5v0__or2_1
*CAP
1 *1664:A2 0.000343393
2 *1663:Z 0.000343393
3 *1664:A2 *1663:A2 0.000127736
4 *1664:A2 *1821:CLK 0
5 *1664:A2 *1824:CLK 0.000705737
6 *1664:A2 *1969:I 2.14748e-05
7 *1664:A2 *474:48 0.000444513
8 *1664:A1 *1664:A2 0.000158773
*RES
1 *1663:Z *1664:A2 13.59 
*END

*D_NET *356 0.0353251
*CONN
*I *1700:A4 I *D gf180mcu_fd_sc_mcu7t5v0__nand4_1
*I *1696:A4 I *D gf180mcu_fd_sc_mcu7t5v0__nand4_1
*I *1698:A2 I *D gf180mcu_fd_sc_mcu7t5v0__aoi21_1
*I *1718:B I *D gf180mcu_fd_sc_mcu7t5v0__aoi211_1
*I *1677:A3 I *D gf180mcu_fd_sc_mcu7t5v0__nand4_1
*I *1673:A3 I *D gf180mcu_fd_sc_mcu7t5v0__nand4_1
*I *1671:A3 I *D gf180mcu_fd_sc_mcu7t5v0__nand4_1
*I *1707:C I *D gf180mcu_fd_sc_mcu7t5v0__oai221_1
*I *1725:A1 I *D gf180mcu_fd_sc_mcu7t5v0__oai211_1
*I *1665:ZN O *D gf180mcu_fd_sc_mcu7t5v0__nor2_1
*CAP
1 *1700:A4 0.000576313
2 *1696:A4 0
3 *1698:A2 0.000396175
4 *1718:B 2.41673e-05
5 *1677:A3 0.00034778
6 *1673:A3 0
7 *1671:A3 0
8 *1707:C 0.000462051
9 *1725:A1 0
10 *1665:ZN 0.000583897
11 *356:90 0.000396175
12 *356:88 0.000798268
13 *356:77 0.000378231
14 *356:55 0.000906235
15 *356:42 0.00119303
16 *356:27 0.00121622
17 *356:14 0.000419514
18 *356:10 0.00101593
19 *1677:A3 *1674:B 0.00035867
20 *1677:A3 *1677:A4 0.00045951
21 *1677:A3 *1678:B 0
22 *1677:A3 *475:103 0
23 *1698:A2 *1666:A2 0.000354728
24 *1698:A2 *1670:A2 7.77227e-05
25 *1698:A2 *1722:A2 6.84043e-05
26 *1698:A2 *1816:CLK 3.12451e-05
27 *1698:A2 *359:10 0.000557073
28 *1698:A2 *361:30 0.000591244
29 *1700:A4 *1697:S 0.000251578
30 *1700:A4 *372:10 8.68281e-06
31 *1707:C *485:64 0.000112842
32 *1718:B *1718:A1 3.55118e-05
33 *1718:B *1718:C 3.98088e-05
34 *1718:B *1744:A2 1.69023e-06
35 *356:10 *1618:A1 6.91924e-05
36 *356:10 *1618:A2 0.000419213
37 *356:10 *1687:A3 3.26104e-05
38 *356:10 *1715:A3 0.00168828
39 *356:10 *463:21 0.000178896
40 *356:10 *486:8 0
41 *356:10 *486:20 0.00077783
42 *356:14 *1739:A2 0.000942611
43 *356:27 *1739:A2 0.00296144
44 *356:42 *1622:A2 0.000641018
45 *356:42 *1807:CLK 2.05328e-05
46 *356:42 *485:64 0.000110969
47 *356:55 *1673:A1 0.000127399
48 *356:55 *1677:A4 1.0415e-05
49 *356:55 *1807:CLK 3.28992e-05
50 *356:55 *359:53 0.00210167
51 *356:55 *361:30 2.91509e-05
52 *356:55 *361:39 0
53 *356:55 *361:71 0
54 *356:55 *473:61 0.00035741
55 *356:77 *1687:A3 1.23209e-05
56 *356:77 *1715:A3 0.000224584
57 *356:77 *486:114 3.62799e-05
58 *356:88 *1666:A2 7.05157e-05
59 *356:88 *486:114 5.28867e-05
60 *1610:A2 *356:42 0
61 *1611:A1 *1707:C 0.000305206
62 *1611:A1 *356:42 5.78317e-05
63 *1612:A2 *1707:C 0.000296926
64 *1612:A2 *356:42 0.0012027
65 *1622:A1 *356:42 0.000441629
66 *1623:A1 *1707:C 0.000164219
67 *1665:A1 *356:10 0.000294421
68 *1671:A2 *356:42 0.00043521
69 *1673:A2 *1677:A3 0.000646868
70 *1674:A1 *1677:A3 0.000100113
71 *1682:A2 *1698:A2 0.000167319
72 *1690:A2 *1707:C 0.000795001
73 *1698:A1 *1698:A2 4.34121e-06
74 *1718:A2 *1718:B 2.89427e-06
75 *1807:D *356:55 9.98816e-05
76 *1808:D *1677:A3 3.38735e-05
77 *1816:D *1700:A4 0.000234541
78 *123:57 *356:42 0
79 *123:72 *356:42 0
80 *138:16 *356:10 0
81 *139:36 *356:10 3.60134e-05
82 *139:76 *1698:A2 0
83 *139:76 *1700:A4 6.41301e-05
84 *139:76 *356:88 7.28135e-05
85 *139:103 *1700:A4 0.00145373
86 *142:14 *356:14 0.000984908
87 *142:14 *356:27 0.00299986
88 *142:18 *356:14 0.000627061
89 *291:14 *1700:A4 0.000908459
90 *297:30 *1700:A4 3.60189e-05
91 *297:30 *356:88 3.0177e-06
92 *301:10 *1707:C 0.00016287
93 *304:16 *1700:A4 6.16698e-05
94 *317:16 *1698:A2 7.0736e-05
*RES
1 *1665:ZN *356:10 16.74 
2 *356:10 *356:14 8.73 
3 *356:14 *1725:A1 13.5 
4 *356:14 *356:27 12.33 
5 *356:27 *1707:C 14.49 
6 *356:27 *356:42 8.19 
7 *356:42 *1671:A3 9 
8 *356:42 *356:55 11.52 
9 *356:55 *1673:A3 4.5 
10 *356:55 *1677:A3 9.45 
11 *356:10 *356:77 1.17 
12 *356:77 *1718:B 9.27 
13 *356:77 *356:88 1.89 
14 *356:88 *356:90 4.5 
15 *356:90 *1698:A2 18.63 
16 *356:90 *1696:A4 4.5 
17 *356:88 *1700:A4 16.65 
*END

*D_NET *357 0.00728421
*CONN
*I *1744:A2 I *D gf180mcu_fd_sc_mcu7t5v0__oai221_1
*I *1670:A2 I *D gf180mcu_fd_sc_mcu7t5v0__nor4_1
*I *1666:ZN O *D gf180mcu_fd_sc_mcu7t5v0__nand2_1
*CAP
1 *1744:A2 0.00246695
2 *1670:A2 0.000338108
3 *1666:ZN 0
4 *357:4 0.00280506
5 *1670:A2 *1666:A2 1.84368e-05
6 *1670:A2 *1670:A3 1.478e-05
7 *1670:A2 *1719:A2 6.28101e-05
8 *1670:A2 *361:30 0.000172267
9 *1744:A2 *1687:A2 7.65946e-06
10 *1744:A2 *1718:A1 3.32089e-05
11 *1744:A2 *1751:A1 0.000182034
12 *1744:A2 *370:6 1.61174e-05
13 *1744:A2 *422:30 0
14 *1744:A2 *480:28 0.000236142
15 *1744:A2 *486:118 2.47509e-05
16 *1666:A1 *1670:A2 1.0415e-05
17 *1666:A1 *1744:A2 0.000288297
18 *1687:A1 *1744:A2 0.000133728
19 *1698:A2 *1670:A2 7.77227e-05
20 *1718:A2 *1670:A2 1.0415e-05
21 *1718:A2 *1744:A2 0.000100224
22 *1718:B *1744:A2 1.69023e-06
23 *139:72 *1670:A2 0.000207343
24 *300:81 *1744:A2 5.74032e-05
25 *317:12 *1744:A2 0
26 *317:16 *1670:A2 0
27 *317:29 *1670:A2 1.86452e-05
*RES
1 *1666:ZN *357:4 4.5 
2 *357:4 *1670:A2 7.74 
3 *357:4 *1744:A2 38.25 
*END

*D_NET *358 0.00454945
*CONN
*I *1670:A3 I *D gf180mcu_fd_sc_mcu7t5v0__nor4_1
*I *1724:B I *D gf180mcu_fd_sc_mcu7t5v0__aoi21_1
*I *1667:ZN O *D gf180mcu_fd_sc_mcu7t5v0__oai21_1
*CAP
1 *1670:A3 0.000381066
2 *1724:B 0.000561169
3 *1667:ZN 0
4 *358:4 0.000942235
5 *1670:A3 *1667:A2 6.02974e-05
6 *1670:A3 *1719:A2 3.84844e-06
7 *1670:A3 *1916:I 4.73129e-05
8 *1670:A3 *485:18 6.36346e-05
9 *1724:B *1404:I 0.000517818
10 *1724:B *1667:A2 3.01487e-05
11 *1724:B *1724:A1 0.000314828
12 *1724:B *1912:I 0.000127458
13 *1724:B *484:14 0.000448058
14 *1724:B *485:18 2.95601e-05
15 *1724:B *569:6 0.000286386
16 *1724:B *569:10 1.3026e-05
17 *1667:A1 *1670:A3 0.000100105
18 *1670:A2 *1670:A3 1.478e-05
19 *1760:A1 *1724:B 0.000453907
20 *142:33 *1724:B 0.000126221
21 *289:8 *1670:A3 2.75951e-05
*RES
1 *1667:ZN *358:4 4.5 
2 *358:4 *1724:B 21.15 
3 *358:4 *1670:A3 7.2 
*END

*D_NET *359 0.0294041
*CONN
*I *1677:A4 I *D gf180mcu_fd_sc_mcu7t5v0__nand4_1
*I *1673:A4 I *D gf180mcu_fd_sc_mcu7t5v0__nand4_1
*I *1747:A2 I *D gf180mcu_fd_sc_mcu7t5v0__nand2_1
*I *1742:B I *D gf180mcu_fd_sc_mcu7t5v0__oai31_1
*I *1751:A4 I *D gf180mcu_fd_sc_mcu7t5v0__nand4_1
*I *1753:A4 I *D gf180mcu_fd_sc_mcu7t5v0__nand4_1
*I *1733:A2 I *D gf180mcu_fd_sc_mcu7t5v0__nand2_1
*I *1671:A4 I *D gf180mcu_fd_sc_mcu7t5v0__nand4_1
*I *1691:A4 I *D gf180mcu_fd_sc_mcu7t5v0__nand4_1
*I *1696:A1 I *D gf180mcu_fd_sc_mcu7t5v0__nand4_1
*I *1668:ZN O *D gf180mcu_fd_sc_mcu7t5v0__nor3_1
*CAP
1 *1677:A4 0.00028857
2 *1673:A4 0
3 *1747:A2 0.000260279
4 *1742:B 0
5 *1751:A4 1.96728e-05
6 *1753:A4 0.000204423
7 *1733:A2 0.000210639
8 *1671:A4 0
9 *1691:A4 0
10 *1696:A1 0
11 *1668:ZN 0.000453267
12 *359:86 0.000651088
13 *359:69 0.00063763
14 *359:67 0.000227305
15 *359:61 0.00117905
16 *359:53 0.00143761
17 *359:40 0.00104852
18 *359:25 0.00117716
19 *359:10 0.00103947
20 *1677:A4 *1674:B 0.000844075
21 *1733:A2 *1732:A2 0.000494094
22 *1733:A2 *1733:A1 8.49214e-05
23 *1733:A2 *404:28 1.23607e-05
24 *1733:A2 *480:18 0.00107597
25 *1733:A2 *483:63 0
26 *1747:A2 *1742:A3 6.92926e-05
27 *1747:A2 *1748:B 0.000111109
28 *1747:A2 *1751:A1 0.000294149
29 *1747:A2 *385:38 0
30 *1751:A4 *1823:CLK 9.90362e-06
31 *1751:A4 *487:14 1.51153e-05
32 *1753:A4 *1739:A2 6.96766e-06
33 *1753:A4 *1751:A1 9.04462e-05
34 *1753:A4 *488:37 0.00014106
35 *359:10 *1668:A1 9.12635e-05
36 *359:10 *1699:A4 7.73641e-05
37 *359:10 *1721:B 0.000196314
38 *359:10 *1761:A2 0.000343854
39 *359:10 *1763:A2 1.0415e-05
40 *359:10 *1816:CLK 3.24299e-05
41 *359:10 *485:18 5.66236e-06
42 *359:25 *1691:A2 0.000510378
43 *359:25 *1694:B 0
44 *359:25 *1695:S 2.36152e-06
45 *359:25 *1721:B 0.000215897
46 *359:40 *1671:A1 4.26636e-06
47 *359:40 *1672:B 0.000240538
48 *359:40 *1695:I0 8.68398e-06
49 *359:40 *1695:S 0.00013169
50 *359:40 *1700:A1 0
51 *359:40 *1815:CLK 1.70787e-05
52 *359:40 *361:30 0.00206539
53 *359:40 *473:45 0.000265822
54 *359:40 *473:52 0.000256778
55 *359:40 *473:61 7.69936e-06
56 *359:40 *492:120 4.0961e-06
57 *359:53 *1672:B 0.000164507
58 *359:53 *1807:CLK 9.2838e-05
59 *359:61 *1741:A1 0
60 *359:61 *1742:A3 3.0357e-05
61 *359:61 *487:41 3.75599e-05
62 *359:61 *487:51 0
63 *359:61 *489:12 0
64 *359:67 *1742:A2 5.09129e-05
65 *359:67 *1742:A3 3.86901e-05
66 *359:67 *1743:A2 0.000228434
67 *359:67 *385:38 0.000406981
68 *359:67 *480:18 0.000415026
69 *359:67 *487:51 0
70 *359:86 *1742:A2 3.01487e-05
71 *359:86 *1743:A2 0.000567799
72 *359:86 *1743:B 2.21213e-05
73 *359:86 *1823:CLK 5.93924e-05
74 *359:86 *480:18 3.92172e-06
75 *359:86 *487:14 0.000128061
76 *1625:A1 *359:25 0.000225543
77 *1634:A1 *359:61 0.000653857
78 *1635:A1 *359:61 0.000515792
79 *1662:A2 *1733:A2 2.78423e-05
80 *1662:A2 *359:61 0.00121449
81 *1662:A2 *359:67 0.000175877
82 *1662:A2 *359:86 3.49918e-05
83 *1673:A2 *359:61 0
84 *1677:A3 *1677:A4 0.00045951
85 *1689:B *359:25 0.000386163
86 *1689:B *359:40 6.10354e-05
87 *1698:A1 *359:10 0
88 *1698:A2 *359:10 0.000557073
89 *1700:A3 *359:40 8.54106e-06
90 *1721:A1 *359:25 0.00019915
91 *1743:A1 *359:86 7.40965e-05
92 *1751:A2 *1753:A4 0.000361038
93 *1751:A3 *1751:A4 1.0415e-05
94 *1751:A3 *359:86 9.16703e-05
95 *1753:A3 *1753:A4 1.18477e-05
96 *1815:D *359:40 0.000302466
97 *288:29 *359:10 1.19161e-05
98 *290:10 *359:10 9.04462e-05
99 *291:14 *359:10 0
100 *292:18 *1733:A2 0.00015651
101 *292:18 *359:86 0.000222203
102 *300:16 *359:40 0.000164219
103 *300:20 *359:40 0
104 *300:22 *359:25 9.556e-05
105 *302:18 *359:25 0.000235076
106 *302:18 *359:40 3.22348e-05
107 *309:48 *1753:A4 5.60661e-06
108 *316:58 *359:86 0.000172267
109 *316:87 *1677:A4 0.000482834
110 *316:97 *1677:A4 0.000125121
111 *316:97 *359:53 0.000208631
112 *316:97 *359:61 0
113 *317:12 *359:10 7.20334e-05
114 *317:12 *359:25 0.000537709
115 *317:16 *359:10 0.000351194
116 *351:26 *359:61 0.0001082
117 *356:55 *1677:A4 1.0415e-05
118 *356:55 *359:53 0.00210167
*RES
1 *1668:ZN *359:10 9.99 
2 *359:10 *1696:A1 4.5 
3 *359:10 *359:25 16.29 
4 *359:25 *1691:A4 4.5 
5 *359:25 *359:40 17.91 
6 *359:40 *1671:A4 4.5 
7 *359:40 *359:53 6.84 
8 *359:53 *359:61 12.15 
9 *359:61 *359:67 7.56 
10 *359:67 *359:69 4.5 
11 *359:69 *1733:A2 12.42 
12 *359:69 *359:86 9.18 
13 *359:86 *1753:A4 15.48 
14 *359:86 *1751:A4 4.77 
15 *359:67 *1742:B 4.5 
16 *359:61 *1747:A2 11.43 
17 *359:53 *1673:A4 4.5 
18 *359:53 *1677:A4 9.27 
*END

*D_NET *360 0.0190971
*CONN
*I *1739:A2 I *D gf180mcu_fd_sc_mcu7t5v0__nor3_1
*I *1749:A2 I *D gf180mcu_fd_sc_mcu7t5v0__nor4_1
*I *1719:B I *D gf180mcu_fd_sc_mcu7t5v0__aoi21_1
*I *1669:ZN O *D gf180mcu_fd_sc_mcu7t5v0__nand2_1
*CAP
1 *1739:A2 0.00129645
2 *1749:A2 0
3 *1719:B 0.00043451
4 *1669:ZN 0
5 *360:6 0.000535532
6 *360:4 0.00139747
7 *1719:B *1723:A2 3.46495e-05
8 *1719:B *1750:S 0.000148576
9 *1719:B *393:8 0.000613101
10 *1719:B *472:12 6.5247e-05
11 *1719:B *483:63 0.000136472
12 *1719:B *486:103 0.000918485
13 *1719:B *486:114 0.000169524
14 *1739:A2 *1738:A1 4.49934e-06
15 *1739:A2 *483:63 1.71254e-05
16 *1739:A2 *487:14 2.58435e-05
17 *1739:A2 *488:37 9.11356e-05
18 *360:6 *1687:A3 2.57745e-05
19 *360:6 *486:114 1.85072e-05
20 *1669:A1 *360:6 1.0415e-05
21 *1717:C *1719:B 8.00533e-05
22 *1717:C *360:6 1.61174e-05
23 *1753:A4 *1739:A2 6.96766e-06
24 *138:16 *1739:A2 4.22217e-05
25 *138:20 *360:6 8.3795e-05
26 *138:36 *1739:A2 6.2083e-06
27 *139:53 *1719:B 0.000708085
28 *142:14 *1739:A2 0.00183922
29 *292:18 *1739:A2 0.00609444
30 *297:30 *360:6 0.000366407
31 *317:45 *360:6 6.17789e-06
32 *356:14 *1739:A2 0.000942611
33 *356:27 *1739:A2 0.00296144
*RES
1 *1669:ZN *360:4 4.5 
2 *360:4 *360:6 1.35 
3 *360:6 *1719:B 20.07 
4 *360:6 *1749:A2 4.5 
5 *360:4 *1739:A2 45.99 
*END

*D_NET *361 0.0272364
*CONN
*I *1678:A2 I *D gf180mcu_fd_sc_mcu7t5v0__oai21_1
*I *1674:A2 I *D gf180mcu_fd_sc_mcu7t5v0__oai21_1
*I *1675:S I *D gf180mcu_fd_sc_mcu7t5v0__mux2_2
*I *1949:I I *D gf180mcu_fd_sc_mcu7t5v0__buf_2
*I *1672:A2 I *D gf180mcu_fd_sc_mcu7t5v0__oai21_1
*I *1670:ZN O *D gf180mcu_fd_sc_mcu7t5v0__nor4_1
*CAP
1 *1678:A2 0.000168553
2 *1674:A2 0.000116574
3 *1675:S 0.000603348
4 *1949:I 3.59191e-05
5 *1672:A2 0
6 *1670:ZN 0.00237438
7 *361:71 0.000849744
8 *361:47 0.00242489
9 *361:39 0.00263927
10 *361:30 0.00266342
11 *1675:S *1530:A1 0.000128834
12 *1675:S *1782:B2 6.71273e-05
13 *1675:S *1790:B2 3.38463e-05
14 *1675:S *1866:CLK 7.20436e-05
15 *1675:S *434:90 6.38612e-06
16 *1675:S *492:247 0.000365635
17 *1675:S *559:33 0.000926906
18 *1675:S *559:67 2.50084e-05
19 *1675:S *560:77 0.000136958
20 *1678:A2 *475:103 8.69945e-06
21 *1949:I *1425:I 0
22 *361:30 *1671:A1 0.000222536
23 *361:30 *1695:I0 0.000100101
24 *361:30 *1697:I1 2.72966e-05
25 *361:30 *1698:B 0
26 *361:30 *1701:A2 0.000480025
27 *361:30 *1722:A2 6.50415e-05
28 *361:30 *1807:CLK 0
29 *361:30 *1884:CLK 0
30 *361:30 *473:52 7.5133e-05
31 *361:30 *473:61 9.98816e-05
32 *361:30 *484:71 0.000495005
33 *361:30 *492:105 6.99656e-05
34 *361:30 *492:120 0.00015554
35 *361:39 *473:61 2.40587e-06
36 *361:47 *1425:I 0.000186939
37 *361:47 *1782:B2 2.86935e-05
38 *361:47 *1884:CLK 0
39 *361:47 *487:156 0.000291659
40 *361:47 *581:16 0
41 *361:47 *582:14 0
42 *361:47 *582:107 0
43 *361:71 *1399:I 9.04539e-05
44 *361:71 *1673:A1 0.000176638
45 *361:71 *1855:CLK 0.000215887
46 *361:71 *475:103 2.93369e-05
47 *1467:A1 *361:47 0.000193613
48 *1497:A1 *361:47 0.000152267
49 *1497:B1 *361:47 0.000115427
50 *1511:A1 *1949:I 8.49208e-05
51 *1511:A2 *1675:S 1.68605e-05
52 *1512:I0 *1675:S 4.51309e-06
53 *1516:B *1675:S 0.00115762
54 *1530:A2 *1675:S 0.00115701
55 *1532:A2 *1675:S 0.000496178
56 *1549:B2 *361:30 5.17662e-05
57 *1549:B2 *361:39 1.0415e-05
58 *1552:A1 *361:71 0
59 *1633:A2 *1678:A2 5.81806e-05
60 *1670:A2 *361:30 0.000172267
61 *1672:A1 *361:30 0
62 *1673:A2 *361:71 7.54878e-05
63 *1674:A1 *1678:A2 0.000719491
64 *1698:A2 *361:30 0.000591244
65 *1701:B *361:30 2.31089e-05
66 *1803:A1 *361:71 0
67 *1803:A2 *361:71 7.96333e-06
68 *1807:D *361:39 7.01651e-05
69 *1808:D *1674:A2 0.000330681
70 *1808:D *361:71 0.000112471
71 *1816:D *361:30 0.000119182
72 *1855:D *361:71 0
73 *1866:D *1675:S 0.00036024
74 *1879:D *361:30 3.68874e-05
75 *1884:D *361:47 0
76 *122:8 *361:39 0.0001937
77 *122:8 *361:71 0.000128169
78 *139:76 *361:30 0
79 *139:103 *361:30 0
80 *152:52 *361:47 0.000103592
81 *176:20 *361:47 3.24083e-05
82 *176:43 *1675:S 3.48995e-05
83 *176:43 *361:47 0.000502684
84 *179:77 *361:47 0.000674974
85 *208:22 *361:47 0.000440674
86 *317:16 *361:30 1.4382e-06
87 *317:29 *361:30 0.000451316
88 *356:55 *361:30 2.91509e-05
89 *356:55 *361:39 0
90 *356:55 *361:71 0
91 *359:40 *361:30 0.00206539
*RES
1 *1670:ZN *361:30 45.99 
2 *361:30 *1672:A2 4.5 
3 *361:30 *361:39 2.7 
4 *361:39 *361:47 20.97 
5 *361:47 *1949:I 9.27 
6 *361:47 *1675:S 19.17 
7 *361:39 *361:71 5.31 
8 *361:71 *1674:A2 5.58 
9 *361:71 *1678:A2 15.84 
*END

*D_NET *362 0.00085821
*CONN
*I *1672:B I *D gf180mcu_fd_sc_mcu7t5v0__oai21_1
*I *1671:ZN O *D gf180mcu_fd_sc_mcu7t5v0__nand4_1
*CAP
1 *1672:B 0.000194821
2 *1671:ZN 0.000194821
3 *1672:B *1671:A1 2.37143e-05
4 *1672:B *1807:CLK 3.98088e-05
5 *139:103 *1672:B 0
6 *359:40 *1672:B 0.000240538
7 *359:53 *1672:B 0.000164507
*RES
1 *1671:ZN *1672:B 10.98 
*END

*D_NET *363 0.00135521
*CONN
*I *1674:B I *D gf180mcu_fd_sc_mcu7t5v0__oai21_1
*I *1673:ZN O *D gf180mcu_fd_sc_mcu7t5v0__nand4_1
*CAP
1 *1674:B 7.62336e-05
2 *1673:ZN 7.62336e-05
3 *1677:A3 *1674:B 0.00035867
4 *1677:A4 *1674:B 0.000844075
*RES
1 *1673:ZN *1674:B 11.25 
*END

*D_NET *364 0.000769539
*CONN
*I *1678:B I *D gf180mcu_fd_sc_mcu7t5v0__oai21_1
*I *1677:ZN O *D gf180mcu_fd_sc_mcu7t5v0__nand4_1
*CAP
1 *1678:B 0.000159174
2 *1677:ZN 0.000159174
3 *1678:B *1677:A1 1.61174e-05
4 *1678:B *475:103 0.000435073
5 *1677:A3 *1678:B 0
*RES
1 *1677:ZN *1678:B 10.62 
*END

*D_NET *365 0.00154038
*CONN
*I *1721:B I *D gf180mcu_fd_sc_mcu7t5v0__aoi21_1
*I *1682:ZN O *D gf180mcu_fd_sc_mcu7t5v0__nand2_1
*CAP
1 *1721:B 0.000259284
2 *1682:ZN 0.000259284
3 *1721:B *1722:A2 7.53993e-05
4 *1721:B *1816:CLK 0.000518088
5 *1721:A1 *1721:B 1.61174e-05
6 *304:27 *1721:B 0
7 *359:10 *1721:B 0.000196314
8 *359:25 *1721:B 0.000215897
*RES
1 *1682:ZN *1721:B 12.6 
*END

*D_NET *366 0.00590165
*CONN
*I *1684:A2 I *D gf180mcu_fd_sc_mcu7t5v0__nand2_1
*I *1706:A1 I *D gf180mcu_fd_sc_mcu7t5v0__oai31_1
*I *1683:ZN O *D gf180mcu_fd_sc_mcu7t5v0__oai21_1
*CAP
1 *1684:A2 0.000155464
2 *1706:A1 0.000565993
3 *1683:ZN 0.000179865
4 *366:12 0.000901322
5 *1684:A2 *1603:A3 0.00077472
6 *1684:A2 *480:42 0.000215639
7 *1706:A1 *1603:A3 0.00043263
8 *1706:A1 *1623:A3 2.13441e-06
9 *1706:A1 *1685:A1 0.000106536
10 *1706:A1 *1686:A1 7.12154e-05
11 *1706:A1 *385:10 5.15152e-05
12 *1706:A1 *385:27 9.42156e-05
13 *1706:A1 *386:18 9.84908e-05
14 *1706:A1 *480:42 0.000227626
15 *1706:A1 *480:50 0.00128936
16 *1706:A1 *487:68 4.16618e-06
17 *1615:A1 *1706:A1 0.000275217
18 *1621:B *1706:A1 1.18477e-05
19 *1623:B1 *1706:A1 3.31833e-05
20 *1683:A1 *1684:A2 2.73771e-05
21 *1683:A2 *366:12 2.79026e-05
22 *1684:A1 *1684:A2 4.62661e-05
23 *1692:A3 *366:12 3.84635e-06
24 *1710:A2 *1684:A2 0.000158788
25 *1721:A1 *1684:A2 7.191e-07
26 *123:10 *1706:A1 9.21518e-05
27 *124:37 *366:12 2.64061e-06
28 *135:19 *1684:A2 1.39841e-05
29 *309:31 *366:12 3.6834e-05
*RES
1 *1683:ZN *366:12 9.99 
2 *366:12 *1706:A1 15.84 
3 *366:12 *1684:A2 11.79 
*END

*D_NET *367 0.00300051
*CONN
*I *1691:A1 I *D gf180mcu_fd_sc_mcu7t5v0__nand4_1
*I *1684:ZN O *D gf180mcu_fd_sc_mcu7t5v0__nand2_1
*CAP
1 *1691:A1 0.000230325
2 *1684:ZN 0.000230325
3 *1691:A1 *1603:A3 0.000319384
4 *1612:A2 *1691:A1 0
5 *1625:A1 *1691:A1 5.05718e-05
6 *1693:A1 *1691:A1 0.00048604
7 *1721:A1 *1691:A1 0.00158892
8 *295:8 *1691:A1 9.49421e-05
*RES
1 *1684:ZN *1691:A1 13.86 
*END

*D_NET *368 0.000791838
*CONN
*I *1706:A2 I *D gf180mcu_fd_sc_mcu7t5v0__oai31_1
*I *1685:Z O *D gf180mcu_fd_sc_mcu7t5v0__and4_1
*CAP
1 *1706:A2 0.000181834
2 *1685:Z 0.000181834
3 *1706:A2 *385:10 0.000223284
4 *1706:A2 *386:18 1.33034e-05
5 *1706:A2 *480:62 0.000154519
6 *1616:A1 *1706:A2 3.70642e-05
*RES
1 *1685:Z *1706:A2 19.35 
*END

*D_NET *369 0.00253718
*CONN
*I *1702:A3 I *D gf180mcu_fd_sc_mcu7t5v0__nand4_1
*I *1686:ZN O *D gf180mcu_fd_sc_mcu7t5v0__nand4_1
*CAP
1 *1702:A3 0.000751573
2 *1686:ZN 0.000751573
3 *1702:A3 *1702:A2 2.93938e-05
4 *1702:A3 *1709:A2 0.000284918
5 *1702:A3 *1718:A1 2.98533e-05
6 *1702:A3 *1751:A1 0.000110439
7 *1702:A3 *388:18 2.97431e-05
8 *1669:A1 *1702:A3 9.84908e-05
9 *1692:A3 *1702:A3 8.69576e-05
10 *1725:B *1702:A3 0.000130361
11 *297:20 *1702:A3 8.05869e-05
12 *297:30 *1702:A3 1.61174e-05
13 *307:22 *1702:A3 0.000124167
14 *317:45 *1702:A3 1.30094e-05
*RES
1 *1686:ZN *1702:A3 14.85 
*END

*D_NET *370 0.0030528
*CONN
*I *1688:A4 I *D gf180mcu_fd_sc_mcu7t5v0__nand4_1
*I *1709:A2 I *D gf180mcu_fd_sc_mcu7t5v0__nand3_1
*I *1725:A2 I *D gf180mcu_fd_sc_mcu7t5v0__oai211_1
*I *1687:ZN O *D gf180mcu_fd_sc_mcu7t5v0__nor3_1
*CAP
1 *1688:A4 0.000164598
2 *1709:A2 0.000143349
3 *1725:A2 0
4 *1687:ZN 0.000191145
5 *370:12 0.000220695
6 *370:6 0.000433089
7 *1688:A4 *1625:A2 6.97829e-06
8 *1688:A4 *1751:A1 5.28485e-05
9 *1688:A4 *567:77 6.06287e-05
10 *1688:A4 *567:88 8.89409e-06
11 *1709:A2 *1751:A1 3.48255e-05
12 *370:6 *1625:A2 7.191e-07
13 *370:6 *1751:A1 5.96318e-05
14 *1702:A3 *1709:A2 0.000284918
15 *1708:A3 *1709:A2 0.000322897
16 *1710:A2 *1709:A2 0.000316683
17 *1710:A2 *370:12 0.000153489
18 *1744:A2 *370:6 1.61174e-05
19 *300:22 *370:12 0.000581297
20 *317:12 *370:6 0
*RES
1 *1687:ZN *370:6 5.67 
2 *370:6 *370:12 10.53 
3 *370:12 *1725:A2 4.5 
4 *370:12 *1709:A2 15.3 
5 *370:6 *1688:A4 5.67 
*END

*D_NET *371 0.00154213
*CONN
*I *1691:A2 I *D gf180mcu_fd_sc_mcu7t5v0__nand4_1
*I *1688:ZN O *D gf180mcu_fd_sc_mcu7t5v0__nand4_1
*CAP
1 *1691:A2 0.000154544
2 *1688:ZN 0.000154544
3 *1691:A2 *1693:A3 2.5448e-05
4 *1691:A2 *1694:A3 0
5 *1691:A2 *1694:B 0
6 *1625:A1 *1691:A2 1.07281e-05
7 *1710:A2 *1691:A2 0.000238643
8 *295:12 *1691:A2 0.00044291
9 *300:22 *1691:A2 4.93098e-06
10 *359:25 *1691:A2 0.000510378
*RES
1 *1688:ZN *1691:A2 20.43 
*END

*D_NET *372 0.00676645
*CONN
*I *1691:A3 I *D gf180mcu_fd_sc_mcu7t5v0__nand4_1
*I *1718:A1 I *D gf180mcu_fd_sc_mcu7t5v0__aoi211_1
*I *1702:A2 I *D gf180mcu_fd_sc_mcu7t5v0__nand4_1
*I *1689:ZN O *D gf180mcu_fd_sc_mcu7t5v0__aoi21_1
*CAP
1 *1691:A3 3.22358e-05
2 *1718:A1 0.000494964
3 *1702:A2 0.000264581
4 *1689:ZN 0
5 *372:10 0.00101898
6 *372:4 0.000291669
7 *1718:A1 *1687:A2 0.000152028
8 *1718:A1 *1715:A3 0.000618063
9 *1718:A1 *1751:A1 0.000119182
10 *1718:A1 *486:118 9.6428e-06
11 *1600:I *372:10 0
12 *1669:A1 *1702:A2 9.84908e-05
13 *1669:A1 *1718:A1 1.79237e-05
14 *1689:A2 *1691:A3 3.55118e-05
15 *1689:A2 *372:10 0.000106536
16 *1700:A4 *372:10 8.68281e-06
17 *1702:A3 *1702:A2 2.93938e-05
18 *1702:A3 *1718:A1 2.98533e-05
19 *1718:B *1718:A1 3.55118e-05
20 *1744:A2 *1718:A1 3.32089e-05
21 *139:103 *372:10 3.92905e-06
22 *292:8 *1702:A2 3.03502e-05
23 *292:8 *372:10 0.000203481
24 *300:20 *372:10 0.000127778
25 *300:22 *1702:A2 0.000240827
26 *300:22 *372:10 0.00178661
27 *302:18 *1691:A3 0.000177026
28 *304:16 *1691:A3 0.000177026
29 *304:16 *372:10 0.000229822
30 *317:12 *372:10 0.000393144
*RES
1 *1689:ZN *372:4 4.5 
2 *372:4 *372:10 10.08 
3 *372:10 *1702:A2 11.25 
4 *372:10 *1718:A1 13.41 
5 *372:4 *1691:A3 5.13 
*END

*D_NET *373 0.00139426
*CONN
*I *1706:A3 I *D gf180mcu_fd_sc_mcu7t5v0__oai31_1
*I *1690:ZN O *D gf180mcu_fd_sc_mcu7t5v0__oai22_1
*CAP
1 *1706:A3 0.00049466
2 *1690:ZN 0.00049466
3 *1706:A3 *1611:A2 4.16305e-05
4 *1706:A3 *1621:A2 5.64172e-05
5 *1706:A3 *1690:B1 2.31089e-05
6 *1706:A3 *386:18 0
7 *1706:A3 *403:14 0.000157776
8 *1706:A3 *480:62 0.000111272
9 *123:10 *1706:A3 1.47297e-05
*RES
1 *1690:ZN *1706:A3 12.6 
*END

*D_NET *374 0.00141455
*CONN
*I *1695:S I *D gf180mcu_fd_sc_mcu7t5v0__mux2_2
*I *1691:ZN O *D gf180mcu_fd_sc_mcu7t5v0__nand4_1
*CAP
1 *1695:S 0.000172285
2 *1691:ZN 0.000172285
3 *1695:S *1694:B 1.38506e-05
4 *1695:S *1695:I0 0.000421318
5 *1695:S *484:71 0.000224343
6 *1689:B *1695:S 1.98047e-05
7 *300:16 *1695:S 0.00015651
8 *302:18 *1695:S 0.000100105
9 *359:25 *1695:S 2.36152e-06
10 *359:40 *1695:S 0.00013169
*RES
1 *1691:ZN *1695:S 20.43 
*END

*D_NET *375 0.00549235
*CONN
*I *1694:A3 I *D gf180mcu_fd_sc_mcu7t5v0__oai31_1
*I *1705:A1 I *D gf180mcu_fd_sc_mcu7t5v0__aoi21_1
*I *1704:A1 I *D gf180mcu_fd_sc_mcu7t5v0__nand2_1
*I *1692:ZN O *D gf180mcu_fd_sc_mcu7t5v0__nand4_1
*CAP
1 *1694:A3 0.000780157
2 *1705:A1 0
3 *1704:A1 4.27387e-05
4 *1692:ZN 0
5 *375:12 0.000860284
6 *375:6 0.0015977
7 *1694:A3 *1694:B 0.000289436
8 *1694:A3 *487:120 0
9 *1694:A3 *567:51 5.85392e-05
10 *1694:A3 *567:60 0.000132611
11 *1694:A3 *567:77 0.000103944
12 *1704:A1 *1704:A2 0.000302466
13 *1704:A1 *486:42 7.84068e-05
14 *375:12 *1623:A2 0
15 *375:12 *1704:A2 0.000106536
16 *375:12 *382:6 0.000329933
17 *375:12 *480:62 2.39613e-05
18 *375:12 *487:76 0
19 *375:12 *567:51 0.000308575
20 *1623:B2 *375:12 9.78505e-05
21 *1628:A1 *375:12 0
22 *1691:A2 *1694:A3 0
23 *1705:B *375:12 4.83522e-05
24 *1708:A3 *1694:A3 1.39464e-05
25 *1708:A3 *375:12 5.56454e-05
26 *295:12 *1694:A3 4.50984e-05
27 *297:20 *1694:A3 0.000100647
28 *307:22 *1694:A3 9.94002e-06
29 *309:31 *1694:A3 0.000105579
*RES
1 *1692:ZN *375:6 9 
2 *375:6 *375:12 10.98 
3 *375:12 *1704:A1 5.31 
4 *375:12 *1705:A1 4.5 
5 *375:6 *1694:A3 15.21 
*END

*D_NET *376 0.00182433
*CONN
*I *1694:B I *D gf180mcu_fd_sc_mcu7t5v0__oai31_1
*I *1693:ZN O *D gf180mcu_fd_sc_mcu7t5v0__nand4_1
*CAP
1 *1694:B 0.000219282
2 *1693:ZN 0.000219282
3 *1694:B *1694:A1 3.53802e-05
4 *1694:B *1695:I0 0.000109323
5 *1691:A2 *1694:B 0
6 *1693:A1 *1694:B 0.000646023
7 *1694:A3 *1694:B 0.000289436
8 *1695:S *1694:B 1.38506e-05
9 *295:8 *1694:B 0.000291749
10 *359:25 *1694:B 0
*RES
1 *1693:ZN *1694:B 20.88 
*END

*D_NET *377 0.0012896
*CONN
*I *1695:I0 I *D gf180mcu_fd_sc_mcu7t5v0__mux2_2
*I *1694:ZN O *D gf180mcu_fd_sc_mcu7t5v0__oai31_1
*CAP
1 *1695:I0 0.000239065
2 *1694:ZN 0.000239065
3 *1695:I0 *1694:A1 5.36478e-05
4 *1695:I0 *1815:CLK 4.34597e-05
5 *1695:I0 *484:71 7.49348e-05
6 *1694:B *1695:I0 0.000109323
7 *1695:S *1695:I0 0.000421318
8 *359:40 *1695:I0 8.68398e-06
9 *361:30 *1695:I0 0.000100101
*RES
1 *1694:ZN *1695:I0 20.7 
*END

*D_NET *378 0.00105248
*CONN
*I *1697:S I *D gf180mcu_fd_sc_mcu7t5v0__mux2_2
*I *1696:ZN O *D gf180mcu_fd_sc_mcu7t5v0__nand4_1
*CAP
1 *1697:S 0.00020592
2 *1696:ZN 0.00020592
3 *1697:S *1722:A2 7.86261e-05
4 *1698:A1 *1697:S 4.83522e-05
5 *1700:A4 *1697:S 0.000251578
6 *139:76 *1697:S 3.53802e-05
7 *139:103 *1697:S 0.000135033
8 *304:27 *1697:S 9.16703e-05
*RES
1 *1696:ZN *1697:S 20.52 
*END

*D_NET *379 0.00160561
*CONN
*I *1699:A4 I *D gf180mcu_fd_sc_mcu7t5v0__nor4_1
*I *1698:ZN O *D gf180mcu_fd_sc_mcu7t5v0__aoi21_1
*CAP
1 *1699:A4 6.75144e-05
2 *1698:ZN 6.75144e-05
3 *1699:A4 *1668:A1 9.12635e-05
4 *1699:A4 *492:58 1.92385e-05
5 *1668:A2 *1699:A4 9.09812e-05
6 *1699:A3 *1699:A4 0.000390584
7 *288:16 *1699:A4 0.000430475
8 *288:29 *1699:A4 0.000188473
9 *290:10 *1699:A4 0.000182206
10 *359:10 *1699:A4 7.73641e-05
*RES
1 *1698:ZN *1699:A4 20.16 
*END

*D_NET *380 0.000790524
*CONN
*I *1701:A2 I *D gf180mcu_fd_sc_mcu7t5v0__aoi211_1
*I *1700:ZN O *D gf180mcu_fd_sc_mcu7t5v0__nand4_1
*CAP
1 *1701:A2 0.000112609
2 *1700:ZN 0.000112609
3 *1701:A2 *484:71 8.52804e-05
4 *361:30 *1701:A2 0.000480025
*RES
1 *1700:ZN *1701:A2 10.62 
*END

*D_NET *381 0.00470164
*CONN
*I *1715:A3 I *D gf180mcu_fd_sc_mcu7t5v0__nand3_1
*I *1702:ZN O *D gf180mcu_fd_sc_mcu7t5v0__nand4_1
*CAP
1 *1715:A3 0.000569478
2 *1702:ZN 0.000569478
3 *1715:A3 *1687:A3 0.000786308
4 *1715:A3 *1714:A2 3.50125e-05
5 *1715:A3 *1718:C 3.01487e-05
6 *1715:A3 *486:114 0.000123255
7 *1718:A1 *1715:A3 0.000618063
8 *138:16 *1715:A3 5.70321e-05
9 *356:10 *1715:A3 0.00168828
10 *356:77 *1715:A3 0.000224584
*RES
1 *1702:ZN *1715:A3 25.38 
*END

*D_NET *382 0.00183703
*CONN
*I *1705:A2 I *D gf180mcu_fd_sc_mcu7t5v0__aoi21_1
*I *1704:A2 I *D gf180mcu_fd_sc_mcu7t5v0__nand2_1
*I *1703:ZN O *D gf180mcu_fd_sc_mcu7t5v0__aoi21_1
*CAP
1 *1705:A2 3.67289e-05
2 *1704:A2 0.000136639
3 *1703:ZN 0.00011232
4 *382:6 0.000285688
5 *1704:A2 *1706:B 3.77882e-05
6 *1704:A2 *1713:A2 4.83522e-05
7 *1704:A2 *486:42 2.954e-05
8 *1705:A2 *1706:B 4.83522e-05
9 *382:6 *1703:A2 3.97987e-05
10 *382:6 *1706:B 8.35196e-05
11 *1628:A1 *382:6 0
12 *1628:A2 *382:6 2.14748e-05
13 *1703:A1 *382:6 9.84908e-05
14 *1703:B *382:6 3.22348e-05
15 *1704:A1 *1704:A2 0.000302466
16 *311:12 *1704:A2 8.71641e-05
17 *375:12 *1704:A2 0.000106536
18 *375:12 *382:6 0.000329933
*RES
1 *1703:ZN *382:6 6.21 
2 *382:6 *1704:A2 6.3 
3 *382:6 *1705:A2 4.95 
*END

*D_NET *383 0.000619562
*CONN
*I *1713:A2 I *D gf180mcu_fd_sc_mcu7t5v0__and3_1
*I *1704:ZN O *D gf180mcu_fd_sc_mcu7t5v0__nand2_1
*CAP
1 *1713:A2 6.75871e-05
2 *1704:ZN 6.75871e-05
3 *1713:A2 *486:42 0.000276065
4 *1704:A2 *1713:A2 4.83522e-05
5 *311:12 *1713:A2 0.00015997
*RES
1 *1704:ZN *1713:A2 10.26 
*END

*D_NET *384 0.00216292
*CONN
*I *1706:B I *D gf180mcu_fd_sc_mcu7t5v0__oai31_1
*I *1705:ZN O *D gf180mcu_fd_sc_mcu7t5v0__aoi21_1
*CAP
1 *1706:B 0.000392741
2 *1705:ZN 0.000392741
3 *1706:B *1623:A2 0.000415035
4 *1706:B *1685:A1 0.000102894
5 *1706:B *567:51 4.1068e-05
6 *1623:B2 *1706:B 0.000252844
7 *1703:B *1706:B 0.000164693
8 *1704:A2 *1706:B 3.77882e-05
9 *1705:A2 *1706:B 4.83522e-05
10 *311:12 *1706:B 0.000231246
11 *382:6 *1706:B 8.35196e-05
*RES
1 *1705:ZN *1706:B 13.95 
*END

*D_NET *385 0.013874
*CONN
*I *1742:A1 I *D gf180mcu_fd_sc_mcu7t5v0__oai31_1
*I *1727:A1 I *D gf180mcu_fd_sc_mcu7t5v0__nor2_1
*I *1732:A1 I *D gf180mcu_fd_sc_mcu7t5v0__oai21_1
*I *1737:A1 I *D gf180mcu_fd_sc_mcu7t5v0__nor3_1
*I *1746:A1 I *D gf180mcu_fd_sc_mcu7t5v0__oai21_1
*I *1714:A1 I *D gf180mcu_fd_sc_mcu7t5v0__nor2_1
*I *1706:ZN O *D gf180mcu_fd_sc_mcu7t5v0__oai31_1
*CAP
1 *1742:A1 0
2 *1727:A1 0
3 *1732:A1 4.79697e-05
4 *1737:A1 8.2133e-05
5 *1746:A1 0
6 *1714:A1 0.000750426
7 *1706:ZN 0.000319877
8 *385:44 0.000173754
9 *385:42 0.000148088
10 *385:38 0.000537835
11 *385:27 0.00103157
12 *385:10 0.00166847
13 *1714:A1 *1710:A1 0
14 *1714:A1 *1712:A4 0
15 *1714:A1 *1715:A1 2.32821e-05
16 *1714:A1 *1726:A2 8.68281e-06
17 *1714:A1 *389:8 0
18 *1714:A1 *403:14 0.00164996
19 *1714:A1 *483:63 0.000455453
20 *1732:A1 *404:28 0.000365454
21 *1737:A1 *404:28 8.54106e-06
22 *385:10 *480:50 0.000219866
23 *385:27 *1604:A4 9.3226e-06
24 *385:27 *1623:A3 0.000646148
25 *385:27 *403:14 0.000522249
26 *385:27 *480:28 0.000150744
27 *385:27 *483:63 6.48744e-05
28 *385:27 *487:51 1.68677e-06
29 *385:27 *488:49 0.000128649
30 *385:27 *488:53 0.000783832
31 *385:27 *490:91 0.000335957
32 *385:38 *1613:A1 1.77876e-05
33 *385:38 *1742:A2 5.0949e-05
34 *385:38 *1743:A2 0.000173129
35 *385:38 *1746:A2 3.46245e-05
36 *385:38 *1748:A1 0.000425761
37 *385:38 *1748:B 2.16166e-05
38 *385:38 *480:18 0.000246757
39 *385:38 *480:28 0.000325866
40 *385:42 *1403:I 0
41 *385:42 *487:41 0
42 *385:44 *1403:I 0
43 *385:44 *404:28 3.54228e-06
44 *1613:A3 *385:38 0.000158798
45 *1616:A1 *385:10 8.15858e-05
46 *1706:A1 *385:10 5.15152e-05
47 *1706:A1 *385:27 9.42156e-05
48 *1706:A2 *385:10 0.000223284
49 *1746:B *385:27 4.62939e-05
50 *1747:A2 *385:38 0
51 *123:10 *385:27 0.000184352
52 *124:33 *385:38 7.99949e-06
53 *125:10 *385:27 7.88345e-05
54 *125:10 *385:38 4.6613e-06
55 *126:21 *1737:A1 2.75317e-05
56 *126:25 *1732:A1 0.000142874
57 *292:18 *1737:A1 0.000371639
58 *292:18 *385:42 0.000325877
59 *292:18 *385:44 0.000135496
60 *300:81 *385:38 5.45553e-05
61 *301:8 *385:27 4.26496e-05
62 *359:67 *385:38 0.000406981
*RES
1 *1706:ZN *385:10 15.93 
2 *385:10 *1714:A1 11.97 
3 *385:10 *385:27 16.29 
4 *385:27 *1746:A1 4.5 
5 *385:27 *385:38 5.31 
6 *385:38 *385:42 5.49 
7 *385:42 *385:44 0.45 
8 *385:44 *1737:A1 9.99 
9 *385:44 *1732:A1 9.99 
10 *385:42 *1727:A1 9 
11 *385:38 *1742:A1 4.5 
*END

*D_NET *386 0.00557368
*CONN
*I *1713:A3 I *D gf180mcu_fd_sc_mcu7t5v0__and3_1
*I *1712:A1 I *D gf180mcu_fd_sc_mcu7t5v0__nand4_1
*I *1707:ZN O *D gf180mcu_fd_sc_mcu7t5v0__oai221_1
*CAP
1 *1713:A3 0.000214486
2 *1712:A1 5.19774e-05
3 *1707:ZN 0.000975546
4 *386:18 0.00124201
5 *1712:A1 *1712:A2 0.000365445
6 *1712:A1 *1712:A4 5.30888e-06
7 *1712:A1 *1715:A2 0.000302466
8 *386:18 *1611:A2 2.93762e-05
9 *386:18 *1621:A2 5.57364e-05
10 *386:18 *1685:A1 0.000381652
11 *386:18 *1708:A1 0.00010897
12 *386:18 *1710:A1 5.30751e-05
13 *386:18 *1712:A2 3.01487e-05
14 *386:18 *1715:A2 0
15 *386:18 *387:14 0.000480235
16 *386:18 *480:62 6.8195e-05
17 *386:18 *490:46 0
18 *386:18 *490:50 9.04462e-05
19 *386:18 *567:51 0.000417707
20 *1616:A3 *386:18 1.4382e-06
21 *1621:B *386:18 0.000145218
22 *1623:B2 *386:18 0.000141427
23 *1706:A1 *386:18 9.84908e-05
24 *1706:A2 *386:18 1.33034e-05
25 *1706:A3 *386:18 0
26 *1710:A2 *386:18 0.000120926
27 *1710:A3 *1713:A3 0
28 *1710:A4 *1713:A3 0
29 *138:16 *1713:A3 0
30 *138:73 *1713:A3 2.08284e-05
31 *311:12 *1712:A1 7.71476e-06
32 *311:12 *386:18 0.000151558
*RES
1 *1707:ZN *386:18 14.49 
2 *386:18 *1712:A1 5.67 
3 *386:18 *1713:A3 14.85 
*END

*D_NET *387 0.00293973
*CONN
*I *1726:A1 I *D gf180mcu_fd_sc_mcu7t5v0__nand3_1
*I *1711:A1 I *D gf180mcu_fd_sc_mcu7t5v0__and3_1
*I *1712:A2 I *D gf180mcu_fd_sc_mcu7t5v0__nand4_1
*I *1708:ZN O *D gf180mcu_fd_sc_mcu7t5v0__nand4_1
*CAP
1 *1726:A1 0.000131145
2 *1711:A1 0
3 *1712:A2 7.93724e-05
4 *1708:ZN 0.000110719
5 *387:14 0.000322943
6 *387:8 0.000485434
7 *1712:A2 *1712:A3 0.000231126
8 *1712:A2 *1715:A2 0
9 *387:8 *1710:A1 6.80179e-05
10 *387:8 *403:14 0
11 *387:14 *1710:A1 2.93836e-05
12 *387:14 *1712:A3 3.55118e-05
13 *387:14 *388:18 0.000142047
14 *387:14 *389:8 4.16859e-05
15 *1708:A3 *387:14 7.11733e-06
16 *1710:A2 *1726:A1 8.87168e-05
17 *1710:A2 *387:14 5.25547e-05
18 *1710:A4 *1726:A1 0.000137859
19 *1710:A4 *387:14 0.000100267
20 *1712:A1 *1712:A2 0.000365445
21 *386:18 *1712:A2 3.01487e-05
22 *386:18 *387:14 0.000480235
*RES
1 *1708:ZN *387:8 9.63 
2 *387:8 *387:14 7.02 
3 *387:14 *1712:A2 5.76 
4 *387:14 *1711:A1 4.5 
5 *387:8 *1726:A1 10.17 
*END

*D_NET *388 0.00387418
*CONN
*I *1711:A2 I *D gf180mcu_fd_sc_mcu7t5v0__and3_1
*I *1712:A3 I *D gf180mcu_fd_sc_mcu7t5v0__nand4_1
*I *1709:ZN O *D gf180mcu_fd_sc_mcu7t5v0__nand3_1
*CAP
1 *1711:A2 0
2 *1712:A3 0.000141062
3 *1709:ZN 0.00086847
4 *388:18 0.00100953
5 *1712:A3 *1711:A3 5.54011e-05
6 *1712:A3 *1712:A4 9.25021e-05
7 *388:18 *1711:A3 9.98558e-05
8 *388:18 *1726:A2 0.000377663
9 *388:18 *389:8 6.89781e-06
10 *1692:A2 *388:18 4.53024e-05
11 *1702:A3 *388:18 2.97431e-05
12 *1709:A3 *388:18 0.000418993
13 *1710:A4 *388:18 5.37336e-05
14 *1712:A2 *1712:A3 0.000231126
15 *1725:B *388:18 8.33579e-05
16 *138:16 *388:18 0
17 *307:22 *388:18 0.000114246
18 *317:45 *388:18 6.87372e-05
19 *387:14 *1712:A3 3.55118e-05
20 *387:14 *388:18 0.000142047
*RES
1 *1709:ZN *388:18 20.43 
2 *388:18 *1712:A3 6.03 
3 *388:18 *1711:A2 4.5 
*END

*D_NET *389 0.00146798
*CONN
*I *1726:A3 I *D gf180mcu_fd_sc_mcu7t5v0__nand3_1
*I *1712:A4 I *D gf180mcu_fd_sc_mcu7t5v0__nand4_1
*I *1711:A3 I *D gf180mcu_fd_sc_mcu7t5v0__and3_1
*I *1710:ZN O *D gf180mcu_fd_sc_mcu7t5v0__nand4_1
*CAP
1 *1726:A3 2.87414e-05
2 *1712:A4 0.000103684
3 *1711:A3 8.90366e-05
4 *1710:ZN 2.45763e-05
5 *389:8 0.000367067
6 *389:6 0.000227664
7 *1711:A3 *1715:A1 0
8 *1712:A4 *1715:A1 0.000302466
9 *1726:A3 *1708:A1 0
10 *389:6 *1708:A1 0
11 *389:8 *1726:A2 2.30981e-05
12 *1712:A1 *1712:A4 5.30888e-06
13 *1712:A3 *1711:A3 5.54011e-05
14 *1712:A3 *1712:A4 9.25021e-05
15 *1714:A1 *1712:A4 0
16 *1714:A1 *389:8 0
17 *387:14 *389:8 4.16859e-05
18 *388:18 *1711:A3 9.98558e-05
19 *388:18 *389:8 6.89781e-06
*RES
1 *1710:ZN *389:6 4.77 
2 *389:6 *389:8 1.17 
3 *389:8 *1711:A3 5.4 
4 *389:8 *1712:A4 5.85 
5 *389:6 *1726:A3 4.77 
*END

*D_NET *390 0.0011344
*CONN
*I *1715:A1 I *D gf180mcu_fd_sc_mcu7t5v0__nand3_1
*I *1711:Z O *D gf180mcu_fd_sc_mcu7t5v0__and3_1
*CAP
1 *1715:A1 0.000371332
2 *1711:Z 0.000371332
3 *1715:A1 *1715:A2 6.28596e-05
4 *1715:A1 *393:8 7.191e-07
5 *1715:A1 *483:63 0
6 *1711:A3 *1715:A1 0
7 *1712:A4 *1715:A1 0.000302466
8 *1714:A1 *1715:A1 2.32821e-05
9 *139:36 *1715:A1 2.40933e-06
*RES
1 *1711:Z *1715:A1 11.79 
*END

*D_NET *391 0.000626066
*CONN
*I *1714:A2 I *D gf180mcu_fd_sc_mcu7t5v0__nor2_1
*I *1712:ZN O *D gf180mcu_fd_sc_mcu7t5v0__nand4_1
*CAP
1 *1714:A2 0.000125615
2 *1712:ZN 0.000125615
3 *1715:A3 *1714:A2 3.50125e-05
4 *138:16 *1714:A2 0.000339824
*RES
1 *1712:ZN *1714:A2 18.99 
*END

*D_NET *392 0.00147336
*CONN
*I *1715:A2 I *D gf180mcu_fd_sc_mcu7t5v0__nand3_1
*I *1713:Z O *D gf180mcu_fd_sc_mcu7t5v0__and3_1
*CAP
1 *1715:A2 0.000498092
2 *1713:Z 0.000498092
3 *1715:A2 *486:20 2.40587e-06
4 *1712:A1 *1715:A2 0.000302466
5 *1712:A2 *1715:A2 0
6 *1715:A1 *1715:A2 6.28596e-05
7 *138:12 *1715:A2 4.1068e-05
8 *138:73 *1715:A2 3.89217e-05
9 *139:36 *1715:A2 7.55765e-06
10 *311:12 *1715:A2 2.19007e-05
11 *386:18 *1715:A2 0
*RES
1 *1713:Z *1715:A2 12.78 
*END

*D_NET *393 0.00398009
*CONN
*I *1722:B I *D gf180mcu_fd_sc_mcu7t5v0__oai21_1
*I *1719:A1 I *D gf180mcu_fd_sc_mcu7t5v0__aoi21_1
*I *1714:ZN O *D gf180mcu_fd_sc_mcu7t5v0__nor2_1
*CAP
1 *1722:B 0.000182786
2 *1719:A1 8.23911e-05
3 *1714:ZN 0.000507741
4 *393:8 0.000772918
5 *1719:A1 *1761:A2 0.000157047
6 *1719:A1 *394:6 1.56862e-05
7 *1719:A1 *472:12 9.39884e-05
8 *1719:A1 *486:103 0
9 *1722:B *1761:A2 0.000843771
10 *1722:B *396:8 1.17934e-05
11 *1722:B *472:12 3.12999e-05
12 *393:8 *394:6 3.10919e-05
13 *393:8 *472:12 0.000428433
14 *393:8 *483:63 0.000152566
15 *1715:A1 *393:8 7.191e-07
16 *1719:B *393:8 0.000613101
17 *317:29 *1722:B 5.47541e-05
*RES
1 *1714:ZN *393:8 13.41 
2 *393:8 *1719:A1 9.72 
3 *393:8 *1722:B 11.25 
*END

*D_NET *394 0.00359453
*CONN
*I *1723:A1 I *D gf180mcu_fd_sc_mcu7t5v0__aoi21_1
*I *1716:A2 I *D gf180mcu_fd_sc_mcu7t5v0__nand2_1
*I *1715:ZN O *D gf180mcu_fd_sc_mcu7t5v0__nand3_1
*CAP
1 *1723:A1 0.000140906
2 *1716:A2 0.00031177
3 *1715:ZN 0.000525849
4 *394:6 0.000978526
5 *1716:A2 *1719:A2 0.000211575
6 *1716:A2 *1720:A1 1.48739e-05
7 *1716:A2 *472:12 8.09223e-06
8 *1716:A2 *472:14 0
9 *1716:A2 *486:8 1.80607e-05
10 *1723:A1 *1720:A1 0.000143922
11 *1723:A1 *1761:A2 0.00074501
12 *1723:A1 *485:18 0.000217871
13 *394:6 *1719:A2 3.01487e-05
14 *394:6 *463:8 2.87447e-05
15 *394:6 *472:12 6.16625e-05
16 *394:6 *486:8 0.000110735
17 *394:6 *486:20 0
18 *1719:A1 *394:6 1.56862e-05
19 *139:36 *394:6 0
20 *393:8 *394:6 3.10919e-05
*RES
1 *1715:ZN *394:6 8.01 
2 *394:6 *1716:A2 6.57 
3 *394:6 *1723:A1 15.57 
*END

*D_NET *395 0.000485751
*CONN
*I *1720:A2 I *D gf180mcu_fd_sc_mcu7t5v0__and2_1
*I *1716:ZN O *D gf180mcu_fd_sc_mcu7t5v0__nand2_1
*CAP
1 *1720:A2 0.000152049
2 *1716:ZN 0.000152049
3 *1720:A2 *1720:A1 1.55466e-05
4 *1720:A2 *1760:A2 0.000166107
*RES
1 *1716:ZN *1720:A2 10.26 
*END

*D_NET *396 0.00208043
*CONN
*I *1718:C I *D gf180mcu_fd_sc_mcu7t5v0__aoi211_1
*I *1722:A1 I *D gf180mcu_fd_sc_mcu7t5v0__oai21_1
*I *1717:ZN O *D gf180mcu_fd_sc_mcu7t5v0__aoi211_1
*CAP
1 *1718:C 0.000293862
2 *1722:A1 0.000118472
3 *1717:ZN 1.63355e-05
4 *396:8 0.000428669
5 *1718:C *1687:A3 0.000153289
6 *1718:C *1719:A2 0.000241539
7 *1718:C *1722:A2 5.8967e-05
8 *1718:C *1761:A2 1.49501e-05
9 *1718:C *1901:I 0.000425752
10 *1722:A1 *1719:A2 0
11 *1722:A1 *484:98 0
12 *396:8 *1761:A2 3.3721e-05
13 *1715:A3 *1718:C 3.01487e-05
14 *1717:C *1718:C 7.65946e-06
15 *1718:A2 *1718:C 1.68677e-06
16 *1718:B *1718:C 3.98088e-05
17 *1722:B *396:8 1.17934e-05
18 *317:29 *1718:C 0.000126062
19 *317:29 *396:8 7.77106e-05
*RES
1 *1717:ZN *396:8 9.45 
2 *396:8 *1722:A1 9.63 
3 *396:8 *1718:C 12.78 
*END

*D_NET *397 0.00471706
*CONN
*I *1719:A2 I *D gf180mcu_fd_sc_mcu7t5v0__aoi21_1
*I *1718:ZN O *D gf180mcu_fd_sc_mcu7t5v0__aoi211_1
*CAP
1 *1719:A2 0.000986633
2 *1718:ZN 0.000986633
3 *1719:A2 *1724:A1 4.66977e-06
4 *1719:A2 *1760:A2 0.000153405
5 *1719:A2 *472:12 1.7707e-05
6 *1719:A2 *483:67 3.47782e-06
7 *1719:A2 *484:18 0.000159885
8 *1719:A2 *485:18 0.00167481
9 *1670:A2 *1719:A2 6.28101e-05
10 *1670:A3 *1719:A2 3.84844e-06
11 *1716:A2 *1719:A2 0.000211575
12 *1718:A2 *1719:A2 4.61945e-05
13 *1718:C *1719:A2 0.000241539
14 *1722:A1 *1719:A2 0
15 *139:72 *1719:A2 0.000133728
16 *394:6 *1719:A2 3.01487e-05
*RES
1 *1718:ZN *1719:A2 27.45 
*END

*D_NET *398 0.00171455
*CONN
*I *1720:A1 I *D gf180mcu_fd_sc_mcu7t5v0__and2_1
*I *1719:ZN O *D gf180mcu_fd_sc_mcu7t5v0__aoi21_1
*CAP
1 *1720:A1 0.000325548
2 *1719:ZN 0.000325548
3 *1720:A1 *1760:A2 2.87813e-05
4 *1720:A1 *1761:A2 0.000177411
5 *1720:A1 *485:18 0.000682918
6 *1716:A2 *1720:A1 1.48739e-05
7 *1720:A2 *1720:A1 1.55466e-05
8 *1723:A1 *1720:A1 0.000143922
*RES
1 *1719:ZN *1720:A1 21.06 
*END

*D_NET *399 0.00429235
*CONN
*I *1722:A2 I *D gf180mcu_fd_sc_mcu7t5v0__oai21_1
*I *1721:ZN O *D gf180mcu_fd_sc_mcu7t5v0__aoi21_1
*CAP
1 *1722:A2 0.000757585
2 *1721:ZN 0.000757585
3 *1722:A2 *1761:A2 0.0014453
4 *1722:A2 *1816:CLK 0.000360642
5 *1722:A2 *492:58 1.17585e-05
6 *1697:S *1722:A2 7.86261e-05
7 *1698:A1 *1722:A2 0.000301809
8 *1698:A2 *1722:A2 6.84043e-05
9 *1718:C *1722:A2 5.8967e-05
10 *1721:B *1722:A2 7.53993e-05
11 *288:29 *1722:A2 0.000115902
12 *304:27 *1722:A2 7.34423e-05
13 *317:29 *1722:A2 0.000121888
14 *361:30 *1722:A2 6.50415e-05
*RES
1 *1721:ZN *1722:A2 27.63 
*END

*D_NET *400 0.00438721
*CONN
*I *1724:A1 I *D gf180mcu_fd_sc_mcu7t5v0__aoi21_1
*I *1722:ZN O *D gf180mcu_fd_sc_mcu7t5v0__oai21_1
*CAP
1 *1724:A1 0.000772782
2 *1722:ZN 0.000772782
3 *1724:A1 *1404:I 0.000473061
4 *1724:A1 *1912:I 0.00156535
5 *1724:A1 *1916:I 2.51233e-05
6 *1724:A1 *484:14 0.000455766
7 *1724:A1 *484:98 0
8 *1724:A1 *569:6 0
9 *1719:A2 *1724:A1 4.66977e-06
10 *1724:B *1724:A1 0.000314828
11 *1833:D *1724:A1 2.84633e-06
*RES
1 *1722:ZN *1724:A1 25.92 
*END

*D_NET *401 0.00285673
*CONN
*I *1724:A2 I *D gf180mcu_fd_sc_mcu7t5v0__aoi21_1
*I *1723:ZN O *D gf180mcu_fd_sc_mcu7t5v0__aoi21_1
*CAP
1 *1724:A2 0.000734412
2 *1723:ZN 0.000734412
3 *1724:A2 *1723:A2 0.000101236
4 *1724:A2 *1760:A2 0
5 *1724:A2 *1833:CLK 8.79561e-06
6 *1724:A2 *1912:I 2.08301e-05
7 *1724:A2 *472:12 3.73774e-06
8 *1724:A2 *472:14 6.97894e-05
9 *1724:A2 *472:38 0
10 *1724:A2 *483:63 0.000194218
11 *1724:A2 *484:14 9.81434e-05
12 *1760:A1 *1724:A2 6.85018e-05
13 *1820:D *1724:A2 0.000822654
*RES
1 *1723:ZN *1724:A2 23.49 
*END

*D_NET *402 0.00209608
*CONN
*I *1726:A2 I *D gf180mcu_fd_sc_mcu7t5v0__nand3_1
*I *1725:ZN O *D gf180mcu_fd_sc_mcu7t5v0__oai211_1
*CAP
1 *1726:A2 0.000258701
2 *1725:ZN 0.000258701
3 *1710:A4 *1726:A2 0.000779526
4 *1714:A1 *1726:A2 8.68281e-06
5 *292:8 *1726:A2 6.97788e-07
6 *292:18 *1726:A2 2.09336e-06
7 *300:22 *1726:A2 0.00038692
8 *388:18 *1726:A2 0.000377663
9 *389:8 *1726:A2 2.30981e-05
*RES
1 *1725:ZN *1726:A2 21.42 
*END

*D_NET *403 0.016023
*CONN
*I *1727:A2 I *D gf180mcu_fd_sc_mcu7t5v0__nor2_1
*I *1742:A2 I *D gf180mcu_fd_sc_mcu7t5v0__oai31_1
*I *1732:A2 I *D gf180mcu_fd_sc_mcu7t5v0__oai21_1
*I *1737:A2 I *D gf180mcu_fd_sc_mcu7t5v0__nor3_1
*I *1746:A2 I *D gf180mcu_fd_sc_mcu7t5v0__oai21_1
*I *1726:ZN O *D gf180mcu_fd_sc_mcu7t5v0__nand3_1
*CAP
1 *1727:A2 6.39379e-05
2 *1742:A2 0.000475067
3 *1732:A2 0.000260023
4 *1737:A2 0.000383708
5 *1746:A2 0.000154918
6 *1726:ZN 0.000917771
7 *403:52 0.000814945
8 *403:35 0.000463564
9 *403:33 0.000243158
10 *403:14 0.00125191
11 *1727:A2 *1740:A2 0.000365454
12 *1727:A2 *404:6 0.000164693
13 *1732:A2 *1733:A1 0
14 *1732:A2 *1748:A2 0.000365454
15 *1732:A2 *404:6 0.000379787
16 *1732:A2 *404:28 0.000172257
17 *1732:A2 *480:18 0.000212154
18 *1737:A2 *1737:A3 0.000245621
19 *1737:A2 *483:63 0.000351193
20 *1742:A2 *1613:A1 0.000119829
21 *1742:A2 *1742:A3 0.000332411
22 *1742:A2 *1743:A2 0.000134817
23 *1746:A2 *1747:A1 0.000101615
24 *403:14 *480:28 1.7675e-05
25 *403:14 *480:62 0.000154047
26 *403:14 *483:63 0.00089723
27 *403:14 *490:87 0.000288831
28 *403:14 *490:91 3.84844e-06
29 *403:33 *1740:A2 0.000406991
30 *403:33 *480:18 2.95032e-05
31 *403:33 *480:28 2.19934e-05
32 *1609:A2 *403:33 8.22492e-05
33 *1662:A2 *1742:A2 0
34 *1706:A3 *403:14 0.000157776
35 *1714:A1 *403:14 0.00164996
36 *1733:A2 *1732:A2 0.000494094
37 *1735:A1 *403:14 0.000100105
38 *1735:A1 *403:33 0.000131337
39 *1736:A4 *1746:A2 9.88967e-05
40 *1824:D *1737:A2 9.08505e-05
41 *1824:D *1742:A2 3.42509e-05
42 *1824:D *403:52 8.95677e-05
43 *123:10 *403:14 8.37558e-05
44 *124:33 *1746:A2 2.60524e-05
45 *125:16 *1746:A2 0.000210747
46 *125:16 *403:14 9.85004e-05
47 *126:25 *1727:A2 0.00073359
48 *126:25 *403:33 0.000406991
49 *299:16 *403:14 0.00012512
50 *301:8 *403:14 0.00092587
51 *359:67 *1742:A2 5.09129e-05
52 *359:86 *1742:A2 3.01487e-05
53 *385:27 *403:14 0.000522249
54 *385:38 *1742:A2 5.0949e-05
55 *385:38 *1746:A2 3.46245e-05
56 *387:8 *403:14 0
*RES
1 *1726:ZN *403:14 24.75 
2 *403:14 *1746:A2 15.3 
3 *403:14 *403:33 2.61 
4 *403:33 *403:35 4.5 
5 *403:35 *1737:A2 12.42 
6 *403:35 *403:52 0.63 
7 *403:52 *1732:A2 12.96 
8 *403:52 *1742:A2 12.87 
9 *403:33 *1727:A2 6.57 
*END

*D_NET *404 0.00471537
*CONN
*I *1738:A2 I *D gf180mcu_fd_sc_mcu7t5v0__nor2_1
*I *1734:A1 I *D gf180mcu_fd_sc_mcu7t5v0__aoi21_1
*I *1740:A1 I *D gf180mcu_fd_sc_mcu7t5v0__nand2_1
*I *1748:A2 I *D gf180mcu_fd_sc_mcu7t5v0__aoi21_1
*I *1727:ZN O *D gf180mcu_fd_sc_mcu7t5v0__nor2_1
*CAP
1 *1738:A2 2.52613e-05
2 *1734:A1 0.000307121
3 *1740:A1 0
4 *1748:A2 2.83046e-05
5 *1727:ZN 0
6 *404:28 0.000669414
7 *404:6 0.000102494
8 *404:4 0.00041122
9 *1734:A1 *1734:A2 1.79733e-05
10 *1734:A1 *1734:B 0.000285882
11 *1738:A2 *1734:B 1.61174e-05
12 *1738:A2 *1739:A3 1.07374e-05
13 *1748:A2 *1740:A2 0.000433797
14 *1748:A2 *480:18 1.84368e-05
15 *404:28 *1403:I 0.000430589
16 *404:28 *1734:A2 0
17 *404:28 *1734:B 1.34934e-05
18 *404:28 *1739:A3 0.000231473
19 *404:28 *483:63 5.78854e-06
20 *1727:A2 *404:6 0.000164693
21 *1732:A1 *404:28 0.000365454
22 *1732:A2 *1748:A2 0.000365454
23 *1732:A2 *404:6 0.000379787
24 *1732:A2 *404:28 0.000172257
25 *1733:A2 *404:28 1.23607e-05
26 *1737:A1 *404:28 8.54106e-06
27 *126:21 *404:28 0.000218157
28 *126:25 *404:6 1.23607e-05
29 *126:25 *404:28 4.6613e-06
30 *316:58 *404:28 0
31 *385:44 *404:28 3.54228e-06
*RES
1 *1727:ZN *404:4 4.5 
2 *404:4 *404:6 1.35 
3 *404:6 *1748:A2 5.67 
4 *404:6 *1740:A1 4.5 
5 *404:4 *404:28 12.69 
6 *404:28 *1734:A1 7.2 
7 *404:28 *1738:A2 4.77 
*END

*D_NET *405 0.0035713
*CONN
*I *1731:A1 I *D gf180mcu_fd_sc_mcu7t5v0__aoi22_1
*I *1728:ZN O *D gf180mcu_fd_sc_mcu7t5v0__aoi211_1
*CAP
1 *1731:A1 0.000828876
2 *1728:ZN 0.000828876
3 *1731:A1 *1737:A3 2.40081e-05
4 *1731:A1 *490:10 1.56779e-05
5 *1731:A1 *490:46 0.00096271
6 *1731:A1 *490:50 3.24207e-05
7 *1731:A1 *567:20 1.73683e-05
8 *1614:A2 *1731:A1 0.000236014
9 *1616:A3 *1731:A1 7.07276e-05
10 *1661:A1 *1731:A1 0.000222002
11 *1661:A2 *1731:A1 2.31089e-05
12 *1661:A3 *1731:A1 2.56311e-05
13 *303:12 *1731:A1 9.04462e-05
14 *303:14 *1731:A1 0.000158788
15 *316:43 *1731:A1 3.46409e-05
*RES
1 *1728:ZN *1731:A1 16.65 
*END

*D_NET *406 0.000490669
*CONN
*I *1730:B I *D gf180mcu_fd_sc_mcu7t5v0__aoi21_1
*I *1729:ZN O *D gf180mcu_fd_sc_mcu7t5v0__nand4_1
*CAP
1 *1730:B 0.000199731
2 *1729:ZN 0.000199731
3 *1730:B *489:33 5.32571e-05
4 *1721:A1 *1730:B 1.62696e-05
5 *351:26 *1730:B 2.16815e-05
*RES
1 *1729:ZN *1730:B 10.26 
*END

*D_NET *407 0.000926116
*CONN
*I *1745:A2 I *D gf180mcu_fd_sc_mcu7t5v0__oai21_1
*I *1730:ZN O *D gf180mcu_fd_sc_mcu7t5v0__aoi21_1
*CAP
1 *1745:A2 6.80744e-05
2 *1730:ZN 6.80744e-05
3 *1745:A2 *487:141 4.02636e-05
4 *124:10 *1745:A2 8.45636e-05
5 *139:103 *1745:A2 1.71254e-05
6 *300:81 *1745:A2 0.000648015
*RES
1 *1730:ZN *1745:A2 19.71 
*END

*D_NET *408 0.00101683
*CONN
*I *1734:A2 I *D gf180mcu_fd_sc_mcu7t5v0__aoi21_1
*I *1731:ZN O *D gf180mcu_fd_sc_mcu7t5v0__aoi22_1
*CAP
1 *1734:A2 0.000305108
2 *1731:ZN 0.000305108
3 *1734:A2 *516:14 1.39839e-05
4 *1734:A2 *567:20 8.36919e-05
5 *1734:A1 *1734:A2 1.79733e-05
6 *1821:D *1734:A2 4.44162e-05
7 *316:58 *1734:A2 0.000106536
8 *352:12 *1734:A2 0.000140012
9 *404:28 *1734:A2 0
*RES
1 *1731:ZN *1734:A2 11.7 
*END

*D_NET *409 0.00093625
*CONN
*I *1733:A1 I *D gf180mcu_fd_sc_mcu7t5v0__nand2_1
*I *1732:ZN O *D gf180mcu_fd_sc_mcu7t5v0__oai21_1
*CAP
1 *1733:A1 0.000178569
2 *1732:ZN 0.000178569
3 *1733:A1 *1739:A3 1.07374e-05
4 *1733:A1 *480:18 8.12023e-06
5 *1733:A1 *483:63 0.000475333
6 *1732:A2 *1733:A1 0
7 *1733:A2 *1733:A1 8.49214e-05
*RES
1 *1732:ZN *1733:A1 10.8 
*END

*D_NET *410 0.0018339
*CONN
*I *1734:B I *D gf180mcu_fd_sc_mcu7t5v0__aoi21_1
*I *1733:ZN O *D gf180mcu_fd_sc_mcu7t5v0__nand2_1
*CAP
1 *1734:B 0.000284083
2 *1733:ZN 0.000284083
3 *1734:B *1739:A1 0.000148372
4 *1734:B *1739:A3 0.0001048
5 *1734:B *483:63 0.000142047
6 *1734:A1 *1734:B 0.000285882
7 *1738:A2 *1734:B 1.61174e-05
8 *316:58 *1734:B 0.000119814
9 *352:12 *1734:B 0.00043521
10 *404:28 *1734:B 1.34934e-05
*RES
1 *1733:ZN *1734:B 21.87 
*END

*D_NET *411 0.00250804
*CONN
*I *1740:A2 I *D gf180mcu_fd_sc_mcu7t5v0__nand2_1
*I *1736:A2 I *D gf180mcu_fd_sc_mcu7t5v0__nor4_1
*I *1735:ZN O *D gf180mcu_fd_sc_mcu7t5v0__nor2_1
*CAP
1 *1740:A2 0.000120664
2 *1736:A2 0.000259567
3 *1735:ZN 0
4 *411:4 0.000380232
5 *1736:A2 *1613:A1 0.000102454
6 *1736:A2 *490:10 2.93065e-05
7 *1736:A2 *490:29 0.000155552
8 *1740:A2 *480:18 3.69755e-05
9 *1727:A2 *1740:A2 0.000365454
10 *1736:A4 *1736:A2 0.000217048
11 *1748:A2 *1740:A2 0.000433797
12 *403:33 *1740:A2 0.000406991
*RES
1 *1735:ZN *411:4 4.5 
2 *411:4 *1736:A2 15.57 
3 *411:4 *1740:A2 6.57 
*END

*D_NET *412 0.00189339
*CONN
*I *1737:A3 I *D gf180mcu_fd_sc_mcu7t5v0__nor3_1
*I *1736:ZN O *D gf180mcu_fd_sc_mcu7t5v0__nor4_1
*CAP
1 *1737:A3 0.000537951
2 *1736:ZN 0.000537951
3 *1737:A3 *1400:I 0.000229812
4 *1737:A3 *483:63 6.75054e-06
5 *1737:A3 *490:10 3.12451e-05
6 *1737:A3 *490:14 0.000245511
7 *1737:A3 *490:46 5.79059e-06
8 *1731:A1 *1737:A3 2.40081e-05
9 *1736:A3 *1737:A3 2.87447e-05
10 *1737:A2 *1737:A3 0.000245621
*RES
1 *1736:ZN *1737:A3 13.59 
*END

*D_NET *413 0.00272958
*CONN
*I *1739:A3 I *D gf180mcu_fd_sc_mcu7t5v0__nor3_1
*I *1737:ZN O *D gf180mcu_fd_sc_mcu7t5v0__nor3_1
*CAP
1 *1739:A3 0.0004041
2 *1737:ZN 0.0004041
3 *1739:A3 *1739:A1 0.000173754
4 *1739:A3 *480:18 1.91452e-06
5 *1739:A3 *483:63 0.0011415
6 *1739:A3 *488:16 0.000246471
7 *1731:B2 *1739:A3 0
8 *1733:A1 *1739:A3 1.07374e-05
9 *1734:B *1739:A3 0.0001048
10 *1738:A2 *1739:A3 1.07374e-05
11 *316:43 *1739:A3 0
12 *404:28 *1739:A3 0.000231473
*RES
1 *1737:ZN *1739:A3 13.95 
*END

*D_NET *414 0.000682022
*CONN
*I *1739:A1 I *D gf180mcu_fd_sc_mcu7t5v0__nor3_1
*I *1738:ZN O *D gf180mcu_fd_sc_mcu7t5v0__nor2_1
*CAP
1 *1739:A1 9.30289e-05
2 *1738:ZN 9.30289e-05
3 *1739:A1 *483:63 0.000173838
4 *1734:B *1739:A1 0.000148372
5 *1739:A3 *1739:A1 0.000173754
*RES
1 *1738:ZN *1739:A1 10.35 
*END

*D_NET *415 0.00208742
*CONN
*I *1743:A2 I *D gf180mcu_fd_sc_mcu7t5v0__aoi21_1
*I *1740:ZN O *D gf180mcu_fd_sc_mcu7t5v0__nand2_1
*CAP
1 *1743:A2 0.00023992
2 *1740:ZN 0.00023992
3 *1743:A2 *480:18 7.53993e-05
4 *1662:A2 *1743:A2 0.000428002
5 *1742:A2 *1743:A2 0.000134817
6 *359:67 *1743:A2 0.000228434
7 *359:86 *1743:A2 0.000567799
8 *385:38 *1743:A2 0.000173129
*RES
1 *1740:ZN *1743:A2 21.6 
*END

*D_NET *416 0.00265153
*CONN
*I *1744:C I *D gf180mcu_fd_sc_mcu7t5v0__oai221_1
*I *1742:A3 I *D gf180mcu_fd_sc_mcu7t5v0__oai31_1
*I *1741:ZN O *D gf180mcu_fd_sc_mcu7t5v0__nand3_1
*CAP
1 *1744:C 0.000123966
2 *1742:A3 0.000316409
3 *1741:ZN 0.000440375
4 *1742:A3 *1751:A1 3.92905e-06
5 *1742:A3 *1823:CLK 0.000148576
6 *1742:A3 *487:41 0
7 *1742:A3 *487:51 5.29454e-05
8 *1744:C *487:45 0.000155486
9 *1744:C *488:39 0.000723289
10 *1742:A2 *1742:A3 0.000332411
11 *1747:A2 *1742:A3 6.92926e-05
12 *309:48 *1744:C 0.000215799
13 *359:61 *1742:A3 3.0357e-05
14 *359:67 *1742:A3 3.86901e-05
*RES
1 *1741:ZN *1742:A3 21.33 
2 *1741:ZN *1744:C 11.07 
*END

*D_NET *417 0.000485726
*CONN
*I *1743:B I *D gf180mcu_fd_sc_mcu7t5v0__aoi21_1
*I *1742:ZN O *D gf180mcu_fd_sc_mcu7t5v0__oai31_1
*CAP
1 *1743:B 6.29535e-05
2 *1742:ZN 6.29535e-05
3 *1743:B *1823:CLK 0.000282246
4 *1743:A1 *1743:B 5.54524e-05
5 *359:86 *1743:B 2.21213e-05
*RES
1 *1742:ZN *1743:B 9.81 
*END

*D_NET *418 0.000983365
*CONN
*I *1745:B I *D gf180mcu_fd_sc_mcu7t5v0__oai21_1
*I *1744:ZN O *D gf180mcu_fd_sc_mcu7t5v0__oai221_1
*CAP
1 *1745:B 0.000205858
2 *1744:ZN 0.000205858
3 *1745:B *1747:A1 2.67187e-05
4 *1745:B *1748:A1 9.2821e-05
5 *1745:B *1751:A1 1.18477e-05
6 *1745:B *488:39 7.42354e-05
7 *125:34 *1745:B 2.1573e-06
8 *300:81 *1745:B 0.000363869
*RES
1 *1744:ZN *1745:B 19.98 
*END

*D_NET *419 0.00350282
*CONN
*I *1748:A1 I *D gf180mcu_fd_sc_mcu7t5v0__aoi21_1
*I *1745:ZN O *D gf180mcu_fd_sc_mcu7t5v0__oai21_1
*CAP
1 *1748:A1 0.000316782
2 *1745:ZN 0.000316782
3 *1748:A1 *1613:A1 1.7368e-05
4 *1748:A1 *1751:A1 0.000165831
5 *1748:A1 *480:18 0.000433797
6 *1613:A3 *1748:A1 0.000220857
7 *1736:A4 *1748:A1 0.000292516
8 *1745:B *1748:A1 9.2821e-05
9 *124:10 *1748:A1 0.00113271
10 *300:81 *1748:A1 8.7594e-05
11 *385:38 *1748:A1 0.000425761
*RES
1 *1745:ZN *1748:A1 23.22 
*END

*D_NET *420 0.00123033
*CONN
*I *1747:A1 I *D gf180mcu_fd_sc_mcu7t5v0__nand2_1
*I *1746:ZN O *D gf180mcu_fd_sc_mcu7t5v0__oai21_1
*CAP
1 *1747:A1 0.000208036
2 *1746:ZN 0.000208036
3 *1747:A1 *487:51 4.04191e-05
4 *1736:A4 *1747:A1 2.60665e-06
5 *1744:A1 *1747:A1 6.58723e-05
6 *1745:B *1747:A1 2.67187e-05
7 *1746:A2 *1747:A1 0.000101615
8 *125:16 *1747:A1 0.000167298
9 *125:34 *1747:A1 0.000255367
10 *300:81 *1747:A1 0.000154363
*RES
1 *1746:ZN *1747:A1 20.16 
*END

*D_NET *421 0.000990221
*CONN
*I *1748:B I *D gf180mcu_fd_sc_mcu7t5v0__aoi21_1
*I *1747:ZN O *D gf180mcu_fd_sc_mcu7t5v0__nand2_1
*CAP
1 *1748:B 0.000299424
2 *1747:ZN 0.000299424
3 *1748:B *1613:A1 4.50934e-05
4 *1748:B *487:51 0.000213554
5 *1747:A2 *1748:B 0.000111109
6 *385:38 *1748:B 2.16166e-05
*RES
1 *1747:ZN *1748:B 11.52 
*END

*D_NET *422 0.016236
*CONN
*I *1755:S I *D gf180mcu_fd_sc_mcu7t5v0__mux2_2
*I *1948:I I *D gf180mcu_fd_sc_mcu7t5v0__buf_2
*I *1754:A1 I *D gf180mcu_fd_sc_mcu7t5v0__oai21_1
*I *1752:A1 I *D gf180mcu_fd_sc_mcu7t5v0__oai21_1
*I *1750:S I *D gf180mcu_fd_sc_mcu7t5v0__mux2_2
*I *1749:ZN O *D gf180mcu_fd_sc_mcu7t5v0__nor4_1
*CAP
1 *1755:S 0.000154869
2 *1948:I 0
3 *1754:A1 0
4 *1752:A1 0
5 *1750:S 4.45301e-05
6 *1749:ZN 0.002929
7 *422:56 0.000798517
8 *422:41 0.000858141
9 *422:30 0.00309897
10 *1755:S *1755:I1 9.86752e-05
11 *1755:S *519:12 8.40821e-05
12 *422:30 *1687:A3 6.76488e-05
13 *422:30 *1751:A1 0.00307768
14 *422:30 *488:127 0
15 *422:41 *1753:A1 0
16 *422:41 *488:127 0
17 *422:56 *1754:B 3.98088e-05
18 *422:56 *1755:I0 0
19 *422:56 *1755:I1 6.3606e-05
20 *422:56 *1823:CLK 0
21 *422:56 *1832:CLK 0.000117174
22 *422:56 *465:8 2.08301e-05
23 *422:56 *465:14 2.32439e-05
24 *422:56 *465:34 0.000111418
25 *422:56 *466:6 1.07374e-05
26 *422:56 *519:12 1.56862e-05
27 *1647:A1 *422:56 3.34727e-05
28 *1655:A1 *422:56 0.000463466
29 *1717:C *1750:S 0.000362773
30 *1717:C *422:30 3.55118e-05
31 *1719:B *1750:S 0.000148576
32 *1744:A2 *422:30 0
33 *1751:A2 *422:30 0
34 *1751:A2 *422:41 0
35 *1752:A2 *422:56 4.31676e-05
36 *1827:D *422:56 0.00076373
37 *138:20 *422:30 0.000212538
38 *138:36 *422:30 0.000334837
39 *142:14 *422:30 0.00147742
40 *142:18 *422:30 3.9608e-05
41 *297:30 *422:30 0.000339214
42 *309:12 *422:30 0.000110231
43 *309:31 *422:30 0.000256804
*RES
1 *1749:ZN *1750:S 9.99 
2 *1749:ZN *422:30 43.02 
3 *422:30 *1752:A1 9 
4 *422:30 *422:41 6.03 
5 *422:41 *1754:A1 4.5 
6 *422:41 *422:56 15.57 
7 *422:56 *1948:I 4.5 
8 *422:56 *1755:S 5.85 
*END

*D_NET *423 0.000472459
*CONN
*I *1752:B I *D gf180mcu_fd_sc_mcu7t5v0__oai21_1
*I *1751:ZN O *D gf180mcu_fd_sc_mcu7t5v0__nand4_1
*CAP
1 *1752:B 0.00017734
2 *1751:ZN 0.00017734
3 *1752:B *1823:CLK 7.77227e-05
4 *1752:B *480:18 4.34467e-06
5 *1752:B *487:14 3.57113e-05
*RES
1 *1751:ZN *1752:B 10.44 
*END

*D_NET *424 0.00046642
*CONN
*I *1754:B I *D gf180mcu_fd_sc_mcu7t5v0__oai21_1
*I *1753:ZN O *D gf180mcu_fd_sc_mcu7t5v0__nand4_1
*CAP
1 *1754:B 0.000197199
2 *1753:ZN 0.000197199
3 *1754:B *1823:CLK 0
4 *137:14 *1754:B 0
5 *309:48 *1754:B 3.22122e-05
6 *422:56 *1754:B 3.98088e-05
*RES
1 *1753:ZN *1754:B 10.44 
*END

*D_NET *425 0.00104728
*CONN
*I *1971:I I *D gf180mcu_fd_sc_mcu7t5v0__buf_4
*I *1764:ZN O *D gf180mcu_fd_sc_mcu7t5v0__aoi21_1
*CAP
1 *1971:I 0.000337791
2 *1764:ZN 0.000337791
3 *1971:I *454:14 2.98938e-05
4 *1577:A2 *1971:I 0
5 *1764:A1 *1971:I 2.70026e-05
6 *1853:D *1971:I 6.05455e-05
7 *273:8 *1971:I 0
8 *279:19 *1971:I 0.000254253
*RES
1 *1764:ZN *1971:I 21.15 
*END

*D_NET *426 0.00404475
*CONN
*I *1766:A2 I *D gf180mcu_fd_sc_mcu7t5v0__nor2_1
*I *1765:ZN O *D gf180mcu_fd_sc_mcu7t5v0__aoi22_1
*CAP
1 *1766:A2 0.000351101
2 *1765:ZN 0.000351101
3 *1766:A2 *1770:A2 0
4 *1766:A2 *1875:CLK 1.36885e-05
5 *1766:A2 *450:10 0
6 *1766:A2 *451:12 0.00026186
7 *1837:D *1766:A2 0.00279237
8 *1842:D *1766:A2 0.000274632
*RES
1 *1765:ZN *1766:A2 25.56 
*END

*D_NET *427 0.00607992
*CONN
*I *1768:A2 I *D gf180mcu_fd_sc_mcu7t5v0__nor2_1
*I *1767:ZN O *D gf180mcu_fd_sc_mcu7t5v0__aoi22_1
*CAP
1 *1768:A2 0.000639516
2 *1767:ZN 0.000639516
3 *1768:A2 *1559:A3 0.00077382
4 *1768:A2 *1765:A1 0.00100028
5 *1768:A2 *449:66 0.00113964
6 *1768:A2 *476:49 0
7 *1768:A2 *492:6 0
8 *1768:A2 *518:58 0
9 *1561:A2 *1768:A2 0.000218664
10 *1564:A3 *1768:A2 0.000930497
11 *1838:D *1768:A2 0.000737988
*RES
1 *1767:ZN *1768:A2 28.44 
*END

*D_NET *428 0.00265898
*CONN
*I *1770:A2 I *D gf180mcu_fd_sc_mcu7t5v0__nor2_1
*I *1769:ZN O *D gf180mcu_fd_sc_mcu7t5v0__aoi22_1
*CAP
1 *1770:A2 0.000419779
2 *1769:ZN 0.000419779
3 *1770:A2 *1839:CLK 8.95825e-05
4 *1770:A2 *450:49 0.000535111
5 *1770:A2 *451:12 1.17934e-05
6 *1770:A2 *476:55 0.000129116
7 *1561:A1 *1770:A2 9.04462e-05
8 *1561:A2 *1770:A2 0.000336644
9 *1766:A2 *1770:A2 0
10 *1769:A2 *1770:A2 0.000164228
11 *1842:D *1770:A2 0.000186514
12 *1874:D *1770:A2 1.26644e-05
13 *10:24 *1770:A2 0.000263321
*RES
1 *1769:ZN *1770:A2 23.4 
*END

*D_NET *429 0.00635902
*CONN
*I *1772:A2 I *D gf180mcu_fd_sc_mcu7t5v0__nor2_1
*I *1771:ZN O *D gf180mcu_fd_sc_mcu7t5v0__aoi22_1
*CAP
1 *1772:A2 0.00164294
2 *1771:ZN 0.00164294
3 *1772:A2 *1771:B1 0.000189245
4 *1772:A2 *1771:B2 5.78854e-06
5 *1772:A2 *1778:A1 0.000119878
6 *1772:A2 *1778:A2 0
7 *1772:A2 *1779:B2 0
8 *1772:A2 *1780:A2 0
9 *1772:A2 *1954:I 2.6676e-05
10 *1772:A2 *1956:I 0.000292073
11 *1772:A2 *500:12 0
12 *1772:A2 *503:14 5.4279e-05
13 ADDR_O[2] *1772:A2 0.000309311
14 *1771:A2 *1772:A2 0.00183857
15 *1853:D *1772:A2 0.00023732
*RES
1 *1771:ZN *1772:A2 34.02 
*END

*D_NET *430 0.00319197
*CONN
*I *1774:A2 I *D gf180mcu_fd_sc_mcu7t5v0__nor2_1
*I *1773:ZN O *D gf180mcu_fd_sc_mcu7t5v0__aoi22_1
*CAP
1 *1774:A2 0.000497395
2 *1773:ZN 0.000497395
3 *1774:A2 *1429:A2 0.00015651
4 *1774:A2 *1429:A3 0.000307423
5 *1774:A2 *1567:A1 4.34597e-05
6 *1774:A2 *1773:A1 0.00033387
7 *1774:A2 *1780:A2 1.50702e-05
8 *1774:A2 *451:69 9.29938e-05
9 *1774:A2 *452:8 0.000787654
10 *1774:A2 *452:10 9.87765e-05
11 *1774:A2 *452:12 0.000100123
12 *1774:A2 *499:14 6.17613e-06
13 *1774:A2 *518:31 0.00019593
14 *1774:A2 *518:33 3.55118e-05
15 *1843:D *1774:A2 2.36813e-05
*RES
1 *1773:ZN *1774:A2 25.74 
*END

*D_NET *431 0.0055009
*CONN
*I *1776:A2 I *D gf180mcu_fd_sc_mcu7t5v0__nor2_1
*I *1775:ZN O *D gf180mcu_fd_sc_mcu7t5v0__aoi22_1
*CAP
1 *1776:A2 0.000783022
2 *1775:ZN 0.000783022
3 *1776:A2 *1567:A1 0.000215777
4 *1776:A2 *1567:A2 0.000205313
5 *1776:A2 *1775:A1 0.000322857
6 *1776:A2 *1775:B1 0.000170229
7 *1776:A2 *1952:I 0.000117788
8 *1776:A2 *452:8 0.000473326
9 *1776:A2 *452:10 0.000133776
10 *1776:A2 *452:12 2.35868e-05
11 *1776:A2 *453:15 0.000559618
12 *1571:B2 *1776:A2 0.000927961
13 *1840:D *1776:A2 0.000101415
14 *149:12 *1776:A2 0.000306921
15 *251:23 *1776:A2 0
16 *269:10 *1776:A2 0.000376286
*RES
1 *1775:ZN *1776:A2 29.25 
*END

*D_NET *432 0.00205321
*CONN
*I *1778:A2 I *D gf180mcu_fd_sc_mcu7t5v0__nor2_1
*I *1777:ZN O *D gf180mcu_fd_sc_mcu7t5v0__aoi22_1
*CAP
1 *1778:A2 0.000401094
2 *1777:ZN 0.000401094
3 *1778:A2 *1777:A1 9.85004e-05
4 *1778:A2 *1780:A2 0.000173529
5 *1778:A2 *477:31 0.000194972
6 *1778:A2 *518:14 0.000149478
7 *1772:A2 *1778:A2 0
8 *1843:D *1778:A2 0.000634542
*RES
1 *1777:ZN *1778:A2 30.96 
*END

*D_NET *433 0.0057882
*CONN
*I *1780:A2 I *D gf180mcu_fd_sc_mcu7t5v0__nor2_1
*I *1779:ZN O *D gf180mcu_fd_sc_mcu7t5v0__aoi22_1
*CAP
1 *1780:A2 0.000858908
2 *1779:ZN 0.000858908
3 *1780:A2 *1779:A1 0.000565009
4 *1780:A2 *1779:B2 0.000145265
5 *1780:A2 *1952:I 0.000788072
6 *1780:A2 *477:23 0.000157343
7 *1780:A2 *477:31 0.000834763
8 *1780:A2 *492:6 3.98088e-05
9 *1780:A2 *492:15 0.00015959
10 *1780:A2 *518:33 0
11 *1772:A2 *1780:A2 0
12 *1774:A2 *1780:A2 1.50702e-05
13 *1778:A2 *1780:A2 0.000173529
14 *1779:A2 *1780:A2 1.39313e-05
15 *1840:D *1780:A2 0.000533016
16 *1843:D *1780:A2 2.81538e-05
17 *279:34 *1780:A2 0.000616837
*RES
1 *1779:ZN *1780:A2 29.07 
*END

*D_NET *434 0.0309156
*CONN
*I *1782:B1 I *D gf180mcu_fd_sc_mcu7t5v0__aoi22_1
*I *1786:B1 I *D gf180mcu_fd_sc_mcu7t5v0__aoi22_1
*I *1784:B1 I *D gf180mcu_fd_sc_mcu7t5v0__aoi22_1
*I *1788:B1 I *D gf180mcu_fd_sc_mcu7t5v0__aoi22_1
*I *1790:B1 I *D gf180mcu_fd_sc_mcu7t5v0__aoi22_1
*I *1796:B1 I *D gf180mcu_fd_sc_mcu7t5v0__aoi22_1
*I *1800:B I *D gf180mcu_fd_sc_mcu7t5v0__aoi21_1
*I *1794:B1 I *D gf180mcu_fd_sc_mcu7t5v0__aoi22_1
*I *1792:B1 I *D gf180mcu_fd_sc_mcu7t5v0__aoi22_1
*I *1781:ZN O *D gf180mcu_fd_sc_mcu7t5v0__nor3_1
*CAP
1 *1782:B1 0
2 *1786:B1 0.000396894
3 *1784:B1 0
4 *1788:B1 0.000102475
5 *1790:B1 0
6 *1796:B1 0
7 *1800:B 0.000526282
8 *1794:B1 0
9 *1792:B1 0
10 *1781:ZN 0.000453028
11 *434:113 0.000102475
12 *434:111 0.000557104
13 *434:107 0.000294009
14 *434:90 0.00031612
15 *434:60 0.000710155
16 *434:47 0.000429635
17 *434:40 0.00177701
18 *434:16 0.0021666
19 *1786:B1 *1782:A1 5.44903e-05
20 *1786:B1 *1786:A2 0.00129618
21 *1786:B1 *1786:B2 3.55118e-05
22 *1786:B1 *1790:A1 0.000171686
23 *1786:B1 *1919:I 8.66077e-05
24 *1786:B1 *518:116 7.64364e-05
25 *1786:B1 *518:205 3.11982e-05
26 *1788:B1 *1784:B2 4.83522e-05
27 *1788:B1 *1788:A1 3.30181e-05
28 *1788:B1 *477:100 8.49143e-05
29 *1800:B *1450:A1 5.55698e-05
30 *1800:B *1456:A1 0
31 *1800:B *1681:I0 1.56862e-05
32 *1800:B *1681:S 1.9243e-05
33 *1800:B *1794:A1 0.000248583
34 *1800:B *1795:A2 0.000403653
35 *1800:B *1796:B2 0.000309143
36 *1800:B *1797:A2 3.99899e-05
37 *1800:B *1800:A2 7.62769e-05
38 *1800:B *492:317 0.000251568
39 *1800:B *518:151 2.65444e-06
40 *1800:B *562:71 0.000226643
41 *1800:B *564:52 0.000911682
42 *434:16 *1530:A1 0.000211933
43 *434:16 *1569:A2 0.000100105
44 *434:16 *1579:B2 0.00130438
45 *434:40 *1424:I 0.000219956
46 *434:40 *1520:A1 1.97308e-05
47 *434:40 *1520:B2 0.000176421
48 *434:40 *1788:B2 0.000145212
49 *434:40 *1809:CLK 1.17652e-05
50 *434:40 *1915:I 4.38269e-05
51 *434:40 *478:12 0.000166798
52 *434:40 *478:14 0.000150438
53 *434:40 *492:296 0.00190352
54 *434:40 *518:130 4.99529e-05
55 *434:40 *518:143 1.50763e-05
56 *434:40 *520:26 0.000416302
57 *434:40 *560:58 0.00256434
58 *434:40 *562:81 9.84908e-05
59 *434:40 *582:43 1.79716e-05
60 *434:47 *1453:A2 0.000187305
61 *434:47 *461:12 0.00050482
62 *434:47 *461:23 0.000249469
63 *434:47 *518:143 0.000167545
64 *434:47 *518:151 3.01487e-05
65 *434:60 *1794:A1 0.000219614
66 *434:60 *1795:A2 1.69023e-06
67 *434:60 *1797:A2 1.84666e-05
68 *434:60 *461:23 9.04462e-05
69 *434:60 *518:151 0.000410917
70 *434:90 *1530:A1 0.00043521
71 *434:90 *1788:B2 3.48413e-05
72 *434:90 *1866:CLK 0.000143583
73 *434:107 *1782:A1 5.90767e-05
74 *434:107 *1788:B2 1.74666e-05
75 *434:107 *1790:A1 0.000100647
76 *434:107 *1791:A2 1.90868e-05
77 *434:107 *1845:CLK 0.000146022
78 *434:107 *1866:CLK 0.000152621
79 *434:107 *477:100 5.79747e-05
80 *434:111 *477:100 4.60745e-05
81 *434:111 *518:116 0.000159055
82 *434:111 *518:130 2.82325e-05
83 *1453:A1 *434:40 0
84 *1453:A1 *434:47 0
85 *1457:A3 *1800:B 6.44696e-05
86 *1501:A2 *434:40 1.52191e-05
87 *1506:A1 *434:40 0.00249945
88 *1506:B *434:40 0.00129267
89 *1511:B *434:90 0.000324046
90 *1512:I0 *434:16 0.000219651
91 *1512:I0 *434:90 0.000190382
92 *1516:B *434:40 6.31693e-05
93 *1519:A1 *434:40 2.26729e-05
94 *1520:B1 *434:40 6.91924e-05
95 *1520:C *434:40 0.000637531
96 *1523:A2 *434:40 0.000109569
97 *1523:B1 *434:40 0.000277337
98 *1532:A2 *1788:B1 8.49208e-05
99 *1532:A2 *434:90 9.84061e-05
100 *1532:A2 *434:111 0.000466894
101 *1532:B *1788:B1 9.1627e-06
102 *1675:S *434:90 6.38612e-06
103 *1781:A1 *434:16 0.000100105
104 *1846:D *434:111 7.13859e-06
105 *1852:D *1800:B 0.000567672
106 *1868:D *434:40 3.98088e-05
107 *1946:I *1786:B1 6.2083e-06
108 *1947:I *1786:B1 0.000444513
109 *159:12 *434:40 0
110 *180:10 *434:40 8.87178e-05
111 *180:21 *434:60 2.89427e-06
112 *208:92 *434:40 0
*RES
1 *1781:ZN *434:16 22.41 
2 *434:16 *434:40 46.17 
3 *434:40 *1792:B1 4.5 
4 *434:40 *434:47 3.15 
5 *434:47 *1794:B1 4.5 
6 *434:47 *434:60 2.34 
7 *434:60 *1800:B 21.69 
8 *434:60 *1796:B1 4.5 
9 *434:16 *434:90 2.97 
10 *434:90 *1790:B1 9 
11 *434:90 *434:107 6.12 
12 *434:107 *434:111 6.21 
13 *434:111 *434:113 4.5 
14 *434:113 *1788:B1 5.4 
15 *434:113 *1784:B1 4.5 
16 *434:111 *1786:B1 15.12 
17 *434:107 *1782:B1 4.5 
*END

*D_NET *435 0.00835221
*CONN
*I *1783:A2 I *D gf180mcu_fd_sc_mcu7t5v0__nor2_1
*I *1782:ZN O *D gf180mcu_fd_sc_mcu7t5v0__aoi22_1
*CAP
1 *1783:A2 0.000638013
2 *1782:ZN 0.000638013
3 *1783:A2 *1512:I1 0.000675483
4 *1783:A2 *1784:B2 6.96564e-06
5 *1783:A2 *1788:A1 7.69132e-05
6 *1783:A2 *1791:A1 0.000134939
7 *1783:A2 *1791:A2 4.17606e-05
8 *1783:A2 *1845:CLK 0.000171159
9 *1783:A2 *1924:I 0.000396949
10 *1783:A2 *492:262 0.000116826
11 *1783:A2 *574:14 0.000618201
12 *1502:S *1783:A2 0.000145218
13 *1634:A1 *1783:A2 0.000305176
14 *1845:D *1783:A2 0.00395691
15 *176:37 *1783:A2 0.000428239
16 *179:104 *1783:A2 1.4382e-06
*RES
1 *1782:ZN *1783:A2 30.87 
*END

*D_NET *436 0.00555169
*CONN
*I *1785:A2 I *D gf180mcu_fd_sc_mcu7t5v0__nor2_1
*I *1784:ZN O *D gf180mcu_fd_sc_mcu7t5v0__aoi22_1
*CAP
1 *1785:A2 0.000413467
2 *1784:ZN 0.000413467
3 *1785:A2 *1784:A1 0.000284918
4 *1785:A2 *1784:B2 0.000284918
5 *1785:A2 *1786:B2 0.000209758
6 *1785:A2 *1914:I 0.000747647
7 *1785:A2 *559:37 0.000450468
8 *1846:D *1785:A2 0.00274704
*RES
1 *1784:ZN *1785:A2 26.46 
*END

*D_NET *437 0.0139058
*CONN
*I *1787:A2 I *D gf180mcu_fd_sc_mcu7t5v0__nor2_1
*I *1786:ZN O *D gf180mcu_fd_sc_mcu7t5v0__aoi22_1
*CAP
1 *1787:A2 0.00103869
2 *1786:ZN 0.00103869
3 *1787:A2 *1786:A1 0.00230837
4 *1787:A2 *1786:B2 3.97987e-05
5 *1787:A2 *1923:I 0.000368911
6 *1787:A2 *1960:I 0.000194259
7 *1787:A2 *492:277 0.000358535
8 *1787:A2 *506:8 0.000154907
9 *1787:A2 *558:27 0.00110225
10 *1787:A2 *558:42 0.00264424
11 *1501:A1 *1787:A2 2.57552e-05
12 *1501:B *1787:A2 0.00404781
13 *1847:D *1787:A2 0.000129564
14 *1849:D *1787:A2 0.00014836
15 *1864:D *1787:A2 0.000153272
16 *179:104 *1787:A2 0.000152365
*RES
1 *1786:ZN *1787:A2 39.15 
*END

*D_NET *438 0.00662093
*CONN
*I *1789:A2 I *D gf180mcu_fd_sc_mcu7t5v0__nor2_1
*I *1788:ZN O *D gf180mcu_fd_sc_mcu7t5v0__aoi22_1
*CAP
1 *1789:A2 0.00231504
2 *1788:ZN 0.00231504
3 *1789:A2 *1676:S 0.000245672
4 *1789:A2 *1917:I 3.76765e-05
5 *1789:A2 *518:114 8.12897e-05
6 *1789:A2 *518:130 0.000264383
7 *1789:A2 *559:106 0.000291783
8 *1501:B *1789:A2 0.000417764
9 *1516:A2 *1789:A2 4.24123e-05
10 *1516:B *1789:A2 3.42213e-05
11 *1848:D *1789:A2 0.000575646
*RES
1 *1788:ZN *1789:A2 44.82 
*END

*D_NET *439 0.0029126
*CONN
*I *1791:A2 I *D gf180mcu_fd_sc_mcu7t5v0__nor2_1
*I *1790:ZN O *D gf180mcu_fd_sc_mcu7t5v0__aoi22_1
*CAP
1 *1791:A2 0.000573305
2 *1790:ZN 0.000573305
3 *1791:A2 *1784:B2 0.000249268
4 *1791:A2 *1788:A1 1.9093e-05
5 *1791:A2 *1845:CLK 0.000594537
6 *1516:B *1791:A2 0.000842242
7 *1783:A2 *1791:A2 4.17606e-05
8 *434:107 *1791:A2 1.90868e-05
*RES
1 *1790:ZN *1791:A2 15.03 
*END

*D_NET *440 0.00658567
*CONN
*I *1793:A2 I *D gf180mcu_fd_sc_mcu7t5v0__nor2_1
*I *1792:ZN O *D gf180mcu_fd_sc_mcu7t5v0__aoi22_1
*CAP
1 *1793:A2 0.000936205
2 *1792:ZN 0.000936205
3 *1793:A2 *1858:CLK 0.000206398
4 *1793:A2 *460:8 0.000606467
5 *1793:A2 *461:12 3.08806e-06
6 *1793:A2 *488:127 1.81108e-05
7 *1793:A2 *562:81 0.000164228
8 *1443:B *1793:A2 0.000317431
9 *1450:A2 *1793:A2 5.11456e-05
10 *1454:A2 *1793:A2 0
11 *1503:A1 *1793:A2 3.25976e-05
12 *132:35 *1793:A2 0.000309524
13 *142:68 *1793:A2 0.00112744
14 *142:74 *1793:A2 0.000365454
15 *142:199 *1793:A2 1.30918e-05
16 *158:29 *1793:A2 0.00149829
*RES
1 *1792:ZN *1793:A2 30.51 
*END

*D_NET *441 0.00503339
*CONN
*I *1795:A2 I *D gf180mcu_fd_sc_mcu7t5v0__nor2_1
*I *1794:ZN O *D gf180mcu_fd_sc_mcu7t5v0__aoi22_1
*CAP
1 *1795:A2 0.000811013
2 *1794:ZN 0.000811013
3 *1795:A2 *1529:A2 4.68825e-05
4 *1795:A2 *1794:A1 1.11402e-05
5 *1795:A2 *1795:A1 0.000109569
6 *1795:A2 *1814:CLK 9.90362e-06
7 *1795:A2 *1967:I 1.85721e-05
8 *1795:A2 *462:6 6.35301e-05
9 *1795:A2 *462:19 0.000234452
10 *1795:A2 *560:16 4.9235e-05
11 *1795:A2 *562:39 0.000393144
12 *1795:A2 *562:50 3.2625e-05
13 *1795:A2 *562:71 0.000928379
14 *1795:A2 *563:22 0.000174063
15 *1795:A2 *563:32 0.000317701
16 *1529:A1 *1795:A2 0.000208378
17 *1800:B *1795:A2 0.000403653
18 *1813:D *1795:A2 0.000182206
19 *1814:D *1795:A2 0.000110639
20 *180:21 *1795:A2 1.39839e-05
21 *180:25 *1795:A2 0.000101615
22 *434:60 *1795:A2 1.69023e-06
*RES
1 *1794:ZN *1795:A2 36.18 
*END

*D_NET *442 0.00364575
*CONN
*I *1797:A2 I *D gf180mcu_fd_sc_mcu7t5v0__nor2_1
*I *1796:ZN O *D gf180mcu_fd_sc_mcu7t5v0__aoi22_1
*CAP
1 *1797:A2 0.000501325
2 *1796:ZN 0.000501325
3 *1797:A2 *1450:A1 0.000159857
4 *1797:A2 *1796:B2 1.43209e-05
5 *1797:A2 *1800:A1 0.000135666
6 *1797:A2 *1800:A2 5.70785e-05
7 *1797:A2 *1862:CLK 8.82384e-05
8 *1797:A2 *478:99 6.21416e-05
9 *1797:A2 *518:151 3.01487e-05
10 *1797:A2 *564:52 3.92172e-06
11 *1456:A2 *1797:A2 6.68757e-05
12 *1457:A1 *1797:A2 0.000365454
13 *1457:A2 *1797:A2 0.000814597
14 *1800:B *1797:A2 3.99899e-05
15 *1852:D *1797:A2 0.000698196
16 *1862:D *1797:A2 8.81508e-05
17 *434:60 *1797:A2 1.84666e-05
*RES
1 *1796:ZN *1797:A2 24.57 
*END

*D_NET *443 0.00108844
*CONN
*I *1799:A2 I *D gf180mcu_fd_sc_mcu7t5v0__aoi21_1
*I *1798:ZN O *D gf180mcu_fd_sc_mcu7t5v0__oai21_1
*CAP
1 *1799:A2 0.000112959
2 *1798:ZN 0.000112959
3 *1799:A2 *1905:I 0.000463466
4 *1799:A2 *504:33 0.000130361
5 *1576:A2 *1799:A2 0.000101615
6 *1798:A1 *1799:A2 0.000167083
*RES
1 *1798:ZN *1799:A2 20.25 
*END

*D_NET *444 0.00244952
*CONN
*I *1801:A2 I *D gf180mcu_fd_sc_mcu7t5v0__nor2_1
*I *1800:ZN O *D gf180mcu_fd_sc_mcu7t5v0__aoi21_1
*CAP
1 *1801:A2 0.000311669
2 *1800:ZN 0.000311669
3 *1801:A2 *1800:A2 0.000217786
4 *1801:A2 *458:10 0.000499457
5 *1801:A2 *492:317 0
6 *1801:A2 *492:325 0.000255088
7 *1451:A1 *1801:A2 3.01487e-05
8 *1451:A3 *1801:A2 3.59866e-05
9 *1457:A1 *1801:A2 0.000101624
10 *1852:D *1801:A2 2.19668e-05
11 *142:203 *1801:A2 0.000664126
*RES
1 *1800:ZN *1801:A2 22.14 
*END

*D_NET *445 0.000443131
*CONN
*I *1803:B I *D gf180mcu_fd_sc_mcu7t5v0__aoi21_1
*I *1802:ZN O *D gf180mcu_fd_sc_mcu7t5v0__oai21_1
*CAP
1 *1803:B 8.45376e-05
2 *1802:ZN 8.45376e-05
3 *1803:B *557:10 3.04847e-05
4 *1803:B *557:32 5.78822e-05
5 *1634:A1 *1803:B 5.22588e-06
6 *1803:A2 *1803:B 0.000180463
*RES
1 *1802:ZN *1803:B 19.17 
*END

*D_NET *446 0.000568828
*CONN
*I *1805:B I *D gf180mcu_fd_sc_mcu7t5v0__oai211_1
*I *1804:ZN O *D gf180mcu_fd_sc_mcu7t5v0__nand2_1
*CAP
1 *1805:B 5.39579e-05
2 *1804:ZN 5.39579e-05
3 *1498:A1 *1805:B 0.00028126
4 *1633:A2 *1805:B 7.03284e-05
5 *120:19 *1805:B 0.000109323
*RES
1 *1804:ZN *1805:B 18.99 
*END

*D_NET *447 0.0357641
*CONN
*I *1441:A4 I *D gf180mcu_fd_sc_mcu7t5v0__or4_1
*I *1473:A1 I *D gf180mcu_fd_sc_mcu7t5v0__nor2_1
*I *1765:A1 I *D gf180mcu_fd_sc_mcu7t5v0__aoi22_1
*I *1559:A1 I *D gf180mcu_fd_sc_mcu7t5v0__and4_1
*I *1422:I I *D gf180mcu_fd_sc_mcu7t5v0__clkinv_1
*I *1460:A3 I *D gf180mcu_fd_sc_mcu7t5v0__and4_1
*I *1438:A4 I *D gf180mcu_fd_sc_mcu7t5v0__nor4_1
*I *1439:A4 I *D gf180mcu_fd_sc_mcu7t5v0__or4_1
*I *1440:A4 I *D gf180mcu_fd_sc_mcu7t5v0__nor4_1
*I *1458:A1 I *D gf180mcu_fd_sc_mcu7t5v0__and2_1
*I *1548:A1 I *D gf180mcu_fd_sc_mcu7t5v0__nand2_1
*I *1549:A1 I *D gf180mcu_fd_sc_mcu7t5v0__oai221_1
*I *1459:A1 I *D gf180mcu_fd_sc_mcu7t5v0__nand2_1
*I *1871:Q O *D gf180mcu_fd_sc_mcu7t5v0__dffq_1
*CAP
1 *1441:A4 0.000165212
2 *1473:A1 0.000102455
3 *1765:A1 0.000135173
4 *1559:A1 1.57391e-05
5 *1422:I 2.89242e-05
6 *1460:A3 8.25838e-05
7 *1438:A4 0.000102238
8 *1439:A4 0.000221966
9 *1440:A4 0.00031033
10 *1458:A1 0
11 *1548:A1 0
12 *1549:A1 0.000167599
13 *1459:A1 0
14 *1871:Q 0.000375008
15 *447:159 0.00111143
16 *447:126 0.00113356
17 *447:115 0.000427831
18 *447:89 0.000363201
19 *447:76 0.00175092
20 *447:62 0.00235586
21 *447:51 0.000783317
22 *447:47 0.000784463
23 *447:25 0.000268706
24 *447:23 0.00081447
25 *447:12 0.000601745
26 *1438:A4 *1934:I 5.85292e-05
27 *1440:A4 *1934:I 1.86249e-05
28 *1440:A4 *455:8 6.30159e-05
29 *1441:A4 *558:6 0
30 *1473:A1 *448:29 1.0415e-05
31 *1473:A1 *473:94 0.000137053
32 *1549:A1 *473:98 0.000238419
33 *1559:A1 *1559:A2 9.04462e-05
34 *1765:A1 *1769:B1 1.61174e-05
35 *1765:A1 *518:58 0.000135102
36 *447:12 *1554:A1 0
37 *447:12 *448:8 0
38 *447:12 *448:21 0.000106536
39 *447:23 *1554:A1 0
40 *447:23 *448:21 0.000187886
41 *447:25 *473:98 3.42509e-05
42 *447:47 *1551:A1 0.000145124
43 *447:47 *473:94 0.00016295
44 *447:51 *1458:A2 3.51802e-05
45 *447:51 *1551:A1 1.99378e-05
46 *447:51 *448:29 0.000275527
47 *447:62 *1475:A1 6.10887e-05
48 *447:62 *1930:I 0.000406954
49 *447:76 *1434:A3 2.31089e-05
50 *447:76 *1467:A2 0.000410632
51 *447:76 *1893:I 0.000377142
52 *447:76 *556:66 2.58667e-05
53 *447:89 *1934:I 0.000148837
54 *447:115 *1462:B2 1.0415e-05
55 *447:115 *1930:I 0.000127759
56 *447:159 *1463:A1 0.000837351
57 *447:159 *1463:A2 0.000155486
58 *447:159 *1559:A2 0.000324981
59 *447:159 *1770:A1 5.97725e-05
60 *447:159 *1841:CLK 1.32327e-05
61 *447:159 *450:21 9.98572e-06
62 *1434:A2 *447:76 0
63 *1439:A3 *1439:A4 0.000132811
64 *1441:A3 *1440:A4 3.55118e-05
65 *1441:A3 *1441:A4 0.00013423
66 *1462:A1 *1460:A3 0
67 *1462:A2 *1460:A3 2.84401e-06
68 *1462:A2 *447:126 0.00015651
69 *1462:B1 *447:115 2.09122e-05
70 *1464:A1 *1422:I 8.49208e-05
71 *1465:A2 *447:126 7.41762e-05
72 *1465:A2 *447:159 3.32208e-05
73 *1470:A1 *1438:A4 2.36954e-05
74 *1474:A3 *1460:A3 3.01487e-05
75 *1475:A3 *447:62 1.27647e-05
76 *1475:A4 *447:51 8.53098e-05
77 *1475:A4 *447:62 0.000163566
78 *1477:A2 *447:76 0.000139375
79 *1485:A2 *447:76 0.000231436
80 *1546:A1 *447:62 1.18477e-05
81 *1546:A1 *447:115 0.000222062
82 *1546:A1 *447:126 0.0015109
83 *1546:A2 *447:76 0.000249014
84 *1548:A2 *447:25 0.000400853
85 *1549:B2 *447:51 0
86 *1549:B2 *447:62 0
87 *1550:A1 *447:51 3.71077e-05
88 *1551:A2 *447:47 0.000236727
89 *1561:B *447:159 4.09038e-05
90 *1561:C *447:159 1.18477e-05
91 *1563:A4 *447:159 2.79529e-05
92 *1567:A3 *447:126 2.32539e-05
93 *1567:A4 *447:159 3.94192e-05
94 *1634:A1 *1440:A4 2.73771e-05
95 *1765:A2 *1765:A1 9.30128e-05
96 *1768:A2 *1765:A1 0.00100028
97 *1838:D *1765:A1 0.000979744
98 *1839:D *447:159 0.000459253
99 *1871:D *1549:A1 0.000638833
100 *1872:D *1549:A1 0.000277515
101 *1884:D *447:76 9.84908e-05
102 *10:24 *1559:A1 3.98088e-05
103 *10:24 *447:159 0.000101737
104 *149:16 *447:126 1.52092e-05
105 *150:61 *447:76 0.000695875
106 *150:63 *1440:A4 5.58082e-06
107 *150:79 *447:76 8.65898e-05
108 *152:69 *1438:A4 0
109 *152:77 *1439:A4 0.000177559
110 *154:16 *447:76 4.88176e-05
111 *154:54 *1439:A4 1.56436e-05
112 *154:54 *447:76 0
113 *154:65 *1439:A4 0.000150744
114 *157:73 *1438:A4 8.49208e-05
115 *157:73 *447:76 0.000437503
116 *157:77 *1438:A4 0.000215927
117 *157:77 *447:89 0.000193494
118 *157:81 *1440:A4 0.000363851
119 *157:81 *447:89 0.000308353
120 *158:12 *1440:A4 5.60242e-06
121 *158:12 *1441:A4 2.38358e-05
122 *160:12 *1440:A4 6.2083e-06
123 *160:12 *1441:A4 0.000158798
124 *160:14 *1440:A4 0
125 *161:8 *1441:A4 4.83522e-05
126 *179:8 *447:126 0.00057773
127 *179:21 *1460:A3 0.000154519
128 *179:21 *447:115 0.000192174
129 *179:31 *447:76 7.23266e-06
130 *179:41 *447:76 0.000869178
131 *179:50 *447:76 0.000811404
132 *189:10 *447:76 8.35196e-05
133 *189:14 *447:76 0.00180441
134 *205:22 *447:159 0.00101276
135 *242:22 *447:159 0.00032061
136 *242:32 *447:159 7.88206e-05
137 *244:10 *447:115 0
138 *248:18 *1460:A3 2.08301e-05
139 *250:14 *1422:I 0.000153272
140 *250:30 *447:47 0
141 *251:8 *1422:I 9.90362e-06
142 *251:23 *447:126 0.000336099
143 *251:23 *447:159 0.000288831
144 *253:20 *447:23 0.00081246
145 *253:20 *447:25 0.000138056
146 *279:63 *1765:A1 0.000329596
*RES
1 *1871:Q *447:12 16.2 
2 *447:12 *1459:A1 4.5 
3 *447:12 *447:23 7.2 
4 *447:23 *447:25 1.53 
5 *447:25 *1549:A1 12.06 
6 *447:25 *1548:A1 9 
7 *447:23 *447:47 8.55 
8 *447:47 *447:51 2.16 
9 *447:51 *1458:A1 4.5 
10 *447:51 *447:62 9.54 
11 *447:62 *447:76 28.17 
12 *447:76 *1440:A4 10.44 
13 *447:76 *447:89 1.35 
14 *447:89 *1439:A4 10.89 
15 *447:89 *1438:A4 10.08 
16 *447:62 *447:115 6.66 
17 *447:115 *1460:A3 5.13 
18 *447:115 *447:126 9.45 
19 *447:126 *1422:I 9.45 
20 *447:126 *447:159 24.21 
21 *447:159 *1559:A1 4.77 
22 *447:159 *1765:A1 17.28 
23 *447:47 *1473:A1 5.58 
24 *1440:A4 *1441:A4 10.62 
*END

*D_NET *448 0.0185598
*CONN
*I *1464:A2 I *D gf180mcu_fd_sc_mcu7t5v0__nor2_1
*I *1767:A1 I *D gf180mcu_fd_sc_mcu7t5v0__aoi22_1
*I *1559:A2 I *D gf180mcu_fd_sc_mcu7t5v0__and4_1
*I *1460:A4 I *D gf180mcu_fd_sc_mcu7t5v0__and4_1
*I *1430:A1 I *D gf180mcu_fd_sc_mcu7t5v0__nand4_1
*I *1473:A2 I *D gf180mcu_fd_sc_mcu7t5v0__nor2_1
*I *1458:A2 I *D gf180mcu_fd_sc_mcu7t5v0__and2_1
*I *1551:A1 I *D gf180mcu_fd_sc_mcu7t5v0__nand2_1
*I *1459:A2 I *D gf180mcu_fd_sc_mcu7t5v0__nand2_1
*I *1872:Q O *D gf180mcu_fd_sc_mcu7t5v0__dffq_1
*CAP
1 *1464:A2 0
2 *1767:A1 0.000534168
3 *1559:A2 0.000339689
4 *1460:A4 0.000194776
5 *1430:A1 2.63361e-05
6 *1473:A2 0
7 *1458:A2 0.000105137
8 *1551:A1 0.000335797
9 *1459:A2 0
10 *1872:Q 0.000249264
11 *448:94 0.0015472
12 *448:84 0.000949573
13 *448:71 0.00060116
14 *448:35 0.000560805
15 *448:29 0.000212432
16 *448:23 0.000136602
17 *448:21 0.000786217
18 *448:8 0.000887618
19 *1430:A1 *449:40 0
20 *1430:A1 *473:94 3.98088e-05
21 *1559:A2 *1559:A3 0.000205509
22 *1559:A2 *450:21 4.54603e-06
23 *1767:A1 *1840:CLK 6.34901e-05
24 *1767:A1 *1841:CLK 0.000697061
25 *1767:A1 *476:49 0
26 *1767:A1 *492:6 0
27 *1767:A1 *499:14 4.45971e-05
28 *448:8 *1873:CLK 7.96333e-06
29 *448:21 *449:27 3.22122e-05
30 *448:21 *449:40 3.22122e-05
31 *448:21 *473:94 0.000219417
32 *448:23 *1893:I 0.000101401
33 *448:29 *1893:I 0.000147043
34 *448:29 *473:94 7.71021e-06
35 *448:35 *492:52 4.50117e-05
36 *448:71 *1474:A2 0.000164228
37 *448:71 *1893:I 0.000164387
38 *448:84 *450:61 4.01144e-05
39 *448:84 *492:33 2.65028e-05
40 *448:94 *1770:A1 9.13516e-05
41 *448:94 *1841:CLK 6.6089e-05
42 *448:94 *451:26 0.000164219
43 *1430:A3 *448:21 0.000289598
44 *1473:A1 *448:29 1.0415e-05
45 *1474:A3 *1460:A4 8.47108e-05
46 *1474:A4 *1460:A4 9.84908e-05
47 *1475:A4 *448:29 0.000111417
48 *1543:A2 *448:21 8.49208e-05
49 *1547:A1 *448:71 2.39993e-05
50 *1549:B2 *1458:A2 8.88935e-06
51 *1549:B2 *1551:A1 6.25797e-06
52 *1550:A1 *1458:A2 0.000208995
53 *1550:A1 *1551:A1 3.01487e-05
54 *1550:A2 *1458:A2 0.000128525
55 *1550:A2 *1551:A1 0.000106536
56 *1550:A2 *448:35 0.000151445
57 *1552:B1 *1551:A1 2.71612e-05
58 *1552:C *1551:A1 6.3635e-05
59 *1557:C *448:84 1.07281e-05
60 *1559:A1 *1559:A2 9.04462e-05
61 *1565:A1 *448:94 1.32256e-06
62 *1565:A2 *448:94 0.000703257
63 *1566:B1 *448:84 2.00872e-05
64 *1571:A1 *1767:A1 0.000392348
65 *1571:A1 *448:94 0.000219904
66 *1767:A2 *1767:A1 0.00028291
67 *1839:D *1559:A2 0.000109531
68 *1839:D *448:94 3.62187e-05
69 *1841:D *1559:A2 2.30981e-05
70 *10:24 *1559:A2 6.03388e-05
71 *131:44 *448:71 0.000167288
72 *131:44 *448:84 0.0010629
73 *131:44 *448:94 1.92547e-05
74 *146:8 *448:21 0.000136101
75 *146:45 *1460:A4 1.73106e-05
76 *149:12 *448:84 4.25101e-05
77 *172:10 *1458:A2 1.98195e-05
78 *172:25 *448:23 0.000203791
79 *172:25 *448:29 0.000363869
80 *172:25 *448:71 0.00100835
81 *172:25 *448:84 0.000287702
82 *175:30 *1460:A4 2.37143e-05
83 *187:6 *448:29 9.30128e-05
84 *250:14 *448:94 0.000206288
85 *250:16 *448:94 0.00020236
86 *250:30 *448:94 0.000218691
87 *253:20 *448:21 0.000174642
88 *262:23 *1559:A2 0
89 *447:12 *448:8 0
90 *447:12 *448:21 0.000106536
91 *447:23 *448:21 0.000187886
92 *447:47 *1551:A1 0.000145124
93 *447:51 *1458:A2 3.51802e-05
94 *447:51 *1551:A1 1.99378e-05
95 *447:51 *448:29 0.000275527
96 *447:159 *1559:A2 0.000324981
*RES
1 *1872:Q *448:8 6.48 
2 *448:8 *1459:A2 4.5 
3 *448:8 *448:21 10.71 
4 *448:21 *448:23 0.63 
5 *448:23 *448:29 6.3 
6 *448:29 *448:35 9.99 
7 *448:35 *1551:A1 7.29 
8 *448:35 *1458:A2 5.67 
9 *448:29 *1473:A2 4.5 
10 *448:23 *1430:A1 9.27 
11 *448:21 *448:71 3.06 
12 *448:71 *1460:A4 10.53 
13 *448:71 *448:84 8.19 
14 *448:84 *448:94 10.62 
15 *448:94 *1559:A2 11.97 
16 *448:94 *1767:A1 14.94 
17 *448:84 *1464:A2 4.5 
*END

*D_NET *449 0.0159983
*CONN
*I *1769:A1 I *D gf180mcu_fd_sc_mcu7t5v0__aoi22_1
*I *1559:A3 I *D gf180mcu_fd_sc_mcu7t5v0__and4_1
*I *1463:A1 I *D gf180mcu_fd_sc_mcu7t5v0__and2_1
*I *1475:A1 I *D gf180mcu_fd_sc_mcu7t5v0__nand4_1
*I *1474:A1 I *D gf180mcu_fd_sc_mcu7t5v0__and4_1
*I *1423:I I *D gf180mcu_fd_sc_mcu7t5v0__clkinv_1
*I *1554:A1 I *D gf180mcu_fd_sc_mcu7t5v0__xor2_1
*I *1873:Q O *D gf180mcu_fd_sc_mcu7t5v0__dffq_1
*CAP
1 *1769:A1 0.000176467
2 *1559:A3 0.000363913
3 *1463:A1 0.000285952
4 *1475:A1 0.000400884
5 *1474:A1 0
6 *1423:I 3.27253e-05
7 *1554:A1 0.000205269
8 *1873:Q 0
9 *449:66 0.000813343
10 *449:40 0.000738671
11 *449:27 0.000688362
12 *449:10 0.000799641
13 *449:6 0.000616468
14 *1463:A1 *1463:A2 5.82191e-05
15 *1475:A1 *1893:I 0.000231035
16 *1559:A3 *450:21 5.19307e-05
17 *1559:A3 *450:23 0.000109657
18 *1769:A1 *450:10 4.61905e-05
19 *449:40 *1430:A4 2.58417e-07
20 *449:40 *1893:I 3.77239e-05
21 *449:66 *1564:A1 0.000169721
22 *449:66 *1875:CLK 0
23 *449:66 *450:23 0.00019387
24 *1430:A1 *449:40 0
25 *1430:A3 *449:40 0.000230529
26 *1546:A1 *1475:A1 0.000295943
27 *1546:A2 *1475:A1 0.000300761
28 *1546:A3 *1475:A1 0.000251578
29 *1547:A1 *1475:A1 9.04462e-05
30 *1547:A1 *449:40 0.000396058
31 *1553:A2 *1554:A1 0.000108516
32 *1553:A2 *449:10 6.15707e-05
33 *1553:A2 *449:27 4.8063e-05
34 *1555:A4 *449:27 5.79059e-06
35 *1559:A2 *1559:A3 0.000205509
36 *1561:A2 *1559:A3 0.000411561
37 *1561:B *1463:A1 0.00200264
38 *1561:C *1463:A1 0.000399367
39 *1768:A2 *1559:A3 0.00077382
40 *1768:A2 *449:66 0.00113964
41 *1769:A2 *1769:A1 8.49143e-05
42 *1838:D *449:66 2.35868e-05
43 *1873:D *1554:A1 5.97457e-06
44 *1873:D *449:27 4.16859e-05
45 *10:24 *1769:A1 1.17652e-05
46 *146:8 *1423:I 1.61174e-05
47 *146:8 *449:40 0.000394976
48 *150:19 *1475:A1 0.000291865
49 *242:22 *1463:A1 1.77944e-05
50 *248:18 *1475:A1 0.000215116
51 *248:18 *449:40 0
52 *250:30 *449:10 0
53 *250:30 *449:27 9.78433e-05
54 *253:10 *449:40 0.000449717
55 *253:20 *1423:I 1.85337e-05
56 *253:20 *1554:A1 0
57 *253:20 *449:27 9.85004e-05
58 *253:20 *449:40 0.000406775
59 *257:10 *449:10 6.17613e-06
60 *257:10 *449:66 0.000112003
61 *447:12 *1554:A1 0
62 *447:23 *1554:A1 0
63 *447:62 *1475:A1 6.10887e-05
64 *447:159 *1463:A1 0.000837351
65 *448:21 *449:27 3.22122e-05
66 *448:21 *449:40 3.22122e-05
*RES
1 *1873:Q *449:6 9 
2 *449:6 *449:10 6.75 
3 *449:10 *1554:A1 6.03 
4 *449:10 *449:27 11.61 
5 *449:27 *1423:I 4.77 
6 *449:27 *449:40 4.77 
7 *449:40 *1474:A1 4.5 
8 *449:40 *1475:A1 19.08 
9 *449:6 *449:66 4.5 
10 *449:66 *1463:A1 14.67 
11 *449:66 *1559:A3 11.88 
12 *1559:A3 *1769:A1 10.35 
*END

*D_NET *450 0.0202001
*CONN
*I *1771:A1 I *D gf180mcu_fd_sc_mcu7t5v0__aoi22_1
*I *1563:A1 I *D gf180mcu_fd_sc_mcu7t5v0__and4_1
*I *1463:A2 I *D gf180mcu_fd_sc_mcu7t5v0__and2_1
*I *1461:A3 I *D gf180mcu_fd_sc_mcu7t5v0__nand4_1
*I *1460:A2 I *D gf180mcu_fd_sc_mcu7t5v0__and4_1
*I *1474:A2 I *D gf180mcu_fd_sc_mcu7t5v0__and4_1
*I *1430:A4 I *D gf180mcu_fd_sc_mcu7t5v0__nand4_1
*I *1475:A2 I *D gf180mcu_fd_sc_mcu7t5v0__nand4_1
*I *1558:C I *D gf180mcu_fd_sc_mcu7t5v0__aoi221_1
*I *1564:A1 I *D gf180mcu_fd_sc_mcu7t5v0__nand4_1
*I *1559:A4 I *D gf180mcu_fd_sc_mcu7t5v0__and4_1
*I *1874:Q O *D gf180mcu_fd_sc_mcu7t5v0__dffq_1
*CAP
1 *1771:A1 0.00111874
2 *1563:A1 0
3 *1463:A2 3.26088e-05
4 *1461:A3 4.24492e-05
5 *1460:A2 3.08394e-05
6 *1474:A2 0.000186282
7 *1430:A4 5.87029e-05
8 *1475:A2 0.000219209
9 *1558:C 0
10 *1564:A1 0.000180113
11 *1559:A4 0
12 *1874:Q 0
13 *450:65 0.000405885
14 *450:63 0.000569928
15 *450:61 0.000613417
16 *450:59 0.000859657
17 *450:49 0.000817913
18 *450:23 0.000318395
19 *450:21 0.000854855
20 *450:10 0.000837698
21 *450:4 0.00157687
22 *1430:A4 *1893:I 7.54934e-05
23 *1475:A2 *1893:I 0.000128059
24 *1475:A2 *473:94 0.00123251
25 *450:10 *1769:B2 0.000216103
26 *450:10 *1837:CLK 1.39839e-05
27 *450:21 *1841:CLK 0
28 *450:49 *1563:A2 2.49806e-06
29 *450:49 *1839:CLK 0.000161479
30 ADDR_O[0] *1771:A1 0.000220128
31 ADDR_O[1] *1771:A1 6.76406e-05
32 *1430:A2 *1430:A4 3.38463e-05
33 *1460:A1 *450:63 0.000131374
34 *1460:A1 *450:65 1.91893e-05
35 *1463:A1 *1463:A2 5.82191e-05
36 *1474:A3 *1460:A2 0.000250191
37 *1475:A3 *1475:A2 3.63444e-05
38 *1476:A2 *450:63 0.000144938
39 *1547:A1 *1430:A4 8.49143e-05
40 *1547:A1 *1474:A2 9.39061e-05
41 *1547:A1 *1475:A2 9.39061e-05
42 *1547:A1 *450:65 0.000333595
43 *1559:A2 *450:21 4.54603e-06
44 *1559:A3 *450:21 5.19307e-05
45 *1559:A3 *450:23 0.000109657
46 *1561:A2 *450:21 0.00069039
47 *1561:B *450:49 0.000290869
48 *1563:A4 *450:21 9.41135e-05
49 *1563:A4 *450:23 0.000250818
50 *1563:A4 *450:59 9.86221e-06
51 *1564:A3 *1564:A1 1.56862e-05
52 *1564:A4 *1564:A1 1.68677e-06
53 *1565:A2 *1564:A1 1.30091e-05
54 *1567:A3 *450:59 4.13999e-05
55 *1567:A3 *450:61 0.000205807
56 *1766:A2 *450:10 0
57 *1769:A1 *450:10 4.61905e-05
58 *1770:A2 *450:49 0.000535111
59 *1837:D *1771:A1 0.0006118
60 *1837:D *450:10 0
61 *1839:D *450:49 9.16342e-05
62 *1842:D *1771:A1 0.000225621
63 *1842:D *450:59 9.16438e-06
64 *1875:D *1564:A1 0.000345234
65 *1892:I *450:59 0.00011289
66 *10:24 *450:10 0
67 *10:24 *450:49 7.11704e-05
68 *131:44 *1474:A2 0.00012939
69 *131:44 *450:61 0.000112069
70 *131:44 *450:63 0.000153044
71 *146:45 *1461:A3 0.000114135
72 *149:12 *450:59 0.000262305
73 *149:12 *450:61 0.000706192
74 *149:16 *450:61 1.20708e-05
75 *149:16 *450:63 1.66633e-05
76 *149:20 *1475:A2 2.26987e-05
77 *149:20 *450:65 4.05146e-05
78 *150:8 *1475:A2 0.000135955
79 *150:19 *1475:A2 0.00089507
80 *246:10 *1461:A3 0.000297533
81 *248:18 *1460:A2 0.000289489
82 *257:10 *1564:A1 0.000191934
83 *257:10 *450:23 7.50811e-05
84 *262:8 *450:10 1.61174e-05
85 *262:8 *450:21 2.30653e-05
86 *262:23 *450:21 8.22041e-06
87 *279:63 *450:10 1.43879e-05
88 *447:159 *1463:A2 0.000155486
89 *447:159 *450:21 9.98572e-06
90 *448:71 *1474:A2 0.000164228
91 *448:84 *450:61 4.01144e-05
92 *449:40 *1430:A4 2.58417e-07
93 *449:66 *1564:A1 0.000169721
94 *449:66 *450:23 0.00019387
*RES
1 *1874:Q *450:4 4.5 
2 *450:4 *450:10 3.15 
3 *450:10 *1559:A4 4.5 
4 *450:10 *450:21 7.74 
5 *450:21 *450:23 2.07 
6 *450:23 *1564:A1 11.16 
7 *450:23 *1558:C 9 
8 *450:21 *450:49 7.83 
9 *450:49 *450:59 16.38 
10 *450:59 *450:61 3.69 
11 *450:61 *450:63 2.43 
12 *450:63 *450:65 1.35 
13 *450:65 *1475:A2 13.68 
14 *450:65 *1430:A4 9.63 
15 *450:63 *1474:A2 10.98 
16 *450:63 *1460:A2 9.81 
17 *450:61 *1461:A3 9.81 
18 *450:59 *1463:A2 9.45 
19 *450:49 *1563:A1 4.5 
20 *450:4 *1771:A1 24.66 
*END

*D_NET *451 0.0142732
*CONN
*I *1564:A2 I *D gf180mcu_fd_sc_mcu7t5v0__nand4_1
*I *1773:A1 I *D gf180mcu_fd_sc_mcu7t5v0__aoi22_1
*I *1429:A2 I *D gf180mcu_fd_sc_mcu7t5v0__nor4_1
*I *1572:A2 I *D gf180mcu_fd_sc_mcu7t5v0__nand4_1
*I *1563:A2 I *D gf180mcu_fd_sc_mcu7t5v0__and4_1
*I *1567:A2 I *D gf180mcu_fd_sc_mcu7t5v0__nand4_1
*I *1562:B I *D gf180mcu_fd_sc_mcu7t5v0__aoi21_1
*I *1875:Q O *D gf180mcu_fd_sc_mcu7t5v0__dffq_1
*CAP
1 *1564:A2 0
2 *1773:A1 0.00027574
3 *1429:A2 0.000131986
4 *1572:A2 0
5 *1563:A2 7.70757e-05
6 *1567:A2 0.000189499
7 *1562:B 0
8 *1875:Q 0.0003806
9 *451:71 0.000131986
10 *451:69 0.000540814
11 *451:41 0.000266575
12 *451:39 0.000512963
13 *451:26 0.00098148
14 *451:12 0.00111419
15 *1429:A2 *1570:A1 2.16688e-05
16 *1429:A2 *1572:A1 9.92342e-05
17 *1429:A2 *1572:A3 0.00037416
18 *1567:A2 *1567:A1 9.4546e-05
19 *1567:A2 *1774:A1 0.00016583
20 *1567:A2 *492:25 0.000215089
21 *1567:A2 *492:33 0.000285513
22 *1773:A1 *499:14 0.00124589
23 *451:12 *1766:A1 7.55765e-06
24 *451:12 *1874:CLK 5.60661e-06
25 *451:12 *1875:CLK 0.000385445
26 *451:12 *476:55 0
27 *451:12 *476:61 5.77481e-05
28 *451:26 *1770:A1 0.000249572
29 *451:26 *492:50 1.1256e-05
30 *451:39 *492:33 7.04606e-05
31 *451:69 *1567:A1 1.16291e-05
32 *451:69 *1774:A1 3.91591e-05
33 *451:69 *492:33 2.15995e-05
34 *1558:A2 *451:26 0.000143921
35 *1561:B *1563:A2 2.36914e-05
36 *1561:B *1567:A2 0.000424357
37 *1562:A2 *451:39 7.85875e-05
38 *1562:A2 *451:69 0.00120643
39 *1565:A1 *451:26 0
40 *1566:B1 *451:39 0.000164228
41 *1571:A1 *1773:A1 6.81061e-06
42 *1571:A2 *1773:A1 0.000744717
43 *1571:A2 *451:69 0.000117249
44 *1766:A2 *451:12 0.00026186
45 *1770:A2 *451:12 1.17934e-05
46 *1774:A2 *1429:A2 0.00015651
47 *1774:A2 *1773:A1 0.00033387
48 *1774:A2 *451:69 9.29938e-05
49 *1776:A2 *1567:A2 0.000205313
50 *1842:D *1567:A2 0.000145212
51 *1875:D *451:12 7.01651e-05
52 *10:24 *451:69 0.000126062
53 *149:12 *1567:A2 0.000403531
54 *205:22 *451:26 0.000410051
55 *205:22 *451:39 0.00022428
56 *242:12 *1563:A2 2.08301e-05
57 *242:12 *1567:A2 7.88967e-05
58 *242:20 *1563:A2 1.0415e-05
59 *242:20 *451:39 2.14274e-05
60 *250:14 *451:39 0.000152367
61 *250:16 *451:26 0.000167441
62 *250:16 *451:39 6.2979e-05
63 *250:30 *451:26 0.000272758
64 *262:23 *1429:A2 2.89427e-06
65 *448:94 *451:26 0.000164219
66 *450:49 *1563:A2 2.49806e-06
*RES
1 *1875:Q *451:12 17.82 
2 *451:12 *451:26 23.31 
3 *451:26 *1562:B 4.5 
4 *451:26 *451:39 6.75 
5 *451:39 *451:41 4.5 
6 *451:41 *1567:A2 17.01 
7 *451:41 *1563:A2 5.04 
8 *451:39 *451:69 4.14 
9 *451:69 *451:71 4.5 
10 *451:71 *1572:A2 4.5 
11 *451:71 *1429:A2 15.21 
12 *451:69 *1773:A1 14.31 
13 *451:12 *1564:A2 4.5 
*END

*D_NET *452 0.00728285
*CONN
*I *1775:A1 I *D gf180mcu_fd_sc_mcu7t5v0__aoi22_1
*I *1572:A1 I *D gf180mcu_fd_sc_mcu7t5v0__nand4_1
*I *1429:A1 I *D gf180mcu_fd_sc_mcu7t5v0__nor4_1
*I *1570:A1 I *D gf180mcu_fd_sc_mcu7t5v0__nor2_1
*I *1567:A1 I *D gf180mcu_fd_sc_mcu7t5v0__nand4_1
*I *1876:Q O *D gf180mcu_fd_sc_mcu7t5v0__dffq_1
*CAP
1 *1775:A1 0.000290916
2 *1572:A1 0.000110382
3 *1429:A1 0
4 *1570:A1 0.000207581
5 *1567:A1 0.000166935
6 *1876:Q 0
7 *452:12 0.0003821
8 *452:10 8.99838e-05
9 *452:8 0.000463038
10 *452:6 0.000561172
11 *1567:A1 *1774:A1 0.000182206
12 *1570:A1 *1572:A3 9.51624e-06
13 *1572:A1 *1572:A3 4.01309e-05
14 *1572:A1 *1952:I 1.23715e-05
15 *1775:A1 *1775:B1 0.000134176
16 *1775:A1 *518:25 5.6683e-05
17 *1775:A1 *518:31 0.000117031
18 *452:8 *1429:A3 0.000125208
19 *452:8 *1952:I 0.000164228
20 *452:8 *499:14 0
21 *452:8 *518:31 6.2083e-06
22 *452:10 *1429:A3 0.000174497
23 *1429:A2 *1570:A1 2.16688e-05
24 *1429:A2 *1572:A1 9.92342e-05
25 *1567:A2 *1567:A1 9.4546e-05
26 *1568:B *1567:A1 0
27 *1568:C *1567:A1 0
28 *1774:A2 *1567:A1 4.34597e-05
29 *1774:A2 *452:8 0.000787654
30 *1774:A2 *452:10 9.87765e-05
31 *1774:A2 *452:12 0.000100123
32 *1776:A2 *1567:A1 0.000215777
33 *1776:A2 *1775:A1 0.000322857
34 *1776:A2 *452:8 0.000473326
35 *1776:A2 *452:10 0.000133776
36 *1776:A2 *452:12 2.35868e-05
37 *1840:D *452:8 0.00023711
38 *1841:D *1570:A1 8.69576e-05
39 *149:12 *1567:A1 0.000458327
40 *149:12 *452:12 0.000174506
41 *272:10 *1572:A1 0.000415016
42 *279:34 *1775:A1 1.61174e-05
43 *279:40 *1775:A1 0.000174039
44 *451:69 *1567:A1 1.16291e-05
*RES
1 *1876:Q *452:6 9 
2 *452:6 *452:8 5.31 
3 *452:8 *452:10 1.17 
4 *452:10 *452:12 0.63 
5 *452:12 *1567:A1 11.34 
6 *452:12 *1570:A1 10.44 
7 *452:10 *1429:A1 9 
8 *452:8 *1572:A1 10.35 
9 *452:6 *1775:A1 12.06 
*END

*D_NET *453 0.00530281
*CONN
*I *1575:A1 I *D gf180mcu_fd_sc_mcu7t5v0__nor2_1
*I *1429:A4 I *D gf180mcu_fd_sc_mcu7t5v0__nor4_1
*I *1572:A3 I *D gf180mcu_fd_sc_mcu7t5v0__nand4_1
*I *1777:A1 I *D gf180mcu_fd_sc_mcu7t5v0__aoi22_1
*I *1877:Q O *D gf180mcu_fd_sc_mcu7t5v0__dffq_1
*CAP
1 *1575:A1 6.69826e-06
2 *1429:A4 0
3 *1572:A3 0.000230192
4 *1777:A1 0.000120936
5 *1877:Q 0
6 *453:21 0.000449944
7 *453:15 0.000483687
8 *453:4 0.000378173
9 *1575:A1 *1429:A3 9.85004e-05
10 *1575:A1 *476:47 9.85004e-05
11 *1777:A1 *477:31 6.95824e-05
12 *453:15 *1952:I 0.000908483
13 *453:21 *476:21 0
14 *1429:A2 *1572:A3 0.00037416
15 *1568:B *1572:A3 0
16 *1570:A1 *1572:A3 9.51624e-06
17 *1571:B2 *453:15 0.000752893
18 *1571:B2 *453:21 0.000234541
19 *1572:A1 *1572:A3 4.01309e-05
20 *1776:A2 *453:15 0.000559618
21 *1778:A2 *1777:A1 9.85004e-05
22 *269:10 *453:21 0.00011731
23 *272:10 *1572:A3 5.23429e-06
24 *272:10 *453:21 9.81259e-05
25 *279:40 *1777:A1 0.000168084
*RES
1 *1877:Q *453:4 4.5 
2 *453:4 *1777:A1 5.67 
3 *453:4 *453:15 10.17 
4 *453:15 *453:21 6.12 
5 *453:21 *1572:A3 6.57 
6 *453:21 *1429:A4 4.5 
7 *453:15 *1575:A1 9.27 
*END

*D_NET *454 0.0108461
*CONN
*I *1779:A1 I *D gf180mcu_fd_sc_mcu7t5v0__aoi22_1
*I *1577:A1 I *D gf180mcu_fd_sc_mcu7t5v0__nor2_1
*I *1429:A3 I *D gf180mcu_fd_sc_mcu7t5v0__nor4_1
*I *1578:A3 I *D gf180mcu_fd_sc_mcu7t5v0__nand3_1
*I *1878:Q O *D gf180mcu_fd_sc_mcu7t5v0__dffq_1
*CAP
1 *1779:A1 3.3023e-05
2 *1577:A1 0.000182195
3 *1429:A3 0.000507028
4 *1578:A3 0.000237139
5 *1878:Q 0.000208681
6 *454:14 0.000932672
7 *454:12 0.000601412
8 *454:10 0.000472415
9 *1429:A3 *1952:I 0.000158798
10 *1429:A3 *476:47 0.000303597
11 *1429:A3 *559:67 1.11402e-05
12 *1577:A1 *492:209 9.90342e-05
13 *1578:A3 *559:67 0.000196928
14 *454:10 *1495:A4 0
15 *454:10 *1779:B2 9.5364e-05
16 *454:10 *504:14 0
17 *454:12 *504:14 0
18 *1571:B1 *1429:A3 4.89196e-07
19 *1571:B1 *1578:A3 0
20 *1573:A2 *1429:A3 0.000158788
21 *1575:A1 *1429:A3 9.85004e-05
22 *1576:A2 *1577:A1 2.03496e-05
23 *1576:B *1429:A3 0.00057287
24 *1579:A1 *1429:A3 6.93668e-05
25 *1579:A1 *1578:A3 0.000171136
26 *1579:A2 *1429:A3 6.03144e-06
27 *1579:B1 *1578:A3 1.7301e-05
28 *1580:A1 *1577:A1 0.000151417
29 *1580:A2 *1578:A3 4.07944e-05
30 *1580:A2 *454:14 0.000321505
31 *1764:A1 *1429:A3 2.79319e-05
32 *1764:A1 *1578:A3 0.000230923
33 *1764:A1 *454:14 0.000341433
34 *1764:A2 *1429:A3 0.000183662
35 *1774:A2 *1429:A3 0.000307423
36 *1779:A2 *1779:A1 0.000565009
37 *1780:A2 *1779:A1 0.000565009
38 *1798:A1 *454:12 8.22523e-05
39 *1798:A1 *454:14 3.93621e-05
40 *1853:D *454:10 0
41 *1878:D *1577:A1 4.85558e-05
42 *1971:I *454:14 2.98938e-05
43 *241:70 *1578:A3 4.18699e-05
44 *272:10 *1429:A3 0.000551711
45 *279:19 *454:12 0.00102429
46 *279:19 *454:14 0.000553471
47 *279:34 *454:10 0.000186403
48 *279:34 *454:12 9.92405e-05
49 *452:8 *1429:A3 0.000125208
50 *452:10 *1429:A3 0.000174497
*RES
1 *1878:Q *454:10 10.62 
2 *454:10 *454:12 2.97 
3 *454:12 *454:14 2.97 
4 *454:14 *1578:A3 11.61 
5 *454:14 *1429:A3 24.66 
6 *454:12 *1577:A1 10.71 
7 *454:10 *1779:A1 10.53 
*END

*D_NET *455 0.0026834
*CONN
*I *1934:I I *D gf180mcu_fd_sc_mcu7t5v0__dlyc_1
*I *1467:A2 I *D gf180mcu_fd_sc_mcu7t5v0__nand2_1
*I *1855:Q O *D gf180mcu_fd_sc_mcu7t5v0__dffq_1
*CAP
1 *1934:I 0.000238172
2 *1467:A2 0.000112926
3 *1855:Q 4.38442e-05
4 *455:8 0.000394942
5 *1438:A4 *1934:I 5.85292e-05
6 *1440:A4 *1934:I 1.86249e-05
7 *1440:A4 *455:8 6.30159e-05
8 *1470:A1 *1934:I 7.63913e-05
9 *1634:A1 *1934:I 0.000549826
10 *1634:A1 *455:8 0.000101415
11 *150:61 *1467:A2 0.000304765
12 *152:69 *1934:I 0.000161479
13 *157:73 *1934:I 0
14 *447:76 *1467:A2 0.000410632
15 *447:89 *1934:I 0.000148837
*RES
1 *1855:Q *455:8 9.63 
2 *455:8 *1467:A2 10.71 
3 *455:8 *1934:I 12.78 
*END

*D_NET *456 0.00421455
*CONN
*I *1650:A2 I *D gf180mcu_fd_sc_mcu7t5v0__nand2_1
*I *1397:I I *D gf180mcu_fd_sc_mcu7t5v0__clkinv_1
*I *1653:B2 I *D gf180mcu_fd_sc_mcu7t5v0__aoi22_1
*I *1856:Q O *D gf180mcu_fd_sc_mcu7t5v0__dffq_1
*CAP
1 *1650:A2 0.000408077
2 *1397:I 0.000366988
3 *1653:B2 0.000529408
4 *1856:Q 0.000183917
5 *456:24 0.00112056
6 *1397:I *1856:CLK 0
7 *1397:I *1896:I 9.47964e-05
8 *1650:A2 *1896:I 9.35685e-05
9 *1650:A2 *1935:I 7.46964e-06
10 *1650:A2 *475:18 1.67605e-05
11 *1653:B2 *1895:I 5.38916e-06
12 *456:24 *1896:I 2.60252e-05
13 *1650:A1 *1650:A2 9.04462e-05
14 *1651:A1 *456:24 1.71254e-05
15 *1652:A1 *1650:A2 6.2979e-05
16 *1653:A1 *1650:A2 0.000323694
17 *1653:A1 *456:24 3.53257e-05
18 *1655:A2 *1650:A2 0
19 *1655:A2 *456:24 0.000135914
20 *1660:A1 *1653:B2 8.3004e-05
21 *1660:A2 *1397:I 0.000105977
22 *1856:D *1397:I 7.40965e-05
23 *132:25 *1650:A2 0.000264282
24 *316:87 *1397:I 1.0415e-05
25 *341:12 *1653:B2 0.00015145
26 *351:26 *1397:I 6.88651e-06
*RES
1 *1856:Q *1653:B2 10.89 
2 *1653:B2 *456:24 11.43 
3 *456:24 *1397:I 11.88 
4 *456:24 *1650:A2 12.78 
*END

*D_NET *457 0.00290149
*CONN
*I *1651:A2 I *D gf180mcu_fd_sc_mcu7t5v0__nand2_1
*I *1409:I I *D gf180mcu_fd_sc_mcu7t5v0__clkinv_1
*I *1857:Q O *D gf180mcu_fd_sc_mcu7t5v0__dffq_1
*CAP
1 *1651:A2 0.00067023
2 *1409:I 0.000114439
3 *1857:Q 0
4 *457:4 0.000784669
5 *1409:I *475:18 5.09573e-05
6 *1651:A2 *1645:A1 4.55978e-05
7 *1651:A2 *1652:A2 6.24012e-05
8 *1651:A2 *461:25 4.65481e-05
9 *1651:A2 *475:18 1.39839e-05
10 *1651:A2 *475:68 0.000252046
11 *1648:B1 *1651:A2 6.76406e-05
12 *1652:A1 *1409:I 3.01487e-05
13 *1652:A1 *1651:A2 0.000124657
14 *1653:A1 *1409:I 9.84908e-05
15 *1654:A4 *1651:A2 0
16 *1655:A1 *1651:A2 0.000204168
17 *1655:A4 *1651:A2 0
18 *1660:A2 *1651:A2 4.91232e-05
19 *132:25 *1409:I 0.000286386
*RES
1 *1857:Q *457:4 4.5 
2 *457:4 *1409:I 5.76 
3 *457:4 *1651:A2 20.16 
*END

*D_NET *458 0.00838341
*CONN
*I *1508:A2 I *D gf180mcu_fd_sc_mcu7t5v0__nor2_1
*I *1444:A2 I *D gf180mcu_fd_sc_mcu7t5v0__nand2_1
*I *1637:A1 I *D gf180mcu_fd_sc_mcu7t5v0__or2_1
*I *1636:A1 I *D gf180mcu_fd_sc_mcu7t5v0__nand2_1
*I *1858:Q O *D gf180mcu_fd_sc_mcu7t5v0__dffq_1
*CAP
1 *1508:A2 0
2 *1444:A2 0
3 *1637:A1 0
4 *1636:A1 0.000220182
5 *1858:Q 0.000427987
6 *458:22 0.000574606
7 *458:16 0.000449222
8 *458:10 0.000522785
9 *1636:A1 *1636:A2 3.01487e-05
10 *1636:A1 *1637:A2 0.000315923
11 *1636:A1 *1639:A2 6.551e-05
12 *1636:A1 *1677:A1 0.000320262
13 *1636:A1 *462:21 6.36148e-05
14 *458:10 *1800:A2 0.0012201
15 *458:10 *478:99 5.97457e-06
16 *458:16 *1518:A2 0.000676974
17 *458:16 *460:36 0.000210938
18 *458:16 *560:16 0.000298884
19 *458:16 *561:25 1.66988e-05
20 *458:22 *1639:A2 0
21 *458:22 *1677:A1 3.94564e-05
22 *458:22 *459:29 0.000739587
23 *458:22 *460:16 0.000426754
24 *458:22 *460:36 0.000445488
25 *458:22 *492:343 0
26 *458:22 *560:16 0.000179376
27 *1445:A2 *458:22 1.4382e-06
28 *1451:A1 *458:10 2.08301e-05
29 *1451:A2 *458:10 7.46964e-06
30 *1508:A1 *458:10 1.61174e-05
31 *1508:A1 *458:16 3.98088e-05
32 *1801:A2 *458:10 0.000499457
33 *1860:D *458:10 7.12056e-05
34 *329:8 *1636:A1 0.000476609
*RES
1 *1858:Q *458:10 9.09 
2 *458:10 *458:16 7.2 
3 *458:16 *458:22 9.36 
4 *458:22 *1636:A1 16.74 
5 *458:22 *1637:A1 4.5 
6 *458:16 *1444:A2 9 
7 *458:10 *1508:A2 4.5 
*END

*D_NET *459 0.0100586
*CONN
*I *1513:A2 I *D gf180mcu_fd_sc_mcu7t5v0__nor2_1
*I *1639:A1 I *D gf180mcu_fd_sc_mcu7t5v0__nand2_1
*I *1638:A1 I *D gf180mcu_fd_sc_mcu7t5v0__or2_1
*I *1447:A1 I *D gf180mcu_fd_sc_mcu7t5v0__oai21_1
*I *1859:Q O *D gf180mcu_fd_sc_mcu7t5v0__dffq_1
*CAP
1 *1513:A2 0.000167932
2 *1639:A1 0.000614109
3 *1638:A1 0
4 *1447:A1 0.000167534
5 *1859:Q 0.000155724
6 *459:29 0.000928616
7 *459:14 0.000574522
8 *459:10 0.000416136
9 *1447:A1 *1858:CLK 9.04462e-05
10 *1513:A2 *1518:A2 0.000100751
11 *1513:A2 *460:36 5.88831e-05
12 *1513:A2 *461:23 0.000259475
13 *1513:A2 *461:25 0.000226571
14 *1513:A2 *561:25 3.94291e-05
15 *1639:A1 *1639:A2 0.000836998
16 *459:10 *1857:CLK 2.65444e-06
17 *459:10 *478:77 4.83522e-05
18 *459:14 *1858:CLK 9.39061e-05
19 *459:14 *461:25 0.000200183
20 *459:29 *1639:A2 7.77106e-05
21 *459:29 *1677:A1 0.000154311
22 *459:29 *1858:CLK 0.000468574
23 *459:29 *460:16 0.000165741
24 *459:29 *462:21 0
25 *459:29 *492:343 9.99638e-05
26 *459:29 *560:16 0.000169917
27 *1452:A2 *1447:A1 0.000351196
28 *1642:A2 *1639:A1 2.77702e-05
29 *1656:B2 *1639:A1 0
30 *1659:A1 *1639:A1 0.00112394
31 *142:64 *459:14 0.000106629
32 *142:68 *459:10 0.000104986
33 *142:199 *1513:A2 1.18477e-05
34 *142:199 *459:14 0.000126457
35 *158:29 *1447:A1 0.000876715
36 *160:49 *1447:A1 1.0415e-05
37 *161:25 *459:10 0.000457975
38 *331:10 *1639:A1 2.65444e-06
39 *458:22 *459:29 0.000739587
*RES
1 *1859:Q *459:10 10.98 
2 *459:10 *459:14 6.03 
3 *459:14 *1447:A1 7.29 
4 *459:14 *459:29 14.04 
5 *459:29 *1638:A1 4.5 
6 *459:29 *1639:A1 19.98 
7 *459:10 *1513:A2 11.79 
*END

*D_NET *460 0.0138099
*CONN
*I *1518:A2 I *D gf180mcu_fd_sc_mcu7t5v0__nand2_1
*I *1449:A2 I *D gf180mcu_fd_sc_mcu7t5v0__nand2_1
*I *1644:A1 I *D gf180mcu_fd_sc_mcu7t5v0__nand2_1
*I *1643:A1 I *D gf180mcu_fd_sc_mcu7t5v0__or2_1
*I *1860:Q O *D gf180mcu_fd_sc_mcu7t5v0__dffq_1
*CAP
1 *1518:A2 0.000546201
2 *1449:A2 4.88343e-05
3 *1644:A1 9.70244e-05
4 *1643:A1 0
5 *1860:Q 0.000130652
6 *460:36 0.000678529
7 *460:16 0.000332311
8 *460:8 0.000449433
9 *1518:A2 *478:99 1.13195e-05
10 *1518:A2 *561:25 0.00195322
11 *1644:A1 *1643:A2 0.000309993
12 *1644:A1 *469:23 4.82122e-05
13 *1644:A1 *469:27 0.000211041
14 *1644:A1 *519:12 4.01309e-05
15 *460:16 *1639:A2 0.00028126
16 *460:16 *467:8 0.00144529
17 *460:16 *469:27 9.04462e-05
18 *460:16 *492:343 0.00277516
19 *460:16 *519:12 1.74449e-05
20 *1446:A2 *460:8 2.22704e-05
21 *1450:A2 *460:8 0.000108527
22 *1453:A1 *1518:A2 0.000605868
23 *1503:A1 *1518:A2 0.000116914
24 *1508:A1 *1518:A2 6.1883e-05
25 *1513:A1 *1518:A2 2.09122e-05
26 *1513:A2 *1518:A2 0.000100751
27 *1513:A2 *460:36 5.88831e-05
28 *1516:A1 *1518:A2 6.54322e-05
29 *1793:A2 *460:8 0.000606467
30 *142:64 *460:16 0.000150922
31 *142:199 *460:8 2.90324e-05
32 *142:199 *460:16 1.18477e-05
33 *142:199 *460:36 6.67701e-05
34 *159:12 *1518:A2 0.000382352
35 *161:25 *1449:A2 8.68281e-06
36 *458:16 *1518:A2 0.000676974
37 *458:16 *460:36 0.000210938
38 *458:22 *460:16 0.000426754
39 *458:22 *460:36 0.000445488
40 *459:29 *460:16 0.000165741
*RES
1 *1860:Q *460:8 10.71 
2 *460:8 *460:16 13.41 
3 *460:16 *1643:A1 4.5 
4 *460:16 *1644:A1 14.94 
5 *460:8 *460:36 1.71 
6 *460:36 *1449:A2 9.27 
7 *460:36 *1518:A2 18.72 
*END

*D_NET *461 0.00891244
*CONN
*I *1452:A1 I *D gf180mcu_fd_sc_mcu7t5v0__oai21_1
*I *1646:A1 I *D gf180mcu_fd_sc_mcu7t5v0__nand2_1
*I *1645:A1 I *D gf180mcu_fd_sc_mcu7t5v0__or2_1
*I *1524:A2 I *D gf180mcu_fd_sc_mcu7t5v0__nor2_1
*I *1861:Q O *D gf180mcu_fd_sc_mcu7t5v0__dffq_1
*CAP
1 *1452:A1 0
2 *1646:A1 0
3 *1645:A1 8.37812e-05
4 *1524:A2 0
5 *1861:Q 0.00014945
6 *461:25 0.000472026
7 *461:23 0.000681553
8 *461:12 0.000442758
9 *461:12 *478:71 1.34912e-05
10 *461:12 *518:143 0.000496785
11 *461:12 *562:81 0
12 *461:23 *478:77 4.0103e-05
13 *461:23 *518:143 0.000284981
14 *461:23 *518:151 0.00015651
15 *461:23 *561:25 3.42213e-05
16 *461:23 *563:32 0.000219114
17 *461:25 *1858:CLK 0.00124719
18 *461:25 *478:77 1.23523e-05
19 *1452:A2 *461:25 0.00105005
20 *1513:A2 *461:23 0.000259475
21 *1513:A2 *461:25 0.000226571
22 *1516:A1 *461:23 9.30373e-05
23 *1527:A1 *461:12 4.34691e-05
24 *1647:A2 *1645:A1 0.000255088
25 *1648:B1 *1645:A1 0.000400853
26 *1651:A2 *1645:A1 4.55978e-05
27 *1651:A2 *461:25 4.65481e-05
28 *1659:A1 *1645:A1 0.000310002
29 *1659:A1 *461:25 0.000473735
30 *1793:A2 *461:12 3.08806e-06
31 *142:64 *461:25 7.38282e-05
32 *180:21 *461:23 9.3226e-06
33 *180:25 *461:23 5.67977e-05
34 *338:12 *1645:A1 0.000185741
35 *434:47 *461:12 0.00050482
36 *434:47 *461:23 0.000249469
37 *434:60 *461:23 9.04462e-05
38 *459:14 *461:25 0.000200183
*RES
1 *1861:Q *461:12 15.66 
2 *461:12 *1524:A2 4.5 
3 *461:12 *461:23 8.64 
4 *461:23 *461:25 7.65 
5 *461:25 *1645:A1 11.43 
6 *461:25 *1646:A1 9 
7 *461:23 *1452:A1 9 
*END

*D_NET *462 0.0112486
*CONN
*I *1455:A2 I *D gf180mcu_fd_sc_mcu7t5v0__nand2_1
*I *1641:A1 I *D gf180mcu_fd_sc_mcu7t5v0__nand2_1
*I *1640:A1 I *D gf180mcu_fd_sc_mcu7t5v0__or2_1
*I *1529:A2 I *D gf180mcu_fd_sc_mcu7t5v0__nor2_1
*I *1862:Q O *D gf180mcu_fd_sc_mcu7t5v0__dffq_1
*CAP
1 *1455:A2 2.27883e-05
2 *1641:A1 0.00021018
3 *1640:A1 0.000331648
4 *1529:A2 0.000498435
5 *1862:Q 8.84814e-05
6 *462:21 0.00119385
7 *462:19 0.00135009
8 *462:6 0.0012622
9 *1455:A2 *1858:CLK 9.90941e-05
10 *1455:A2 *492:343 0.00023506
11 *1529:A2 *1679:I1 0
12 *1529:A2 *1814:CLK 4.14905e-05
13 *1529:A2 *478:131 0.000115019
14 *1529:A2 *563:22 0
15 *1640:A1 *1640:A2 0.000103489
16 *1640:A1 *1759:I0 3.68874e-05
17 *1640:A1 *1759:S 4.34597e-05
18 *1640:A1 *1933:I 4.16618e-06
19 *1641:A1 *1639:A2 1.6712e-05
20 *1641:A1 *1641:A2 0.000183662
21 *1641:A1 *470:14 9.47352e-05
22 *462:6 *1814:CLK 3.23918e-05
23 *462:19 *560:16 0
24 *462:19 *562:39 0.00052094
25 *462:21 *1677:A1 6.87519e-05
26 *462:21 *560:16 0
27 *1445:A2 *462:19 2.3312e-06
28 *1445:A2 *462:21 1.23e-05
29 *1446:A3 *462:19 9.94441e-06
30 *1446:A3 *462:21 4.91131e-05
31 *1455:A1 *462:19 1.97308e-05
32 *1456:A2 *462:19 2.93809e-06
33 *1457:A2 *462:19 0.000588188
34 *1636:A1 *462:21 6.36148e-05
35 *1642:C1 *1641:A1 0.000215362
36 *1656:B1 *462:21 4.10895e-05
37 *1657:A2 *1641:A1 0.000726638
38 *1657:B1 *1640:A1 5.42545e-05
39 *1658:A1 *1640:A1 1.86249e-05
40 *1658:A1 *1641:A1 0.000218465
41 *1658:A1 *462:21 0.000261521
42 *1795:A2 *1529:A2 4.68825e-05
43 *1795:A2 *462:6 6.35301e-05
44 *1795:A2 *462:19 0.000234452
45 *1832:D *1640:A1 4.15563e-05
46 *1850:D *462:19 0.00149704
47 *333:6 *1641:A1 0.000477353
48 *335:10 *1640:A1 5.01255e-05
49 *336:10 *1640:A1 0
50 *459:29 *462:21 0
*RES
1 *1862:Q *462:6 5.13 
2 *462:6 *1529:A2 7.74 
3 *462:6 *462:19 14.31 
4 *462:19 *462:21 4.95 
5 *462:21 *1640:A1 11.88 
6 *462:21 *1641:A1 12.78 
7 *462:19 *1455:A2 9.63 
*END

*D_NET *463 0.0155884
*CONN
*I *1751:A1 I *D gf180mcu_fd_sc_mcu7t5v0__nand4_1
*I *1687:A3 I *D gf180mcu_fd_sc_mcu7t5v0__nor3_1
*I *1750:I0 I *D gf180mcu_fd_sc_mcu7t5v0__mux2_2
*I *1618:A2 I *D gf180mcu_fd_sc_mcu7t5v0__nand2_1
*I *1825:Q O *D gf180mcu_fd_sc_mcu7t5v0__dffq_1
*CAP
1 *1751:A1 0.00208146
2 *1687:A3 0.00267279
3 *1750:I0 0
4 *1618:A2 0.000205179
5 *1825:Q 6.08976e-05
6 *463:21 0.000989739
7 *463:8 0.00066449
8 *1618:A2 *1618:A1 0.000302466
9 *1751:A1 *1686:A3 0.000294431
10 *1751:A1 *1741:A1 3.97987e-05
11 *1751:A1 *1823:CLK 0.000416084
12 *1751:A1 *487:41 0.000494158
13 *1751:A1 *488:37 8.111e-05
14 *1751:A1 *488:39 8.1718e-05
15 *1751:A1 *567:77 2.81008e-05
16 *1669:A1 *1687:A3 4.78286e-05
17 *1688:A4 *1751:A1 5.28485e-05
18 *1692:A3 *1751:A1 8.69576e-05
19 *1702:A3 *1751:A1 0.000110439
20 *1709:A2 *1751:A1 3.48255e-05
21 *1715:A3 *1687:A3 0.000786308
22 *1717:C *1687:A3 0.000120172
23 *1718:A1 *1751:A1 0.000119182
24 *1718:C *1687:A3 0.000153289
25 *1742:A3 *1751:A1 3.92905e-06
26 *1744:A2 *1751:A1 0.000182034
27 *1745:B *1751:A1 1.18477e-05
28 *1747:A2 *1751:A1 0.000294149
29 *1748:A1 *1751:A1 0.000165831
30 *1753:A3 *1751:A1 0.000152367
31 *1753:A4 *1751:A1 9.04462e-05
32 *1825:D *1618:A2 0.00021972
33 *1825:D *463:21 0.000323577
34 *138:12 *1618:A2 3.22348e-05
35 *138:20 *1687:A3 1.23607e-05
36 *139:36 *463:8 2.38064e-05
37 *139:53 *463:21 0.000124476
38 *139:72 *1687:A3 2.16781e-05
39 *292:8 *1687:A3 3.61249e-05
40 *300:81 *1751:A1 2.76189e-05
41 *309:12 *1687:A3 3.61249e-05
42 *309:48 *1751:A1 3.29869e-06
43 *356:10 *1618:A2 0.000419213
44 *356:10 *1687:A3 3.26104e-05
45 *356:10 *463:21 0.000178896
46 *356:77 *1687:A3 1.23209e-05
47 *360:6 *1687:A3 2.57745e-05
48 *370:6 *1751:A1 5.96318e-05
49 *394:6 *463:8 2.87447e-05
50 *422:30 *1687:A3 6.76488e-05
51 *422:30 *1751:A1 0.00307768
*RES
1 *1825:Q *463:8 9.45 
2 *463:8 *1618:A2 11.52 
3 *463:8 *463:21 3.69 
4 *463:21 *1750:I0 9 
5 *463:21 *1687:A3 23.4 
6 *1687:A3 *1751:A1 48.15 
*END

*D_NET *464 0.00505079
*CONN
*I *1413:I I *D gf180mcu_fd_sc_mcu7t5v0__clkinv_1
*I *1935:I I *D gf180mcu_fd_sc_mcu7t5v0__dlyc_1
*I *1649:A2 I *D gf180mcu_fd_sc_mcu7t5v0__nand2_1
*I *1826:Q O *D gf180mcu_fd_sc_mcu7t5v0__dffq_1
*CAP
1 *1413:I 0.000130203
2 *1935:I 0.000242759
3 *1649:A2 0.000124151
4 *1826:Q 0
5 *464:4 0.000497112
6 *1413:I *1753:A1 2.14748e-05
7 *1413:I *465:14 3.36658e-05
8 *1649:A2 *1753:A1 0.000931858
9 *1649:A2 *465:14 0.000113719
10 *1935:I *488:127 0.0014591
11 *1650:A2 *1935:I 7.46964e-06
12 *1651:A1 *1935:I 2.49787e-05
13 *1653:A1 *1935:I 0.000536655
14 *1655:A2 *1935:I 2.38064e-05
15 *1752:A2 *1413:I 3.01487e-05
16 *137:14 *1649:A2 0.000696333
17 *341:12 *1413:I 0.000131469
18 *341:12 *1649:A2 4.58862e-05
*RES
1 *1826:Q *464:4 4.5 
2 *464:4 *1649:A2 7.83 
3 *464:4 *1935:I 17.82 
4 *464:4 *1413:I 5.76 
*END

*D_NET *465 0.00750446
*CONN
*I *1755:I1 I *D gf180mcu_fd_sc_mcu7t5v0__mux2_2
*I *1652:A2 I *D gf180mcu_fd_sc_mcu7t5v0__nand2_1
*I *1653:A2 I *D gf180mcu_fd_sc_mcu7t5v0__aoi22_1
*I *1414:I I *D gf180mcu_fd_sc_mcu7t5v0__clkinv_1
*I *1827:Q O *D gf180mcu_fd_sc_mcu7t5v0__dffq_1
*CAP
1 *1755:I1 0.00041802
2 *1652:A2 0.000410673
3 *1653:A2 6.72429e-05
4 *1414:I 0.000150983
5 *1827:Q 7.53946e-05
6 *465:34 0.00104976
7 *465:14 0.00058889
8 *465:8 0.000667127
9 *1414:I *1753:A1 0.000499457
10 *1652:A2 *475:24 0
11 *1755:I1 *466:6 0
12 *1755:I1 *466:23 0
13 *1755:I1 *519:12 0
14 *465:14 *1753:A1 0
15 *1413:I *465:14 3.36658e-05
16 *1647:A1 *1755:I1 4.78178e-05
17 *1647:A2 *1755:I1 2.90241e-05
18 *1649:A1 *1414:I 0.000223407
19 *1649:A2 *465:14 0.000113719
20 *1651:A1 *1653:A2 3.94291e-05
21 *1651:A1 *465:14 3.72498e-05
22 *1651:A2 *1652:A2 6.24012e-05
23 *1654:A4 *1652:A2 0.000106774
24 *1655:A1 *1652:A2 0.000409707
25 *1655:A3 *1652:A2 0.000787434
26 *1655:A4 *1652:A2 7.55765e-06
27 *1655:A4 *465:34 0
28 *1660:A1 *1414:I 0
29 *1660:A2 *1652:A2 0.000310002
30 *1660:B *1414:I 7.191e-07
31 *1752:A2 *1652:A2 0
32 *1752:A2 *465:14 1.56779e-05
33 *1752:A2 *465:34 8.68281e-06
34 *1754:A2 *465:14 5.32494e-05
35 *1755:S *1755:I1 9.86752e-05
36 *1827:D *465:8 3.01487e-05
37 *1827:D *465:14 0.000159211
38 *137:14 *1414:I 4.72994e-05
39 *137:14 *465:14 0.000227025
40 *341:12 *1414:I 0.000507492
41 *351:26 *1652:A2 1.4382e-06
42 *422:56 *1755:I1 6.3606e-05
43 *422:56 *465:8 2.08301e-05
44 *422:56 *465:14 2.32439e-05
45 *422:56 *465:34 0.000111418
*RES
1 *1827:Q *465:8 5.22 
2 *465:8 *465:14 7.92 
3 *465:14 *1414:I 11.43 
4 *465:14 *1653:A2 9.45 
5 *465:8 *465:34 1.71 
6 *465:34 *1652:A2 19.08 
7 *465:34 *1755:I1 7.56 
*END

*D_NET *466 0.0109533
*CONN
*I *1756:I1 I *D gf180mcu_fd_sc_mcu7t5v0__mux2_2
*I *1637:A2 I *D gf180mcu_fd_sc_mcu7t5v0__or2_1
*I *1636:A2 I *D gf180mcu_fd_sc_mcu7t5v0__nand2_1
*I *1755:I0 I *D gf180mcu_fd_sc_mcu7t5v0__mux2_2
*I *1828:Q O *D gf180mcu_fd_sc_mcu7t5v0__dffq_1
*CAP
1 *1756:I1 0.000613352
2 *1637:A2 0.000298414
3 *1636:A2 4.25636e-05
4 *1755:I0 9.49441e-05
5 *1828:Q 7.95201e-05
6 *466:27 0.000949291
7 *466:23 0.00172782
8 *466:6 0.000680619
9 *1636:A2 *1639:A2 1.39839e-05
10 *1637:A2 *492:343 0
11 *1756:I1 *1757:S 0.00022328
12 *466:6 *1832:CLK 0.000213046
13 *466:23 *1757:S 0.000774456
14 *466:23 *1758:I0 0.000112253
15 *466:23 *1758:S 0.000499457
16 *466:23 *1832:CLK 0.000204889
17 *466:27 *1933:I 1.50774e-05
18 *466:27 *470:10 0.000141521
19 *1446:A3 *1637:A2 0
20 *1636:A1 *1636:A2 3.01487e-05
21 *1636:A1 *1637:A2 0.000315923
22 *1642:A2 *466:27 0.000126655
23 *1642:C2 *466:27 0.000114546
24 *1647:A1 *1755:I0 0.000382884
25 *1647:A2 *1755:I0 0.000455766
26 *1647:A2 *466:6 1.23607e-05
27 *1647:A2 *466:23 2.31089e-05
28 *1656:A1 *1636:A2 3.73774e-06
29 *1656:A1 *1637:A2 7.84041e-05
30 *1656:A2 *1637:A2 4.843e-05
31 *1656:A2 *466:27 6.2083e-06
32 *1656:B2 *1637:A2 0.000245096
33 *1656:B2 *466:27 0.000716461
34 *1657:A1 *466:27 9.06417e-05
35 *1755:I1 *466:6 0
36 *1755:I1 *466:23 0
37 *1828:D *1755:I0 9.0531e-06
38 *1828:D *466:6 0.000294431
39 *1832:D *466:27 0.00090332
40 *142:64 *1755:I0 4.24123e-05
41 *332:8 *466:27 0.000358474
42 *422:56 *1755:I0 0
43 *422:56 *466:6 1.07374e-05
*RES
1 *1828:Q *466:6 5.85 
2 *466:6 *1755:I0 15.21 
3 *466:6 *466:23 5.31 
4 *466:23 *466:27 12.51 
5 *466:27 *1636:A2 9.27 
6 *466:27 *1637:A2 11.88 
7 *466:23 *1756:I1 18.18 
*END

*D_NET *467 0.0109247
*CONN
*I *1756:I0 I *D gf180mcu_fd_sc_mcu7t5v0__mux2_2
*I *1757:I1 I *D gf180mcu_fd_sc_mcu7t5v0__mux2_2
*I *1639:A2 I *D gf180mcu_fd_sc_mcu7t5v0__nand2_1
*I *1638:A2 I *D gf180mcu_fd_sc_mcu7t5v0__or2_1
*I *1829:Q O *D gf180mcu_fd_sc_mcu7t5v0__dffq_1
*CAP
1 *1756:I0 0.000157267
2 *1757:I1 5.74829e-05
3 *1639:A2 0.000808096
4 *1638:A2 0
5 *1829:Q 0
6 *467:40 0.000698465
7 *467:8 0.00123527
8 *467:4 0.000910884
9 *1639:A2 *1677:A1 0.000100112
10 *1756:I0 *1756:S 0.000213046
11 *467:8 *1643:A2 6.45257e-05
12 *467:8 *468:30 0.000533492
13 *467:8 *492:343 0.001402
14 *467:40 *1756:S 1.61174e-05
15 *467:40 *1757:I0 8.52804e-05
16 *467:40 *1758:I1 0
17 *467:40 *1831:CLK 0.000215897
18 *467:40 *1832:CLK 0
19 *467:40 *468:19 0
20 *1636:A1 *1639:A2 6.551e-05
21 *1636:A2 *1639:A2 1.39839e-05
22 *1639:A1 *1639:A2 0.000836998
23 *1641:A1 *1639:A2 1.6712e-05
24 *1642:A1 *1639:A2 0.000164219
25 *1656:B2 *1639:A2 9.22066e-05
26 *1657:B1 *467:8 2.37543e-05
27 *1659:A1 *1639:A2 3.38463e-05
28 *1829:D *1756:I0 0
29 *1829:D *467:40 0
30 *1830:D *467:40 3.57187e-05
31 *1831:D *467:40 4.18699e-05
32 *142:10 *467:40 9.89629e-06
33 *329:8 *1639:A2 0.000102014
34 *331:10 *1639:A2 0.000283071
35 *333:6 *1639:A2 3.02306e-05
36 *336:10 *467:8 0.000872495
37 *458:22 *1639:A2 0
38 *459:29 *1639:A2 7.77106e-05
39 *460:16 *1639:A2 0.00028126
40 *460:16 *467:8 0.00144529
*RES
1 *1829:Q *467:4 4.5 
2 *467:4 *467:8 13.59 
3 *467:8 *1638:A2 9 
4 *467:8 *1639:A2 26.64 
5 *467:4 *467:40 4.05 
6 *467:40 *1757:I1 4.95 
7 *467:40 *1756:I0 6.03 
*END

*D_NET *468 0.0040699
*CONN
*I *1643:A2 I *D gf180mcu_fd_sc_mcu7t5v0__or2_1
*I *1644:A2 I *D gf180mcu_fd_sc_mcu7t5v0__nand2_1
*I *1758:I1 I *D gf180mcu_fd_sc_mcu7t5v0__mux2_2
*I *1757:I0 I *D gf180mcu_fd_sc_mcu7t5v0__mux2_2
*I *1830:Q O *D gf180mcu_fd_sc_mcu7t5v0__dffq_1
*CAP
1 *1643:A2 0.000115582
2 *1644:A2 0
3 *1758:I1 2.0598e-05
4 *1757:I0 0.000218398
5 *1830:Q 0
6 *468:30 0.000340107
7 *468:19 0.000453856
8 *468:4 0.000427132
9 *1643:A2 *469:23 8.53765e-06
10 *1643:A2 *469:27 9.04462e-05
11 *1757:I0 *1832:CLK 4.74114e-05
12 *1758:I1 *1832:CLK 9.84908e-05
13 *468:19 *1832:CLK 0.00084548
14 *468:30 *1758:I0 4.96395e-05
15 *468:30 *469:23 6.17613e-06
16 *468:30 *519:16 0
17 *1644:A1 *1643:A2 0.000309993
18 *1831:D *468:19 5.50498e-05
19 *336:10 *1643:A2 0.000299705
20 *467:8 *1643:A2 6.45257e-05
21 *467:8 *468:30 0.000533492
22 *467:40 *1757:I0 8.52804e-05
23 *467:40 *1758:I1 0
24 *467:40 *468:19 0
*RES
1 *1830:Q *468:4 4.5 
2 *468:4 *1757:I0 6.57 
3 *468:4 *468:19 2.7 
4 *468:19 *1758:I1 4.77 
5 *468:19 *468:30 7.47 
6 *468:30 *1644:A2 9 
7 *468:30 *1643:A2 10.62 
*END

*D_NET *469 0.00553542
*CONN
*I *1759:I1 I *D gf180mcu_fd_sc_mcu7t5v0__mux2_2
*I *1645:A2 I *D gf180mcu_fd_sc_mcu7t5v0__or2_1
*I *1646:A2 I *D gf180mcu_fd_sc_mcu7t5v0__nand2_1
*I *1758:I0 I *D gf180mcu_fd_sc_mcu7t5v0__mux2_2
*I *1831:Q O *D gf180mcu_fd_sc_mcu7t5v0__dffq_1
*CAP
1 *1759:I1 0
2 *1645:A2 0
3 *1646:A2 8.01471e-05
4 *1758:I0 0.000229365
5 *1831:Q 4.71217e-05
6 *469:27 0.000418716
7 *469:23 0.000426423
8 *469:8 0.00036434
9 *1758:I0 *519:16 0.000604092
10 *469:8 *519:12 1.39839e-05
11 *469:23 *1759:S 0.000270982
12 *469:23 *519:16 0.00023968
13 *469:27 *1759:S 3.97987e-05
14 *469:27 *519:12 6.51436e-05
15 *1643:A2 *469:23 8.53765e-06
16 *1643:A2 *469:27 9.04462e-05
17 *1644:A1 *469:23 4.82122e-05
18 *1644:A1 *469:27 0.000211041
19 *1647:A2 *1646:A2 0.000171254
20 *1648:A1 *469:27 0
21 *1651:A1 *469:27 0
22 *1657:B2 *469:27 0
23 *1660:A2 *1646:A2 0.000150744
24 *1832:D *469:27 4.6613e-06
25 *142:64 *1646:A2 0.00100799
26 *335:10 *469:27 3.99345e-05
27 *338:12 *1646:A2 0.000744294
28 *460:16 *469:27 9.04462e-05
29 *466:23 *1758:I0 0.000112253
30 *468:30 *1758:I0 4.96395e-05
31 *468:30 *469:23 6.17613e-06
*RES
1 *1831:Q *469:8 9.27 
2 *469:8 *1758:I0 11.7 
3 *469:8 *469:23 5.85 
4 *469:23 *469:27 2.52 
5 *469:27 *1646:A2 16.56 
6 *469:27 *1645:A2 4.5 
7 *469:23 *1759:I1 4.5 
*END

*D_NET *470 0.00427486
*CONN
*I *1641:A2 I *D gf180mcu_fd_sc_mcu7t5v0__nand2_1
*I *1933:I I *D gf180mcu_fd_sc_mcu7t5v0__dlyc_1
*I *1640:A2 I *D gf180mcu_fd_sc_mcu7t5v0__or2_1
*I *1832:Q O *D gf180mcu_fd_sc_mcu7t5v0__dffq_1
*CAP
1 *1641:A2 0.000128747
2 *1933:I 9.18815e-05
3 *1640:A2 0.0001609
4 *1832:Q 0.00010147
5 *470:14 0.000437746
6 *470:10 0.000415182
7 *1640:A2 *1759:S 0
8 *1640:A1 *1640:A2 0.000103489
9 *1640:A1 *1933:I 4.16618e-06
10 *1641:A1 *1641:A2 0.000183662
11 *1641:A1 *470:14 9.47352e-05
12 *1642:A2 *1933:I 0.000234541
13 *1642:C1 *470:14 0.000215362
14 *1642:C2 *470:10 0.000101615
15 *1656:B1 *1933:I 0.000299724
16 *1657:A1 *1933:I 0.000336156
17 *1658:A1 *1933:I 0.000163293
18 *1832:D *1640:A2 4.83522e-05
19 *332:8 *1640:A2 0.000895621
20 *332:8 *1933:I 0.000101624
21 *466:27 *1933:I 1.50774e-05
22 *466:27 *470:10 0.000141521
*RES
1 *1832:Q *470:10 14.85 
2 *470:10 *470:14 5.85 
3 *470:14 *1640:A2 11.52 
4 *470:14 *1933:I 11.07 
5 *470:10 *1641:A2 5.67 
*END

*D_NET *471 0.0320626
*CONN
*I *1893:I I *D gf180mcu_fd_sc_mcu7t5v0__clkbuf_16
*I *1900:I I *D gf180mcu_fd_sc_mcu7t5v0__clkbuf_16
*I *1895:I I *D gf180mcu_fd_sc_mcu7t5v0__clkbuf_16
*I *1898:I I *D gf180mcu_fd_sc_mcu7t5v0__clkbuf_16
*I *1897:I I *D gf180mcu_fd_sc_mcu7t5v0__clkbuf_16
*I *1894:I I *D gf180mcu_fd_sc_mcu7t5v0__clkbuf_16
*I *1899:I I *D gf180mcu_fd_sc_mcu7t5v0__clkbuf_16
*I *1896:I I *D gf180mcu_fd_sc_mcu7t5v0__clkbuf_16
*I *1892:Z O *D gf180mcu_fd_sc_mcu7t5v0__clkbuf_16
*CAP
1 *1893:I 0.00147874
2 *1900:I 0.00043109
3 *1895:I 0.000489988
4 *1898:I 0.000567712
5 *1897:I 0.00105865
6 *1894:I 0.00231662
7 *1899:I 0.00260106
8 *1896:I 0.00209927
9 *1892:Z 0.00242422
10 *471:82 0.00213989
11 *471:64 0.00266753
12 *471:15 0.00488734
13 *1893:I *1697:I1 0
14 *1893:I *1698:B 0
15 *1893:I *1930:I 9.00823e-05
16 *1897:I *1560:A4 0
17 *1897:I *504:33 0
18 *1898:I *1482:A1 0.000108187
19 *1898:I *1581:A2 0.000104229
20 *1898:I *504:33 9.06915e-05
21 *1899:I *1424:I 1.58072e-05
22 *1899:I *1520:A1 4.38724e-05
23 *1899:I *1574:A2 0.000165461
24 *1899:I *1632:I1 0.00017206
25 *1899:I *1865:CLK 3.87771e-05
26 *1899:I *478:12 0.000102606
27 *1899:I *520:26 0.000254207
28 *1899:I *564:16 3.18466e-05
29 *1900:I *1514:B2 5.52717e-05
30 *1900:I *1569:A2 0.000311065
31 *1900:I *1870:CLK 0
32 *1900:I *1966:I 0.000112985
33 *471:64 *581:16 0.00014603
34 *471:82 *1482:A1 9.34006e-05
35 DAT_O[7] *1900:I 4.59336e-05
36 *1397:I *1896:I 9.47964e-05
37 *1430:A2 *1893:I 2.75448e-05
38 *1430:A4 *1893:I 7.54934e-05
39 *1475:A1 *1893:I 0.000231035
40 *1475:A2 *1893:I 0.000128059
41 *1475:A3 *1893:I 0
42 *1476:A2 *1894:I 0
43 *1476:A2 *471:64 0
44 *1482:B *471:82 9.34988e-05
45 *1492:A1 *471:82 0
46 *1498:A1 *1896:I 0
47 *1506:A2 *1899:I 0
48 *1511:A1 *1899:I 7.18212e-05
49 *1516:A2 *1900:I 8.10471e-05
50 *1518:A1 *1896:I 2.26729e-06
51 *1518:A1 *1899:I 4.41083e-05
52 *1519:A1 *1899:I 0
53 *1520:C *1899:I 0.000173279
54 *1528:I0 *1899:I 4.83522e-05
55 *1528:S *1899:I 4.83522e-05
56 *1535:A1 *1898:I 5.5983e-05
57 *1536:A1 *471:82 3.95764e-05
58 *1542:A1 *1893:I 1.36825e-05
59 *1546:A1 *1893:I 8.57965e-05
60 *1546:A2 *1893:I 2.01192e-05
61 *1547:A1 *1893:I 0.00012687
62 *1587:A2 *471:82 0.000107376
63 *1649:A1 *1896:I 0
64 *1650:A2 *1896:I 9.35685e-05
65 *1651:A1 *1895:I 8.7104e-05
66 *1653:A1 *1896:I 0
67 *1653:B1 *1895:I 3.75219e-06
68 *1653:B2 *1895:I 5.38916e-06
69 *1654:A3 *1895:I 2.01456e-05
70 *1654:A4 *1895:I 0.000146661
71 *1659:A3 *1895:I 0.000134095
72 *1660:A1 *1895:I 0.000202039
73 *1660:A2 *1896:I 0.000101407
74 *1678:A1 *1896:I 0
75 *1805:C *1896:I 0
76 *1856:D *1896:I 0
77 *1870:D *1900:I 0.000177821
78 *120:19 *1896:I 0
79 *131:12 *1896:I 0
80 *131:44 *471:15 0.00146313
81 *141:129 *1899:I 9.2594e-05
82 *152:31 *471:82 1.1941e-06
83 *152:52 *471:15 7.74517e-05
84 *154:54 *471:15 0.000132049
85 *156:23 *471:82 5.33919e-05
86 *157:27 *1898:I 4.19981e-05
87 *157:27 *471:82 0.000142501
88 *157:73 *471:15 5.26231e-05
89 *172:10 *1893:I 6.63171e-05
90 *172:25 *1893:I 6.02114e-05
91 *176:20 *471:15 0
92 *179:21 *1893:I 1.77525e-05
93 *179:31 *1893:I 7.15696e-05
94 *193:29 *471:82 0.00023634
95 *193:35 *1894:I 0.000135539
96 *193:137 *1898:I 2.54706e-05
97 *195:14 *471:82 0.00051685
98 *241:14 *1898:I 7.79185e-06
99 *241:14 *471:82 4.24298e-05
100 *241:49 *1898:I 1.69954e-05
101 *241:64 *1898:I 2.20164e-05
102 *243:8 *1894:I 0.000144283
103 *244:10 *1894:I 6.29822e-05
104 *248:18 *1893:I 3.9698e-05
105 *341:12 *1895:I 0
106 *447:76 *1893:I 0.000377142
107 *448:23 *1893:I 0.000101401
108 *448:29 *1893:I 0.000147043
109 *448:71 *1893:I 0.000164387
110 *449:40 *1893:I 3.77239e-05
111 *456:24 *1896:I 2.60252e-05
*RES
1 *1892:Z *471:15 27.54 
2 *471:15 *1896:I 19.44 
3 *471:15 *1899:I 37.1945 
4 *1892:Z *471:64 21.33 
5 *471:64 *1894:I 19.8 
6 *471:64 *471:82 10.35 
7 *471:82 *1897:I 24.39 
8 *471:82 *1898:I 12.87 
9 *1896:I *1895:I 12.87 
10 *1899:I *1900:I 22.5 
11 *1894:I *1893:I 30.87 
*END

*D_NET *472 0.0153572
*CONN
*I *1816:CLK I *D gf180mcu_fd_sc_mcu7t5v0__dffq_1
*I *1901:I I *D gf180mcu_fd_sc_mcu7t5v0__inv_4
*I *1890:CLK I *D gf180mcu_fd_sc_mcu7t5v0__dffq_1
*I *1825:CLK I *D gf180mcu_fd_sc_mcu7t5v0__dffq_1
*I *1834:CLK I *D gf180mcu_fd_sc_mcu7t5v0__dffq_1
*I *1819:CLK I *D gf180mcu_fd_sc_mcu7t5v0__dffq_1
*I *1889:CLK I *D gf180mcu_fd_sc_mcu7t5v0__dffq_1
*I *1833:CLK I *D gf180mcu_fd_sc_mcu7t5v0__dffq_1
*I *1820:CLK I *D gf180mcu_fd_sc_mcu7t5v0__dffq_1
*I *1893:Z O *D gf180mcu_fd_sc_mcu7t5v0__clkbuf_16
*CAP
1 *1816:CLK 0.00019558
2 *1901:I 8.78806e-05
3 *1890:CLK 0.000286079
4 *1825:CLK 0.000396781
5 *1834:CLK 0
6 *1819:CLK 0
7 *1889:CLK 0.000587175
8 *1833:CLK 0.000633477
9 *1820:CLK 9.76157e-05
10 *1893:Z 0.00019558
11 *472:60 0.000596406
12 *472:44 0.00078641
13 *472:42 0.000629604
14 *472:38 0.000977556
15 *472:14 0.000953715
16 *472:12 0.00120855
17 *472:4 0.000613073
18 *1825:CLK *485:43 0
19 *1833:CLK *1723:A2 0
20 *1833:CLK *484:14 0.00016052
21 *1889:CLK *1404:I 1.70736e-05
22 *1889:CLK *1889:D 0
23 *1890:CLK *1404:I 1.51153e-05
24 *1890:CLK *1760:A2 0
25 *1890:CLK *1889:D 0.000575844
26 *472:12 *1723:A2 5.25e-05
27 *472:12 *486:103 0.000706192
28 *472:38 *1760:A2 0.00107594
29 *472:38 *1761:A2 0.000145765
30 *1698:A2 *1816:CLK 3.12451e-05
31 *1716:A1 *472:38 0.000215083
32 *1716:A2 *472:12 8.09223e-06
33 *1716:A2 *472:14 0
34 *1717:C *1901:I 6.89669e-05
35 *1718:C *1901:I 0.000425752
36 *1719:A1 *472:12 9.39884e-05
37 *1719:A2 *472:12 1.7707e-05
38 *1719:B *472:12 6.5247e-05
39 *1721:B *1816:CLK 0.000518088
40 *1722:A2 *1816:CLK 0.000360642
41 *1722:B *472:12 3.12999e-05
42 *1724:A2 *1833:CLK 8.79561e-06
43 *1724:A2 *472:12 3.73774e-06
44 *1724:A2 *472:14 6.97894e-05
45 *1724:A2 *472:38 0
46 *1760:A1 *472:38 0
47 *1819:D *472:42 0
48 *1820:D *472:38 0
49 *1834:D *1890:CLK 3.01487e-05
50 *1834:D *472:60 0
51 *1939:I *1889:CLK 0.000164053
52 *127:14 *1889:CLK 0
53 *127:14 *1890:CLK 0.000612112
54 *139:53 *472:12 8.43025e-06
55 *139:72 *472:12 0.000444199
56 *317:29 *472:12 0.000662855
57 *359:10 *1816:CLK 3.24299e-05
58 *393:8 *472:12 0.000428433
59 *394:6 *472:12 6.16625e-05
*RES
1 *1893:Z *472:4 4.5 
2 *472:4 *472:12 14.94 
3 *472:12 *472:14 1.53 
4 *472:14 *1820:CLK 5.13 
5 *472:14 *1833:CLK 8.28 
6 *472:12 *472:38 8.91 
7 *472:38 *472:42 6.21 
8 *472:42 *472:44 1.53 
9 *472:44 *1889:CLK 8.64 
10 *472:44 *1819:CLK 4.5 
11 *472:42 *472:60 1.17 
12 *472:60 *1834:CLK 4.5 
13 *472:60 *1825:CLK 7.11 
14 *472:38 *1890:CLK 13.05 
15 *472:4 *1901:I 5.67 
16 *1893:Z *1816:CLK 11.7 
*END

*D_NET *473 0.0207287
*CONN
*I *1873:CLK I *D gf180mcu_fd_sc_mcu7t5v0__dffq_1
*I *1871:CLK I *D gf180mcu_fd_sc_mcu7t5v0__dffq_1
*I *1872:CLK I *D gf180mcu_fd_sc_mcu7t5v0__dffq_1
*I *1817:CLK I *D gf180mcu_fd_sc_mcu7t5v0__dffq_1
*I *1836:CLK I *D gf180mcu_fd_sc_mcu7t5v0__dffq_1
*I *1884:CLK I *D gf180mcu_fd_sc_mcu7t5v0__dffq_1
*I *1807:CLK I *D gf180mcu_fd_sc_mcu7t5v0__dffq_1
*I *1879:CLK I *D gf180mcu_fd_sc_mcu7t5v0__dffq_1
*I *1880:CLK I *D gf180mcu_fd_sc_mcu7t5v0__dffq_1
*I *1815:CLK I *D gf180mcu_fd_sc_mcu7t5v0__dffq_1
*I *1902:I I *D gf180mcu_fd_sc_mcu7t5v0__inv_2
*I *1818:CLK I *D gf180mcu_fd_sc_mcu7t5v0__dffq_1
*I *1894:Z O *D gf180mcu_fd_sc_mcu7t5v0__clkbuf_16
*CAP
1 *1873:CLK 3.08292e-05
2 *1871:CLK 0.000278866
3 *1872:CLK 0
4 *1817:CLK 0.000584014
5 *1836:CLK 0
6 *1884:CLK 0.00074758
7 *1807:CLK 0.000340973
8 *1879:CLK 0
9 *1880:CLK 0
10 *1815:CLK 0.000209229
11 *1902:I 0
12 *1818:CLK 0.000448315
13 *1894:Z 0.000967769
14 *473:120 0.000490894
15 *473:102 0.000922654
16 *473:98 0.00107837
17 *473:94 0.00144583
18 *473:61 0.00116225
19 *473:52 0.000342564
20 *473:45 0.000518211
21 *473:32 0.000824866
22 *473:21 0.000438412
23 *473:6 0.000600909
24 *1815:CLK *1695:I1 0
25 *1817:CLK *1699:A1 0.000144257
26 *1817:CLK *484:46 1.06178e-05
27 *1817:CLK *484:71 2.93776e-05
28 *1818:CLK *556:25 0.000143061
29 *1818:CLK *565:23 9.92058e-05
30 *1884:CLK *1585:A2 5.79792e-06
31 *1884:CLK *1883:CLK 0.000131764
32 *1884:CLK *1913:I 0
33 *473:21 *556:25 0.000101505
34 *473:21 *565:23 2.86087e-05
35 *473:32 *1695:I1 0
36 *473:32 *492:120 8.81006e-05
37 *473:32 *556:25 9.84776e-05
38 *473:45 *492:120 0.000133728
39 *473:102 *484:52 0
40 *1430:A1 *473:94 3.98088e-05
41 *1430:A2 *473:94 1.77471e-05
42 *1473:A1 *473:94 0.000137053
43 *1475:A2 *473:94 0.00123251
44 *1475:A3 *473:94 0.00089507
45 *1475:A4 *473:94 0.000314664
46 *1543:A2 *473:94 1.39659e-05
47 *1548:A2 *473:98 0.000393144
48 *1549:A1 *473:98 0.000238419
49 *1549:B2 *473:21 0.000296565
50 *1549:B2 *473:32 0.000958039
51 *1549:B2 *473:45 0
52 *1552:A2 *473:98 0
53 *1585:A1 *1884:CLK 9.04462e-05
54 *1596:A1 *1817:CLK 8.58946e-05
55 *1599:A2 *1817:CLK 4.62218e-05
56 *1672:A1 *1884:CLK 0.000518371
57 *1672:B *1807:CLK 3.98088e-05
58 *1695:I0 *1815:CLK 4.34597e-05
59 *1699:A2 *1817:CLK 9.12635e-05
60 *1701:A1 *1818:CLK 0
61 *1701:B *1818:CLK 2.77926e-05
62 *1763:A1 *1817:CLK 0
63 *1817:D *1817:CLK 3.33483e-05
64 *1871:D *1871:CLK 0
65 *1871:D *473:120 0
66 *1872:D *473:120 0
67 *1879:D *473:45 0
68 *1879:D *473:52 0
69 *1884:D *1884:CLK 3.3686e-05
70 *128:6 *473:94 0
71 *139:103 *1807:CLK 6.39097e-05
72 *150:8 *473:94 1.91951e-05
73 *150:19 *473:94 5.30751e-05
74 *187:6 *473:94 3.46245e-05
75 *189:10 *473:94 4.74921e-05
76 *244:10 *473:94 6.31783e-05
77 *250:30 *473:98 0
78 *253:20 *473:98 0.000528649
79 *288:12 *1817:CLK 4.59142e-05
80 *291:14 *1817:CLK 4.80772e-05
81 *316:97 *1807:CLK 0.000169524
82 *356:42 *1807:CLK 2.05328e-05
83 *356:55 *1807:CLK 3.28992e-05
84 *356:55 *473:61 0.00035741
85 *359:40 *1815:CLK 1.70787e-05
86 *359:40 *473:45 0.000265822
87 *359:40 *473:52 0.000256778
88 *359:40 *473:61 7.69936e-06
89 *359:53 *1807:CLK 9.2838e-05
90 *361:30 *1807:CLK 0
91 *361:30 *1884:CLK 0
92 *361:30 *473:52 7.5133e-05
93 *361:30 *473:61 9.98816e-05
94 *361:39 *473:61 2.40587e-06
95 *361:47 *1884:CLK 0
96 *447:25 *473:98 3.42509e-05
97 *447:47 *473:94 0.00016295
98 *448:8 *1873:CLK 7.96333e-06
99 *448:21 *473:94 0.000219417
100 *448:29 *473:94 7.71021e-06
*RES
1 *1894:Z *473:6 5.13 
2 *473:6 *1818:CLK 17.1 
3 *473:6 *473:21 1.17 
4 *473:21 *1902:I 4.5 
5 *473:21 *473:32 8.46 
6 *473:32 *1815:CLK 10.53 
7 *473:32 *473:45 7.11 
8 *473:45 *1880:CLK 4.5 
9 *473:45 *473:52 2.61 
10 *473:52 *1879:CLK 4.5 
11 *473:52 *473:61 5.67 
12 *473:61 *1807:CLK 11.7 
13 *473:61 *1884:CLK 14.76 
14 *1894:Z *473:94 14.85 
15 *473:94 *473:98 9.81 
16 *473:98 *473:102 7.11 
17 *473:102 *1836:CLK 4.5 
18 *473:102 *1817:CLK 9 
19 *473:98 *473:120 5.85 
20 *473:120 *1872:CLK 4.5 
21 *473:120 *1871:CLK 6.48 
22 *473:94 *1873:CLK 4.77 
*END

*D_NET *474 0.0162
*CONN
*I *1827:CLK I *D gf180mcu_fd_sc_mcu7t5v0__dffq_1
*I *1831:CLK I *D gf180mcu_fd_sc_mcu7t5v0__dffq_1
*I *1830:CLK I *D gf180mcu_fd_sc_mcu7t5v0__dffq_1
*I *1887:CLK I *D gf180mcu_fd_sc_mcu7t5v0__dffq_1
*I *1829:CLK I *D gf180mcu_fd_sc_mcu7t5v0__dffq_1
*I *1835:CLK I *D gf180mcu_fd_sc_mcu7t5v0__dffq_1
*I *1886:CLK I *D gf180mcu_fd_sc_mcu7t5v0__dffq_1
*I *1885:CLK I *D gf180mcu_fd_sc_mcu7t5v0__dffq_1
*I *1822:CLK I *D gf180mcu_fd_sc_mcu7t5v0__dffq_1
*I *1821:CLK I *D gf180mcu_fd_sc_mcu7t5v0__dffq_1
*I *1806:CLK I *D gf180mcu_fd_sc_mcu7t5v0__dffq_1
*I *1824:CLK I *D gf180mcu_fd_sc_mcu7t5v0__dffq_1
*I *1888:CLK I *D gf180mcu_fd_sc_mcu7t5v0__dffq_1
*I *1828:CLK I *D gf180mcu_fd_sc_mcu7t5v0__dffq_1
*I *1895:Z O *D gf180mcu_fd_sc_mcu7t5v0__clkbuf_16
*CAP
1 *1827:CLK 0.000114539
2 *1831:CLK 0.000280319
3 *1830:CLK 0
4 *1887:CLK 0.000335829
5 *1829:CLK 0
6 *1835:CLK 0
7 *1886:CLK 0.000160601
8 *1885:CLK 0
9 *1822:CLK 0
10 *1821:CLK 0.000264421
11 *1806:CLK 0
12 *1824:CLK 0.000563438
13 *1888:CLK 0.000319124
14 *1828:CLK 0
15 *1895:Z 0.000313411
16 *474:108 0.000626486
17 *474:48 0.000876775
18 *474:46 0.000767679
19 *474:44 0.000588369
20 *474:40 0.000929766
21 *474:36 0.000566169
22 *474:25 0.000713121
23 *474:21 0.000315732
24 *474:19 0.00059128
25 *474:17 0.000766437
26 *474:8 0.000501554
27 *1824:CLK *1663:A2 3.02306e-05
28 *1824:CLK *1969:I 0.000149818
29 *1827:CLK *480:18 8.52804e-05
30 *1827:CLK *483:63 6.57682e-05
31 *1831:CLK *1419:I 1.51153e-05
32 *1831:CLK *492:343 0.000135666
33 *1831:CLK *492:345 0.00022921
34 *474:8 *480:18 2.03791e-05
35 *474:8 *483:63 9.84776e-05
36 *474:17 *1419:I 0
37 *474:17 *483:16 0.000202627
38 *474:17 *483:63 0.00037349
39 *474:19 *492:345 0.000140508
40 *474:21 *492:345 0.00017213
41 *474:25 *1762:A2 0.000169917
42 *474:25 *492:345 0.000296375
43 *474:108 *483:16 0.000115948
44 i2c_sda_out_pin_ctrl_n *1824:CLK 8.29767e-05
45 *1664:A2 *1821:CLK 0
46 *1664:A2 *1824:CLK 0.000705737
47 *1664:A2 *474:48 0.000444513
48 *1762:A1 *474:25 0.000473735
49 *1806:D *1821:CLK 0
50 *1822:D *474:46 1.79733e-05
51 *1829:D *1831:CLK 0
52 *1829:D *474:19 0
53 *1829:D *474:21 0
54 *1829:D *474:108 0.000507492
55 *1835:D *474:36 2.32821e-05
56 *1885:D *1886:CLK 8.52804e-05
57 *1885:D *474:36 0
58 *1885:D *474:40 0
59 *1886:D *1886:CLK 0
60 *1886:D *474:44 0
61 *1938:I *1888:CLK 0.000586561
62 *133:16 *474:21 0.000351183
63 *133:16 *474:25 0.000434734
64 *133:18 *474:25 0.000283821
65 *142:10 *1831:CLK 9.07783e-05
66 *142:10 *474:17 0
67 *467:40 *1831:CLK 0.000215897
*RES
1 *1895:Z *474:8 6.12 
2 *474:8 *1828:CLK 4.5 
3 *474:8 *474:17 7.11 
4 *474:17 *474:19 1.17 
5 *474:19 *474:21 1.35 
6 *474:21 *474:25 8.37 
7 *474:25 *1888:CLK 7.38 
8 *474:25 *474:36 1.35 
9 *474:36 *474:40 2.88 
10 *474:40 *474:44 2.88 
11 *474:44 *474:46 1.35 
12 *474:46 *474:48 2.61 
13 *474:48 *1824:CLK 9.99 
14 *474:48 *1806:CLK 4.5 
15 *474:46 *1821:CLK 6.57 
16 *474:44 *1822:CLK 4.5 
17 *474:40 *1885:CLK 4.5 
18 *474:40 *1886:CLK 6.48 
19 *474:36 *1835:CLK 4.5 
20 *474:21 *1829:CLK 9 
21 *474:19 *474:108 7.2 
22 *474:108 *1887:CLK 6.57 
23 *474:108 *1830:CLK 4.5 
24 *474:17 *1831:CLK 12.42 
25 *1895:Z *1827:CLK 10.17 
*END

*D_NET *475 0.0270345
*CONN
*I *1811:CLK I *D gf180mcu_fd_sc_mcu7t5v0__dffq_1
*I *1855:CLK I *D gf180mcu_fd_sc_mcu7t5v0__dffq_1
*I *1808:CLK I *D gf180mcu_fd_sc_mcu7t5v0__dffq_1
*I *1858:CLK I *D gf180mcu_fd_sc_mcu7t5v0__dffq_1
*I *1859:CLK I *D gf180mcu_fd_sc_mcu7t5v0__dffq_1
*I *1903:I I *D gf180mcu_fd_sc_mcu7t5v0__clkinv_4
*I *1832:CLK I *D gf180mcu_fd_sc_mcu7t5v0__dffq_1
*I *1823:CLK I *D gf180mcu_fd_sc_mcu7t5v0__dffq_1
*I *1826:CLK I *D gf180mcu_fd_sc_mcu7t5v0__dffq_1
*I *1856:CLK I *D gf180mcu_fd_sc_mcu7t5v0__dffq_1
*I *1896:Z O *D gf180mcu_fd_sc_mcu7t5v0__clkbuf_16
*CAP
1 *1811:CLK 0
2 *1855:CLK 0.00013581
3 *1808:CLK 0.000200859
4 *1858:CLK 0.000635253
5 *1859:CLK 0
6 *1903:I 0
7 *1832:CLK 0.000842639
8 *1823:CLK 0.00109938
9 *1826:CLK 0.000218261
10 *1856:CLK 0.000177649
11 *1896:Z 0.000471854
12 *475:103 0.000855865
13 *475:95 0.000610394
14 *475:68 0.000752656
15 *475:26 0.00140049
16 *475:24 0.00119558
17 *475:22 0.000438763
18 *475:18 0.000489085
19 *1823:CLK *480:18 0
20 *1823:CLK *487:14 0
21 *1826:CLK *480:18 0.000213046
22 *1826:CLK *488:127 3.31858e-06
23 *1832:CLK *1756:S 0
24 *1832:CLK *1757:S 0.000375857
25 *1832:CLK *1758:S 0.000215897
26 *1856:CLK *1677:A1 2.67353e-05
27 *1858:CLK *1677:A1 0.000496766
28 *1858:CLK *492:331 3.12451e-05
29 *1858:CLK *492:343 0.000108692
30 *475:18 *1677:A1 0.000895051
31 *475:22 *488:127 1.09664e-05
32 *475:24 *488:127 7.94227e-05
33 *475:68 *1677:A1 0.000987527
34 *475:95 *1677:A1 7.14937e-05
35 *475:103 *1398:I 0
36 *475:103 *1677:A1 0.000101805
37 *1397:I *1856:CLK 0
38 *1409:I *475:18 5.09573e-05
39 *1447:A1 *1858:CLK 9.04462e-05
40 *1450:A2 *1858:CLK 7.718e-05
41 *1455:A2 *1858:CLK 9.90941e-05
42 *1552:A1 *475:103 0
43 *1634:A1 *1808:CLK 0
44 *1634:A1 *475:103 0
45 *1650:A1 *475:22 0.00057535
46 *1650:A1 *475:24 0.000922269
47 *1650:A2 *475:18 1.67605e-05
48 *1651:A2 *475:18 1.39839e-05
49 *1651:A2 *475:68 0.000252046
50 *1652:A2 *475:24 0
51 *1653:A1 *475:18 1.77471e-05
52 *1654:A2 *475:22 0.000473735
53 *1654:A2 *475:24 0.000839118
54 *1654:A4 *475:22 1.18528e-05
55 *1655:A4 *475:24 2.63437e-05
56 *1656:B2 *1858:CLK 0
57 *1659:A1 *1858:CLK 1.86887e-06
58 *1673:A2 *1808:CLK 3.94192e-05
59 *1674:A1 *1808:CLK 0.000101685
60 *1674:A1 *475:103 4.67543e-05
61 *1677:A3 *475:103 0
62 *1678:A1 *475:95 0.000182582
63 *1678:A1 *475:103 0.000237227
64 *1678:A2 *475:103 8.69945e-06
65 *1678:B *475:103 0.000435073
66 *1742:A3 *1823:CLK 0.000148576
67 *1743:B *1823:CLK 0.000282246
68 *1751:A1 *1823:CLK 0.000416084
69 *1751:A3 *1823:CLK 4.80371e-05
70 *1751:A4 *1823:CLK 9.90362e-06
71 *1752:A2 *1823:CLK 2.59134e-05
72 *1752:A2 *1832:CLK 9.04462e-05
73 *1752:A2 *475:24 0.000937696
74 *1752:A2 *475:26 9.39061e-05
75 *1752:B *1823:CLK 7.77227e-05
76 *1754:B *1823:CLK 0
77 *1757:I0 *1832:CLK 4.74114e-05
78 *1758:I1 *1832:CLK 9.84908e-05
79 *1793:A2 *1858:CLK 0.000206398
80 *1826:D *1823:CLK 9.54998e-05
81 *1827:D *1826:CLK 0.000381585
82 *1827:D *475:24 0.000419307
83 *1827:D *475:26 0.000497347
84 *1850:D *1858:CLK 9.85004e-05
85 *132:35 *475:22 0.000364888
86 *136:8 *475:24 0.000372606
87 *142:64 *1858:CLK 0.000355058
88 *158:29 *1858:CLK 0.000718444
89 *316:58 *1823:CLK 9.09976e-05
90 *359:86 *1823:CLK 5.93924e-05
91 *361:71 *1855:CLK 0.000215887
92 *361:71 *475:103 2.93369e-05
93 *422:56 *1823:CLK 0
94 *422:56 *1832:CLK 0.000117174
95 *459:14 *1858:CLK 9.39061e-05
96 *459:29 *1858:CLK 0.000468574
97 *461:25 *1858:CLK 0.00124719
98 *466:6 *1832:CLK 0.000213046
99 *466:23 *1832:CLK 0.000204889
100 *467:40 *1832:CLK 0
101 *468:19 *1832:CLK 0.00084548
*RES
1 *1896:Z *1856:CLK 10.17 
2 *1896:Z *475:18 6.93 
3 *475:18 *475:22 7.29 
4 *475:22 *475:24 5.67 
5 *475:24 *475:26 1.35 
6 *475:26 *1826:CLK 11.52 
7 *475:26 *1823:CLK 18.45 
8 *475:24 *1832:CLK 17.91 
9 *475:22 *1903:I 9 
10 *475:18 *475:68 2.61 
11 *475:68 *1859:CLK 4.5 
12 *475:68 *1858:CLK 23.13 
13 *1896:Z *475:95 5.67 
14 *475:95 *475:103 9.27 
15 *475:103 *1808:CLK 10.71 
16 *475:103 *1855:CLK 10.35 
17 *475:95 *1811:CLK 4.5 
*END

*D_NET *476 0.0297362
*CONN
*I *1840:CLK I *D gf180mcu_fd_sc_mcu7t5v0__dffq_1
*I *1876:CLK I *D gf180mcu_fd_sc_mcu7t5v0__dffq_1
*I *1838:CLK I *D gf180mcu_fd_sc_mcu7t5v0__dffq_1
*I *1837:CLK I *D gf180mcu_fd_sc_mcu7t5v0__dffq_1
*I *1839:CLK I *D gf180mcu_fd_sc_mcu7t5v0__dffq_1
*I *1875:CLK I *D gf180mcu_fd_sc_mcu7t5v0__dffq_1
*I *1874:CLK I *D gf180mcu_fd_sc_mcu7t5v0__dffq_1
*I *1904:I I *D gf180mcu_fd_sc_mcu7t5v0__clkinv_4
*I *1883:CLK I *D gf180mcu_fd_sc_mcu7t5v0__dffq_1
*I *1877:CLK I *D gf180mcu_fd_sc_mcu7t5v0__dffq_1
*I *1897:Z O *D gf180mcu_fd_sc_mcu7t5v0__clkbuf_16
*CAP
1 *1840:CLK 0.000380513
2 *1876:CLK 0
3 *1838:CLK 0.000368214
4 *1837:CLK 3.86649e-05
5 *1839:CLK 0.000167298
6 *1875:CLK 0.000335946
7 *1874:CLK 0.000225089
8 *1904:I 0
9 *1883:CLK 0.00256415
10 *1877:CLK 0.000104076
11 *1897:Z 0.000380513
12 *476:61 0.000814851
13 *476:55 0.00062642
14 *476:53 0.00033324
15 *476:49 0.000978795
16 *476:47 0.000712903
17 *476:21 0.00297991
18 *476:15 0.000699868
19 *476:4 0.000196586
20 *1838:CLK *1769:B2 4.79071e-05
21 *1840:CLK *492:15 0
22 *1840:CLK *499:14 1.56206e-05
23 *1874:CLK *1766:A1 0
24 *1877:CLK *1952:I 1.56779e-05
25 *1883:CLK *1585:A2 9.92078e-05
26 *1883:CLK *1913:I 0
27 *1883:CLK *557:8 0
28 *1883:CLK *559:67 0.000182459
29 *1883:CLK *581:25 9.02246e-06
30 *1883:CLK *582:14 0.000180303
31 *1883:CLK *582:107 9.21855e-05
32 *1883:CLK *582:120 0.000132007
33 *1883:CLK *583:16 0.000354728
34 *1883:CLK *583:26 0.000169524
35 *476:15 *1952:I 0
36 *476:15 *492:25 7.94868e-06
37 *476:21 *492:25 4.24724e-05
38 *476:47 *1952:I 0.000528808
39 *476:49 *1769:B2 0.000486059
40 *476:49 *1952:I 0.0014524
41 *476:49 *499:14 3.16606e-05
42 *476:53 *1765:B2 6.17613e-06
43 *476:53 *1769:B2 0.000181628
44 *476:55 *1769:B2 7.14936e-05
45 *1429:A3 *476:47 0.000303597
46 *1437:A1 *1883:CLK 0.000161479
47 *1437:A2 *1883:CLK 2.93938e-05
48 *1467:A1 *1883:CLK 0.000295169
49 *1476:A1 *1883:CLK 6.30049e-05
50 *1489:A1 *1883:CLK 0
51 *1496:A1 *1883:CLK 0.000869953
52 *1522:B *1883:CLK 0.000367515
53 *1522:C *1883:CLK 0.000283759
54 *1534:A1 *1883:CLK 3.97987e-05
55 *1561:A1 *1839:CLK 9.04462e-05
56 *1561:B *1839:CLK 0.000121827
57 *1561:C *1839:CLK 1.15771e-05
58 *1568:A1 *476:21 1.19491e-05
59 *1568:B *476:21 6.7989e-05
60 *1571:A1 *1840:CLK 2.33065e-05
61 *1571:A1 *476:49 2.19387e-06
62 *1571:B1 *1840:CLK 0.00119942
63 *1571:B1 *1877:CLK 0.000159751
64 *1571:B1 *476:47 0
65 *1571:B1 *476:49 0
66 *1571:B2 *1840:CLK 0.000735474
67 *1573:C *476:21 0.00052031
68 *1575:A1 *476:47 9.85004e-05
69 *1576:B *476:15 0.000146222
70 *1576:B *476:21 9.34988e-05
71 *1578:A1 *1883:CLK 5.32499e-05
72 *1579:A1 *476:21 0.000111412
73 *1579:A2 *1883:CLK 8.17346e-05
74 *1579:A2 *476:21 0.000490549
75 *1579:A3 *1883:CLK 0.000586561
76 *1585:A1 *1883:CLK 0.000479138
77 *1766:A2 *1875:CLK 1.36885e-05
78 *1767:A1 *1840:CLK 6.34901e-05
79 *1767:A1 *476:49 0
80 *1767:A2 *476:49 1.01643e-05
81 *1768:A2 *476:49 0
82 *1769:A2 *476:55 7.34904e-05
83 *1770:A2 *1839:CLK 8.95825e-05
84 *1770:A2 *476:55 0.000129116
85 *1837:D *1838:CLK 0.000162027
86 *1837:D *1875:CLK 6.17613e-06
87 *1838:D *1838:CLK 0
88 *1838:D *1875:CLK 0
89 *1838:D *476:53 0.00055271
90 *1838:D *476:55 0.00127197
91 *1838:D *476:61 0.000676974
92 *1840:D *1840:CLK 2.32292e-05
93 *1874:D *1874:CLK 3.70356e-05
94 *1874:D *476:61 4.76678e-05
95 *1876:D *476:49 1.50702e-05
96 *1877:D *1840:CLK 0.000151427
97 *1883:D *1883:CLK 4.61861e-05
98 *1884:D *1883:CLK 0.000241013
99 *1884:CLK *1883:CLK 0.000131764
100 *141:6 *1883:CLK 1.47489e-05
101 *141:54 *1883:CLK 0.000136696
102 *157:10 *1883:CLK 0.00125698
103 *157:31 *1883:CLK 0
104 *179:77 *1883:CLK 0
105 *186:8 *1883:CLK 0.000360446
106 *190:16 *1883:CLK 0
107 *195:14 *1883:CLK 0
108 *240:8 *1883:CLK 0
109 *240:8 *476:21 0
110 *269:10 *476:21 0
111 *279:63 *1837:CLK 3.12451e-05
112 *281:8 *1883:CLK 5.5916e-05
113 *449:66 *1875:CLK 0
114 *450:10 *1837:CLK 1.39839e-05
115 *450:49 *1839:CLK 0.000161479
116 *451:12 *1874:CLK 5.60661e-06
117 *451:12 *1875:CLK 0.000385445
118 *451:12 *476:55 0
119 *451:12 *476:61 5.77481e-05
120 *453:21 *476:21 0
*RES
1 *1897:Z *476:4 4.5 
2 *476:4 *1877:CLK 6.03 
3 *476:4 *476:15 5.49 
4 *476:15 *476:21 8.64 
5 *476:21 *1883:CLK 39.24 
6 *476:21 *1904:I 4.5 
7 *476:15 *476:47 7.29 
8 *476:47 *476:49 5.31 
9 *476:49 *476:53 6.03 
10 *476:53 *476:55 3.33 
11 *476:55 *476:61 7.38 
12 *476:61 *1874:CLK 5.85 
13 *476:61 *1875:CLK 16.11 
14 *476:55 *1839:CLK 10.53 
15 *476:53 *1837:CLK 9.27 
16 *476:49 *1838:CLK 7.2 
17 *476:47 *1876:CLK 4.5 
18 *1897:Z *1840:CLK 13.95 
*END

*D_NET *477 0.0225028
*CONN
*I *1878:CLK I *D gf180mcu_fd_sc_mcu7t5v0__dffq_1
*I *1881:CLK I *D gf180mcu_fd_sc_mcu7t5v0__dffq_1
*I *1845:CLK I *D gf180mcu_fd_sc_mcu7t5v0__dffq_1
*I *1866:CLK I *D gf180mcu_fd_sc_mcu7t5v0__dffq_1
*I *1882:CLK I *D gf180mcu_fd_sc_mcu7t5v0__dffq_1
*I *1853:CLK I *D gf180mcu_fd_sc_mcu7t5v0__dffq_1
*I *1844:CLK I *D gf180mcu_fd_sc_mcu7t5v0__dffq_1
*I *1843:CLK I *D gf180mcu_fd_sc_mcu7t5v0__dffq_1
*I *1842:CLK I *D gf180mcu_fd_sc_mcu7t5v0__dffq_1
*I *1841:CLK I *D gf180mcu_fd_sc_mcu7t5v0__dffq_1
*I *1905:I I *D gf180mcu_fd_sc_mcu7t5v0__inv_3
*I *1898:Z O *D gf180mcu_fd_sc_mcu7t5v0__clkbuf_16
*CAP
1 *1878:CLK 0.000180771
2 *1881:CLK 0
3 *1845:CLK 0.000156632
4 *1866:CLK 9.32292e-05
5 *1882:CLK 0
6 *1853:CLK 0
7 *1844:CLK 6.00998e-05
8 *1843:CLK 0
9 *1842:CLK 0.000243411
10 *1841:CLK 0.000675425
11 *1905:I 0.000302849
12 *1898:Z 0.000508083
13 *477:100 0.000723218
14 *477:89 0.000844972
15 *477:81 0.000708292
16 *477:48 0.000476082
17 *477:33 0.00107667
18 *477:31 0.00069444
19 *477:23 0.00101064
20 *477:6 0.00083836
21 *1842:CLK *1767:B2 0.00025367
22 *1842:CLK *498:12 5.97936e-05
23 *1845:CLK *1788:A1 0
24 *1845:CLK *518:184 3.02306e-05
25 *1866:CLK *1790:B2 0.000284389
26 *1878:CLK *1581:A2 2.79072e-05
27 *1878:CLK *492:209 0
28 *1905:I *504:14 0.000111971
29 *1905:I *504:33 0.000296375
30 *477:6 *1500:A4 2.32821e-05
31 *477:6 *1798:A2 0
32 *477:6 *492:209 0
33 *477:6 *504:33 3.54696e-05
34 *477:23 *1779:B2 4.34467e-06
35 *477:23 *492:209 0
36 *477:23 *504:33 2.09122e-05
37 *477:33 *518:33 1.23715e-05
38 *477:48 *1771:B1 5.79059e-06
39 *477:48 *498:12 5.85252e-05
40 *477:48 *518:33 2.71524e-05
41 *477:81 *1495:A4 0
42 *477:81 *1500:A4 8.11796e-05
43 *477:81 *1510:A4 5.06031e-06
44 *477:89 *1495:A3 0.000487326
45 *477:89 *1500:A4 9.57294e-05
46 *477:89 *1505:A4 2.2129e-05
47 *477:89 *1510:A4 3.31517e-06
48 *477:89 *1521:A2 4.83522e-05
49 *477:89 *491:73 0.000161479
50 *477:89 *581:131 0.000109129
51 *477:100 *1521:A2 0.000174029
52 *477:100 *1521:A4 0.000216305
53 *477:100 *1782:A1 0.000479244
54 *477:100 *1788:B2 0.000235076
55 *477:100 *1790:A1 4.83237e-05
56 *477:100 *491:45 0
57 *477:100 *518:184 5.77941e-06
58 ADDR_O[0] *1842:CLK 0.000106193
59 *1495:A1 *477:81 0.000103139
60 *1495:A1 *477:89 5.78854e-06
61 *1496:C *477:89 6.0284e-05
62 *1496:C *477:100 8.12023e-06
63 *1516:B *1866:CLK 1.09563e-05
64 *1521:A1 *477:100 5.78854e-06
65 *1527:B *477:100 0
66 *1532:A2 *1866:CLK 0.000428251
67 *1532:A2 *477:100 0.0005319
68 *1532:B *477:100 2.4462e-05
69 *1561:A2 *1841:CLK 0
70 *1576:A2 *1878:CLK 0.000354728
71 *1675:S *1866:CLK 7.20436e-05
72 *1767:A1 *1841:CLK 0.000697061
73 *1777:A1 *477:31 6.95824e-05
74 *1777:A2 *1844:CLK 3.53558e-05
75 *1777:A2 *477:31 0
76 *1778:A2 *477:31 0.000194972
77 *1779:A2 *477:23 0.000618003
78 *1780:A2 *477:23 0.000157343
79 *1780:A2 *477:31 0.000834763
80 *1783:A2 *1845:CLK 0.000171159
81 *1788:B1 *477:100 8.49143e-05
82 *1791:A2 *1845:CLK 0.000594537
83 *1798:A1 *1905:I 7.94868e-06
84 *1798:A1 *477:23 7.11037e-06
85 *1799:A2 *1905:I 0.000463466
86 *1839:D *1841:CLK 9.61923e-06
87 *1843:D *1841:CLK 0.000164908
88 *1843:D *477:31 0.000828216
89 *1843:D *477:33 0.000231242
90 *1844:D *1841:CLK 2.86596e-05
91 *1878:D *1878:CLK 0
92 *1881:D *477:89 0.000109323
93 *1937:I *477:48 1.27919e-05
94 *140:142 *477:89 6.78417e-05
95 *279:34 *477:31 1.10094e-05
96 *279:40 *477:31 2.46943e-05
97 *279:51 *1844:CLK 0.000234117
98 *279:51 *477:31 1.5132e-05
99 *279:51 *477:33 8.06336e-05
100 *279:51 *477:48 3.50135e-05
101 *279:55 *1841:CLK 0.000430475
102 *279:57 *1841:CLK 0.00110106
103 *279:63 *1841:CLK 0.000826771
104 *434:90 *1866:CLK 0.000143583
105 *434:107 *1845:CLK 0.000146022
106 *434:107 *1866:CLK 0.000152621
107 *434:107 *477:100 5.79747e-05
108 *434:111 *477:100 4.60745e-05
109 *447:159 *1841:CLK 1.32327e-05
110 *448:94 *1841:CLK 6.6089e-05
111 *450:21 *1841:CLK 0
*RES
1 *1898:Z *477:6 5.67 
2 *477:6 *1905:I 15.75 
3 *477:6 *477:23 4.59 
4 *477:23 *477:31 5.58 
5 *477:31 *477:33 1.89 
6 *477:33 *1841:CLK 22.23 
7 *477:33 *477:48 1.8 
8 *477:48 *1842:CLK 7.11 
9 *477:48 *1843:CLK 4.5 
10 *477:31 *1844:CLK 5.58 
11 *477:23 *1853:CLK 4.5 
12 *1898:Z *477:81 6.93 
13 *477:81 *477:89 12.96 
14 *477:89 *1882:CLK 4.5 
15 *477:89 *477:100 9.54 
16 *477:100 *1866:CLK 10.98 
17 *477:100 *1845:CLK 11.34 
18 *477:81 *1881:CLK 4.5 
19 *1905:I *1878:CLK 10.62 
*END

*D_NET *478 0.0215964
*CONN
*I *1869:CLK I *D gf180mcu_fd_sc_mcu7t5v0__dffq_1
*I *1814:CLK I *D gf180mcu_fd_sc_mcu7t5v0__dffq_1
*I *1812:CLK I *D gf180mcu_fd_sc_mcu7t5v0__dffq_1
*I *1867:CLK I *D gf180mcu_fd_sc_mcu7t5v0__dffq_1
*I *1860:CLK I *D gf180mcu_fd_sc_mcu7t5v0__dffq_1
*I *1862:CLK I *D gf180mcu_fd_sc_mcu7t5v0__dffq_1
*I *1861:CLK I *D gf180mcu_fd_sc_mcu7t5v0__dffq_1
*I *1857:CLK I *D gf180mcu_fd_sc_mcu7t5v0__dffq_1
*I *1906:I I *D gf180mcu_fd_sc_mcu7t5v0__clkbuf_4
*I *1865:CLK I *D gf180mcu_fd_sc_mcu7t5v0__dffq_1
*I *1868:CLK I *D gf180mcu_fd_sc_mcu7t5v0__dffq_1
*I *1863:CLK I *D gf180mcu_fd_sc_mcu7t5v0__dffq_1
*I *1864:CLK I *D gf180mcu_fd_sc_mcu7t5v0__dffq_1
*I *1899:Z O *D gf180mcu_fd_sc_mcu7t5v0__clkbuf_16
*CAP
1 *1869:CLK 0.000101097
2 *1814:CLK 0.000234943
3 *1812:CLK 0
4 *1867:CLK 0
5 *1860:CLK 5.74829e-05
6 *1862:CLK 0.000117745
7 *1861:CLK 0
8 *1857:CLK 0.000204902
9 *1906:I 0.000103469
10 *1865:CLK 0.0006482
11 *1868:CLK 0
12 *1863:CLK 0.000351379
13 *1864:CLK 0
14 *1899:Z 0.000380519
15 *478:131 0.000662275
16 *478:125 0.000908948
17 *478:99 0.000497295
18 *478:77 0.000681103
19 *478:71 0.00117395
20 *478:67 0.000533977
21 *478:56 0.000438926
22 *478:14 0.000659411
23 *478:12 0.000452317
24 *478:8 0.00105368
25 *478:4 0.000438352
26 *1862:CLK *1800:A2 0.000438416
27 *1863:CLK *492:296 0
28 *1863:CLK *582:22 4.83522e-05
29 *1863:CLK *582:43 0.000275961
30 *1865:CLK *1424:I 0.000173849
31 *1865:CLK *1632:I2 0.00043778
32 *1865:CLK *1676:S 7.44879e-06
33 *1865:CLK *520:16 0.000178376
34 *1865:CLK *520:26 8.38609e-05
35 *478:8 *520:26 1.51107e-05
36 *478:12 *1424:I 9.686e-05
37 *478:14 *492:296 2.26729e-05
38 *478:56 *520:26 6.52309e-05
39 *478:67 *520:26 6.55842e-05
40 *478:99 *1453:A2 0.000418993
41 *478:99 *1800:A2 0.000338443
42 *478:99 *518:151 0.000231798
43 *478:99 *563:32 6.83517e-05
44 *478:125 *1517:I1 0.000149021
45 *478:125 *1632:I3 3.92172e-06
46 *478:125 *582:85 0.00037044
47 *478:131 *1517:I1 6.03144e-06
48 *1452:A2 *478:77 3.45237e-05
49 *1453:A1 *478:99 1.56862e-05
50 *1454:A2 *478:77 0.000259475
51 *1457:A1 *1862:CLK 1.0415e-05
52 *1469:A2 *1863:CLK 1.34992e-05
53 *1470:A1 *1863:CLK 1.43368e-05
54 *1497:A2 *1863:CLK 0.000118485
55 *1507:I0 *478:14 0.000284348
56 *1508:A1 *478:99 0.000103209
57 *1513:A1 *478:99 7.20334e-05
58 *1516:A1 *478:8 0.000171826
59 *1516:A1 *478:56 0.000130909
60 *1516:A1 *478:67 0.000142831
61 *1516:A1 *478:71 0.00025547
62 *1516:A1 *478:77 8.93953e-05
63 *1516:A1 *478:99 2.17721e-05
64 *1517:S *478:125 0.000171188
65 *1518:A2 *478:99 1.13195e-05
66 *1520:A2 *478:14 0.00066753
67 *1520:C *478:12 9.39061e-05
68 *1520:C *478:14 0.000490017
69 *1527:A1 *1865:CLK 0.000517285
70 *1527:A1 *478:71 0
71 *1529:A1 *478:125 5.60515e-05
72 *1529:A1 *478:131 0.000125958
73 *1529:A2 *1814:CLK 4.14905e-05
74 *1529:A2 *478:131 0.000115019
75 *1532:A1 *478:131 9.20698e-05
76 *1533:I0 *1865:CLK 0.000100047
77 *1633:A2 *1865:CLK 0.0010984
78 *1795:A2 *1814:CLK 9.90362e-06
79 *1797:A2 *1862:CLK 8.82384e-05
80 *1797:A2 *478:99 6.21416e-05
81 *1812:D *478:131 7.45526e-05
82 *1867:D *478:125 0
83 *1868:D *478:8 0.000536907
84 *1899:I *1865:CLK 3.87771e-05
85 *1899:I *478:12 0.000102606
86 *142:68 *1857:CLK 5.97457e-06
87 *142:68 *478:77 2.32821e-05
88 *142:74 *1857:CLK 0.000107298
89 *161:8 *1857:CLK 1.0415e-05
90 *161:25 *1857:CLK 0.000168648
91 *161:25 *478:77 0.000507492
92 *175:40 *1863:CLK 7.71021e-06
93 *175:40 *478:14 0.000150348
94 *175:51 *478:14 6.30205e-05
95 *179:104 *1863:CLK 0.000333663
96 *179:104 *478:14 1.79237e-05
97 *180:10 *478:14 0.000246768
98 *208:92 *478:8 2.36914e-05
99 *208:101 *478:8 2.95687e-05
100 *434:40 *478:12 0.000166798
101 *434:40 *478:14 0.000150438
102 *458:10 *478:99 5.97457e-06
103 *459:10 *1857:CLK 2.65444e-06
104 *459:10 *478:77 4.83522e-05
105 *461:12 *478:71 1.34912e-05
106 *461:23 *478:77 4.0103e-05
107 *461:25 *478:77 1.23523e-05
108 *462:6 *1814:CLK 3.23918e-05
*RES
1 *1899:Z *478:4 4.5 
2 *478:4 *478:8 6.93 
3 *478:8 *478:12 6.03 
4 *478:12 *478:14 5.13 
5 *478:14 *1864:CLK 4.5 
6 *478:14 *1863:CLK 9.09 
7 *478:12 *1868:CLK 4.5 
8 *478:8 *1865:CLK 16.56 
9 *478:4 *478:56 1.53 
10 *478:56 *1906:I 5.31 
11 *478:56 *478:67 1.98 
12 *478:67 *478:71 7.11 
13 *478:71 *478:77 9.18 
14 *478:77 *1857:CLK 6.66 
15 *478:77 *1861:CLK 4.5 
16 *478:71 *478:99 8.37 
17 *478:99 *1862:CLK 5.85 
18 *478:99 *1860:CLK 4.95 
19 *478:67 *1867:CLK 4.5 
20 *1899:Z *478:125 8.19 
21 *478:125 *478:131 3.33 
22 *478:131 *1812:CLK 4.5 
23 *478:131 *1814:CLK 5.85 
24 *478:125 *1869:CLK 5.13 
*END

*D_NET *479 0.020254
*CONN
*I *1849:CLK I *D gf180mcu_fd_sc_mcu7t5v0__dffq_1
*I *1907:I I *D gf180mcu_fd_sc_mcu7t5v0__clkbuf_4
*I *1850:CLK I *D gf180mcu_fd_sc_mcu7t5v0__dffq_1
*I *1809:CLK I *D gf180mcu_fd_sc_mcu7t5v0__dffq_1
*I *1813:CLK I *D gf180mcu_fd_sc_mcu7t5v0__dffq_1
*I *1854:CLK I *D gf180mcu_fd_sc_mcu7t5v0__dffq_1
*I *1852:CLK I *D gf180mcu_fd_sc_mcu7t5v0__dffq_1
*I *1851:CLK I *D gf180mcu_fd_sc_mcu7t5v0__dffq_1
*I *1810:CLK I *D gf180mcu_fd_sc_mcu7t5v0__dffq_1
*I *1870:CLK I *D gf180mcu_fd_sc_mcu7t5v0__dffq_1
*I *1848:CLK I *D gf180mcu_fd_sc_mcu7t5v0__dffq_1
*I *1847:CLK I *D gf180mcu_fd_sc_mcu7t5v0__dffq_1
*I *1846:CLK I *D gf180mcu_fd_sc_mcu7t5v0__dffq_1
*I *1900:Z O *D gf180mcu_fd_sc_mcu7t5v0__clkbuf_16
*CAP
1 *1849:CLK 0.000316538
2 *1907:I 0
3 *1850:CLK 0
4 *1809:CLK 0.00050686
5 *1813:CLK 0.000288291
6 *1854:CLK 0.000619532
7 *1852:CLK 0
8 *1851:CLK 0
9 *1810:CLK 0.000128103
10 *1870:CLK 0.00040284
11 *1848:CLK 0
12 *1847:CLK 0
13 *1846:CLK 0.000259253
14 *1900:Z 0.000356963
15 *479:103 0.000803359
16 *479:75 0.000930123
17 *479:66 0.000320459
18 *479:59 0.000332649
19 *479:48 0.000475829
20 *479:44 0.000609735
21 *479:33 0.000861673
22 *479:31 0.000602172
23 *479:10 0.000455008
24 *479:8 0.000247844
25 *479:6 0.000235853
26 *1809:CLK *1442:A2 0.000317013
27 *1809:CLK *1569:A2 0
28 *1809:CLK *1790:B2 3.70283e-05
29 *1809:CLK *1921:I 0.000137181
30 *1809:CLK *560:58 1.96635e-05
31 *1810:CLK *1514:B2 0.000476619
32 *1813:CLK *560:10 7.92346e-05
33 *1846:CLK *1784:A1 0.000335881
34 *1846:CLK *1786:A1 1.52946e-05
35 *1846:CLK *559:12 0.000368541
36 *1849:CLK *1792:A1 0.000761058
37 *1849:CLK *1796:A1 0.000324046
38 *1849:CLK *1966:I 9.05146e-05
39 *1849:CLK *511:8 5.53103e-05
40 *1849:CLK *560:10 0.000295367
41 *1854:CLK *1528:I1 0.000190911
42 *1854:CLK *1927:I 6.85264e-05
43 *1854:CLK *560:10 7.18388e-06
44 *1854:CLK *564:44 1.24158e-05
45 *1870:CLK *1514:B2 0.000261204
46 *1870:CLK *1792:A1 0
47 *479:6 *1792:A1 0.000183662
48 *479:8 *1792:A1 0.000207343
49 *479:10 *1792:A1 1.0415e-05
50 *479:10 *510:10 7.5391e-05
51 *479:31 *1792:A1 0
52 *479:33 *1792:A1 0
53 *479:48 *1514:B2 0.000187852
54 *479:66 *1514:B2 6.50695e-05
55 *479:103 *1442:A2 9.3226e-06
56 *479:103 *1533:I1 2.37695e-05
57 *1516:A2 *1809:CLK 5.79792e-06
58 *1516:A2 *479:48 2.09122e-05
59 *1516:A2 *479:103 3.45424e-05
60 *1532:A1 *1846:CLK 0.00190458
61 *1532:A1 *1849:CLK 0.000252393
62 *1532:A1 *479:6 0.000406329
63 *1532:A1 *479:8 0.000469308
64 *1532:A1 *479:10 0.000930572
65 *1810:D *1809:CLK 9.70737e-05
66 *1810:D *479:48 0.000157158
67 *1810:D *479:66 8.96641e-05
68 *1810:D *479:103 0.000412261
69 *1813:D *1854:CLK 0.000389574
70 *1813:D *479:66 3.01487e-05
71 *1813:D *479:75 6.02974e-05
72 *1849:D *1846:CLK 3.7996e-05
73 *1849:D *1849:CLK 4.78445e-05
74 *1849:D *479:10 2.88199e-05
75 *1850:D *1813:CLK 0.000122888
76 *1850:D *1854:CLK 6.99936e-05
77 *1851:D *1813:CLK 0.000220064
78 *1851:D *479:66 4.92278e-05
79 *1851:D *479:75 1.17652e-05
80 *1852:D *1813:CLK 0.00089507
81 *1854:D *1854:CLK 0.000125987
82 *1869:D *1870:CLK 3.0177e-06
83 *1900:I *1870:CLK 0
84 *434:40 *1809:CLK 1.17652e-05
*RES
1 *1900:Z *479:6 5.67 
2 *479:6 *479:8 1.35 
3 *479:8 *479:10 2.61 
4 *479:10 *1846:CLK 9.63 
5 *479:10 *1847:CLK 4.5 
6 *479:8 *1848:CLK 4.5 
7 *479:6 *479:31 5.49 
8 *479:31 *479:33 2.97 
9 *479:33 *1870:CLK 11.61 
10 *479:33 *479:44 4.5 
11 *479:44 *479:48 3.06 
12 *479:48 *1810:CLK 6.3 
13 *479:48 *479:59 0.27 
14 *479:59 *1851:CLK 4.5 
15 *479:59 *479:66 2.61 
16 *479:66 *1852:CLK 4.5 
17 *479:66 *479:75 4.77 
18 *479:75 *1854:CLK 13.86 
19 *479:75 *1813:CLK 12.96 
20 *479:44 *479:103 2.97 
21 *479:103 *1809:CLK 8.91 
22 *479:103 *1850:CLK 4.5 
23 *479:31 *1907:I 9 
24 *1900:Z *1849:CLK 13.95 
*END

*D_NET *480 0.0263251
*CONN
*I *1611:A2 I *D gf180mcu_fd_sc_mcu7t5v0__nand3_1
*I *1613:A4 I *D gf180mcu_fd_sc_mcu7t5v0__nand4_1
*I *1620:A2 I *D gf180mcu_fd_sc_mcu7t5v0__nand2_1
*I *1729:A1 I *D gf180mcu_fd_sc_mcu7t5v0__nand4_1
*I *1412:I I *D gf180mcu_fd_sc_mcu7t5v0__clkinv_1
*I *1615:A3 I *D gf180mcu_fd_sc_mcu7t5v0__nand4_1
*I *1605:A3 I *D gf180mcu_fd_sc_mcu7t5v0__nand4_1
*I *1621:A2 I *D gf180mcu_fd_sc_mcu7t5v0__aoi21_1
*I *1710:A1 I *D gf180mcu_fd_sc_mcu7t5v0__nand4_1
*I *1708:A2 I *D gf180mcu_fd_sc_mcu7t5v0__nand4_1
*I *1886:Q O *D gf180mcu_fd_sc_mcu7t5v0__dffq_1
*CAP
1 *1611:A2 0.000370534
2 *1613:A4 0
3 *1620:A2 0.00016548
4 *1729:A1 0
5 *1412:I 3.44897e-05
6 *1615:A3 0
7 *1605:A3 0.000214044
8 *1621:A2 0.000555225
9 *1710:A1 0.000204072
10 *1708:A2 0
11 *1886:Q 0.00160053
12 *480:114 0.000222984
13 *480:62 0.000834028
14 *480:50 0.00106237
15 *480:44 0.000497523
16 *480:42 0.000555894
17 *480:32 0.000832275
18 *480:28 0.000803542
19 *480:18 0.00206892
20 *1605:A3 *1686:A1 3.23804e-05
21 *1605:A3 *487:68 4.6283e-05
22 *1605:A3 *490:93 3.85076e-05
23 *1611:A2 *1690:B1 9.85004e-05
24 *1611:A2 *490:50 7.23562e-05
25 *1620:A2 *1608:A1 0.000481929
26 *1710:A1 *1708:A1 6.0061e-06
27 *480:18 *1910:I 0
28 *480:18 *483:63 9.90362e-06
29 *480:18 *487:14 0.00134562
30 *480:18 *488:16 0.000332952
31 *480:28 *1608:A1 0.000363617
32 *480:32 *1622:A2 0.000131469
33 *480:32 *1744:B2 0.000307396
34 *480:32 *489:49 6.2979e-05
35 *480:42 *1623:A3 4.34199e-06
36 *480:42 *488:68 2.64146e-05
37 *480:42 *489:49 0.000295383
38 *480:42 *490:91 4.64661e-05
39 *480:44 *490:91 3.12451e-05
40 *480:44 *490:93 1.0415e-05
41 *480:50 *1686:A1 7.772e-05
42 *480:62 *1708:A1 0.000887025
43 *480:114 *1608:A1 0.000331026
44 *1615:A1 *1605:A3 1.07374e-05
45 *1615:A1 *480:42 0.000272042
46 *1615:A1 *480:44 2.89427e-06
47 *1615:A2 *480:42 0.000313405
48 *1615:A2 *480:44 1.0415e-05
49 *1616:A1 *480:50 3.77483e-05
50 *1622:A1 *1620:A2 1.07374e-05
51 *1634:B *1620:A2 9.86752e-05
52 *1683:A1 *480:42 7.43878e-05
53 *1684:A2 *480:42 0.000215639
54 *1706:A1 *480:42 0.000227626
55 *1706:A1 *480:50 0.00128936
56 *1706:A2 *480:62 0.000154519
57 *1706:A3 *1611:A2 4.16305e-05
58 *1706:A3 *1621:A2 5.64172e-05
59 *1706:A3 *480:62 0.000111272
60 *1708:A3 *480:62 0.000349069
61 *1710:A2 *1710:A1 0.000209048
62 *1710:A2 *480:32 2.66533e-05
63 *1710:A2 *480:42 7.21026e-05
64 *1714:A1 *1710:A1 0
65 *1721:A1 *1620:A2 9.92342e-05
66 *1729:A4 *1620:A2 0.000124055
67 *1732:A2 *480:18 0.000212154
68 *1733:A1 *480:18 8.12023e-06
69 *1733:A2 *480:18 0.00107597
70 *1739:A3 *480:18 1.91452e-06
71 *1740:A2 *480:18 3.69755e-05
72 *1743:A2 *480:18 7.53993e-05
73 *1744:A1 *480:28 0.00038692
74 *1744:A2 *480:28 0.000236142
75 *1745:A1 *480:32 0.000150744
76 *1746:B *480:28 2.30981e-05
77 *1748:A1 *480:18 0.000433797
78 *1748:A2 *480:18 1.84368e-05
79 *1752:B *480:18 4.34467e-06
80 *1823:CLK *480:18 0
81 *1826:CLK *480:18 0.000213046
82 *1827:CLK *480:18 8.52804e-05
83 *1828:D *480:18 7.77106e-05
84 *123:10 *1611:A2 0
85 *123:57 *480:28 0.000136094
86 *123:72 *1620:A2 0.000169515
87 *124:33 *480:28 0.000127292
88 *299:16 *480:32 0.000734673
89 *299:16 *480:42 5.44715e-05
90 *299:74 *1620:A2 0.000143583
91 *299:74 *480:32 0.00011349
92 *299:74 *480:114 0.000101425
93 *299:83 *1620:A2 3.8182e-05
94 *300:81 *480:28 7.1331e-05
95 *300:81 *480:114 1.7368e-05
96 *305:12 *480:28 0.000416021
97 *307:22 *1605:A3 0.000244531
98 *309:48 *480:32 0.000114044
99 *359:67 *480:18 0.000415026
100 *359:86 *480:18 3.92172e-06
101 *375:12 *480:62 2.39613e-05
102 *385:10 *480:50 0.000219866
103 *385:27 *480:28 0.000150744
104 *385:38 *480:18 0.000246757
105 *385:38 *480:28 0.000325866
106 *386:18 *1611:A2 2.93762e-05
107 *386:18 *1621:A2 5.57364e-05
108 *386:18 *1710:A1 5.30751e-05
109 *386:18 *480:62 6.8195e-05
110 *387:8 *1710:A1 6.80179e-05
111 *387:14 *1710:A1 2.93836e-05
112 *403:14 *480:28 1.7675e-05
113 *403:14 *480:62 0.000154047
114 *403:33 *480:18 2.95032e-05
115 *403:33 *480:28 2.19934e-05
116 *474:8 *480:18 2.03791e-05
*RES
1 *1886:Q *480:18 30.33 
2 *480:18 *480:28 10.26 
3 *480:28 *480:32 8.19 
4 *480:32 *480:42 13.95 
5 *480:42 *480:44 0.27 
6 *480:44 *480:50 12.51 
7 *480:50 *480:62 14.76 
8 *480:62 *1708:A2 4.5 
9 *480:62 *1710:A1 6.21 
10 *480:50 *1621:A2 5.76 
11 *480:44 *1605:A3 6.66 
12 *480:42 *1615:A3 4.5 
13 *480:32 *1412:I 4.77 
14 *480:28 *480:114 0.99 
15 *480:114 *1729:A1 9 
16 *480:114 *1620:A2 11.7 
17 *480:18 *1613:A4 4.5 
18 *1621:A2 *1611:A2 11.25 
*END

*D_NET *481 0.000478559
*CONN
*I *1916:I I *D gf180mcu_fd_sc_mcu7t5v0__dlyc_1
*I *1820:Q O *D gf180mcu_fd_sc_mcu7t5v0__dffq_1
*CAP
1 *1916:I 0.000195222
2 *1820:Q 0.000195222
3 *1916:I *1667:A2 8.12023e-06
4 *1916:I *569:6 7.55765e-06
5 *1670:A3 *1916:I 4.73129e-05
6 *1724:A1 *1916:I 2.51233e-05
*RES
1 *1820:Q *1916:I 10.35 
*END

*D_NET *482 0.00322103
*CONN
*I *1912:I I *D gf180mcu_fd_sc_mcu7t5v0__dlyc_1
*I *1819:Q O *D gf180mcu_fd_sc_mcu7t5v0__dffq_1
*CAP
1 *1912:I 0.0005042
2 *1819:Q 0.0005042
3 *1912:I *1760:A2 0
4 *1724:A1 *1912:I 0.00156535
5 *1724:A2 *1912:I 2.08301e-05
6 *1724:B *1912:I 0.000127458
7 *1760:A1 *1912:I 9.28208e-06
8 *1820:D *1912:I 0.000289059
9 *1833:D *1912:I 0.000200655
*RES
1 *1819:Q *1912:I 24.48 
*END

*D_NET *483 0.0238579
*CONN
*I *1595:A1 I *D gf180mcu_fd_sc_mcu7t5v0__nand2_1
*I *1597:A1 I *D gf180mcu_fd_sc_mcu7t5v0__nand2_1
*I *1410:I I *D gf180mcu_fd_sc_mcu7t5v0__clkinv_1
*I *1888:Q O *D gf180mcu_fd_sc_mcu7t5v0__dffq_1
*CAP
1 *1595:A1 8.06488e-05
2 *1597:A1 0
3 *1410:I 0.000151669
4 *1888:Q 0.000909441
5 *483:67 0.000392226
6 *483:63 0.00448686
7 *483:16 0.00523639
8 *1410:I *1910:I 1.20058e-05
9 *1595:A1 *484:27 0.000359802
10 *483:16 *1419:I 0
11 *483:63 *1400:I 0.000243246
12 *483:63 *1692:A1 9.09867e-05
13 *483:63 *1717:A2 2.26729e-05
14 *483:63 *1723:A2 7.71681e-06
15 *483:63 *1738:A1 4.49678e-05
16 *483:63 *1750:I1 6.97825e-05
17 *483:63 *484:14 9.74183e-05
18 *483:63 *484:98 0.000641961
19 *483:63 *488:16 6.16151e-05
20 *483:63 *490:14 1.87097e-05
21 *483:63 *490:91 7.34917e-05
22 *483:63 *490:93 3.07932e-05
23 *483:63 *490:97 8.4713e-05
24 *483:67 *484:18 0.00136621
25 *483:67 *484:27 6.85726e-05
26 *1609:A2 *483:63 0.000576793
27 *1692:A2 *483:63 0.000204056
28 *1714:A1 *483:63 0.000455453
29 *1715:A1 *483:63 0
30 *1719:A2 *483:67 3.47782e-06
31 *1719:B *483:63 0.000136472
32 *1724:A2 *483:63 0.000194218
33 *1733:A1 *483:63 0.000475333
34 *1733:A2 *483:63 0
35 *1734:B *483:63 0.000142047
36 *1737:A2 *483:63 0.000351193
37 *1737:A3 *483:63 6.75054e-06
38 *1739:A1 *483:63 0.000173838
39 *1739:A2 *483:63 1.71254e-05
40 *1739:A3 *483:63 0.0011415
41 *1760:A1 *483:67 0
42 *1822:D *483:63 0.000507492
43 *1827:CLK *483:63 6.57682e-05
44 *1829:D *483:16 6.57328e-05
45 *123:10 *483:63 0.000862594
46 *126:25 *483:63 0.00151862
47 *133:16 *483:16 1.86464e-05
48 *142:33 *1595:A1 3.08806e-06
49 *142:33 *483:67 6.76807e-05
50 *289:23 *1595:A1 5.34014e-05
51 *297:20 *483:63 3.92172e-06
52 *317:36 *483:63 9.5105e-05
53 *317:45 *483:63 0.000241427
54 *352:12 *483:63 3.31858e-06
55 *385:27 *483:63 6.48744e-05
56 *393:8 *483:63 0.000152566
57 *403:14 *483:63 0.00089723
58 *404:28 *483:63 5.78854e-06
59 *474:8 *483:63 9.84776e-05
60 *474:17 *483:16 0.000202627
61 *474:17 *483:63 0.00037349
62 *474:108 *483:16 0.000115948
63 *480:18 *483:63 9.90362e-06
*RES
1 *1888:Q *483:16 19.44 
2 *483:16 *1410:I 5.58 
3 *483:16 *483:63 48.51 
4 *483:63 *483:67 8.55 
5 *483:67 *1597:A1 9 
6 *483:67 *1595:A1 9.99 
*END

*D_NET *484 0.019765
*CONN
*I *1750:I1 I *D gf180mcu_fd_sc_mcu7t5v0__mux2_2
*I *1717:A2 I *D gf180mcu_fd_sc_mcu7t5v0__aoi211_1
*I *1599:A1 I *D gf180mcu_fd_sc_mcu7t5v0__oai22_1
*I *1671:A1 I *D gf180mcu_fd_sc_mcu7t5v0__nand4_1
*I *1694:A1 I *D gf180mcu_fd_sc_mcu7t5v0__oai31_1
*I *1596:A2 I *D gf180mcu_fd_sc_mcu7t5v0__nor2_1
*I *1763:A2 I *D gf180mcu_fd_sc_mcu7t5v0__and2_1
*I *1597:A2 I *D gf180mcu_fd_sc_mcu7t5v0__nand2_1
*I *1890:Q O *D gf180mcu_fd_sc_mcu7t5v0__dffq_1
*CAP
1 *1750:I1 0.000133757
2 *1717:A2 4.45612e-05
3 *1599:A1 0
4 *1671:A1 0.00037694
5 *1694:A1 0.000186469
6 *1596:A2 0
7 *1763:A2 0.000402682
8 *1597:A2 0
9 *1890:Q 0.000652708
10 *484:98 0.000464716
11 *484:71 0.00196472
12 *484:52 0.00162614
13 *484:46 0.000365631
14 *484:27 0.000719255
15 *484:18 0.000408916
16 *484:14 0.00117224
17 *1763:A2 *1595:A2 0
18 *1763:A2 *485:18 0
19 *484:18 *485:18 4.74252e-05
20 *484:27 *485:18 3.55693e-05
21 *484:71 *492:105 0
22 *1595:A1 *484:27 0.000359802
23 *1596:A1 *484:52 6.07964e-05
24 *1599:B1 *1763:A2 2.09122e-05
25 *1599:B1 *484:46 0.000169515
26 *1672:B *1671:A1 2.37143e-05
27 *1689:B *1694:A1 7.20334e-05
28 *1694:B *1694:A1 3.53802e-05
29 *1695:I0 *1694:A1 5.36478e-05
30 *1695:I0 *484:71 7.49348e-05
31 *1695:S *484:71 0.000224343
32 *1699:A3 *484:46 0.000199194
33 *1701:A2 *484:71 8.52804e-05
34 *1719:A2 *484:18 0.000159885
35 *1722:A1 *484:98 0
36 *1724:A1 *484:14 0.000455766
37 *1724:A1 *484:98 0
38 *1724:A2 *484:14 9.81434e-05
39 *1724:B *484:14 0.000448058
40 *1763:A1 *1763:A2 0.000966074
41 *1816:D *484:71 0.000294421
42 *1817:D *484:71 0.000127853
43 *1817:CLK *484:46 1.06178e-05
44 *1817:CLK *484:71 2.93776e-05
45 *1833:CLK *484:14 0.00016052
46 *1836:D *1763:A2 6.317e-05
47 *139:103 *1671:A1 0.000757427
48 *139:103 *484:71 0.000489048
49 *287:8 *484:27 0.000114819
50 *287:8 *484:46 0.000137335
51 *287:8 *484:52 3.42213e-05
52 *288:12 *484:52 0
53 *288:12 *484:71 0.000599488
54 *289:23 *484:27 2.05328e-05
55 *290:10 *1763:A2 6.01367e-05
56 *290:10 *484:27 0.000218349
57 *290:10 *484:46 0.000164916
58 *291:14 *484:46 0.000367433
59 *291:14 *484:71 2.33596e-05
60 *300:16 *484:71 0.00056881
61 *302:18 *1694:A1 8.05869e-05
62 *317:36 *1750:I1 0.000334499
63 *359:10 *1763:A2 1.0415e-05
64 *359:40 *1671:A1 4.26636e-06
65 *361:30 *1671:A1 0.000222536
66 *361:30 *484:71 0.000495005
67 *473:102 *484:52 0
68 *483:63 *1717:A2 2.26729e-05
69 *483:63 *1750:I1 6.97825e-05
70 *483:63 *484:14 9.74183e-05
71 *483:63 *484:98 0.000641961
72 *483:67 *484:18 0.00136621
73 *483:67 *484:27 6.85726e-05
*RES
1 *1890:Q *484:14 18.81 
2 *484:14 *484:18 8.19 
3 *484:18 *1597:A2 9 
4 *484:18 *484:27 2.25 
5 *484:27 *1763:A2 13.14 
6 *484:27 *484:46 7.11 
7 *484:46 *484:52 10.71 
8 *484:52 *1596:A2 4.5 
9 *484:52 *484:71 14.13 
10 *484:71 *1694:A1 15.12 
11 *484:71 *1671:A1 9.27 
12 *484:46 *1599:A1 4.5 
13 *484:14 *484:98 2.43 
14 *484:98 *1717:A2 4.95 
15 *484:98 *1750:I1 5.94 
*END

*D_NET *485 0.0243987
*CONN
*I *1665:A2 I *D gf180mcu_fd_sc_mcu7t5v0__nor2_1
*I *1618:A1 I *D gf180mcu_fd_sc_mcu7t5v0__nand2_1
*I *1626:A1 I *D gf180mcu_fd_sc_mcu7t5v0__nor2_1
*I *1622:A3 I *D gf180mcu_fd_sc_mcu7t5v0__nand3_1
*I *1607:A1 I *D gf180mcu_fd_sc_mcu7t5v0__nand2_1
*I *1728:A1 I *D gf180mcu_fd_sc_mcu7t5v0__aoi211_1
*I *1415:I I *D gf180mcu_fd_sc_mcu7t5v0__clkinv_1
*I *1833:Q O *D gf180mcu_fd_sc_mcu7t5v0__dffq_1
*CAP
1 *1665:A2 0
2 *1618:A1 6.3523e-05
3 *1626:A1 0
4 *1622:A3 0.000205735
5 *1607:A1 0
6 *1728:A1 0
7 *1415:I 0
8 *1833:Q 0.00150985
9 *485:64 0.000657619
10 *485:55 0.00167909
11 *485:43 0.00215659
12 *485:26 0.00102278
13 *485:22 0.000220039
14 *485:18 0.00157297
15 *1618:A1 *486:8 0
16 *1622:A3 *1622:A2 4.06219e-05
17 *1622:A3 *489:39 0.000142676
18 *485:18 *1595:A2 0.000474538
19 *485:18 *1760:A2 9.6717e-05
20 *485:18 *1761:A2 3.76284e-05
21 *485:18 *486:8 8.40905e-05
22 *485:18 *569:6 4.34121e-06
23 *485:22 *1761:A2 5.47541e-05
24 *485:22 *486:20 3.53802e-05
25 *485:26 *1761:A2 4.10656e-05
26 *485:43 *486:29 0.000213046
27 *485:43 *486:42 0.000245765
28 *485:55 *1969:I 0.000408092
29 *485:55 *486:52 0.000521459
30 *485:55 *486:63 0.000117164
31 *485:64 *1622:A2 1.91657e-05
32 *485:64 *486:63 0.00306048
33 i2c_sda_out_pin_ctrl *485:55 0.000155203
34 *1606:A2 *485:43 0.000180788
35 *1611:A1 *485:64 0.00154675
36 *1618:A2 *1618:A1 0.000302466
37 *1619:A1 *485:43 1.19491e-05
38 *1623:A1 *485:55 6.97788e-07
39 *1623:A1 *485:64 9.82424e-06
40 *1628:A1 *485:43 0.000126756
41 *1628:A1 *485:55 6.72567e-05
42 *1628:A2 *485:55 0
43 *1628:B *485:55 9.98816e-05
44 *1629:A3 *485:55 0.00109053
45 *1665:A1 *1618:A1 0.00037349
46 *1665:A1 *485:22 1.23523e-05
47 *1670:A3 *485:18 6.36346e-05
48 *1690:B2 *485:55 0
49 *1705:B *485:43 1.07374e-05
50 *1707:C *485:64 0.000112842
51 *1710:A2 *1622:A3 0.000303573
52 *1710:A3 *485:55 1.91657e-05
53 *1713:A1 *485:43 0.000151427
54 *1719:A2 *485:18 0.00167481
55 *1720:A1 *485:18 0.000682918
56 *1723:A1 *485:18 0.000217871
57 *1723:B *485:18 0.000431877
58 *1724:B *485:18 2.95601e-05
59 *1763:A2 *485:18 0
60 *1825:D *485:22 0
61 *1825:D *485:26 0
62 *1825:CLK *485:43 0
63 *1836:D *485:18 7.01651e-05
64 *123:57 *1622:A3 9.90193e-05
65 *123:57 *485:64 2.08042e-05
66 *138:12 *1618:A1 0.000771774
67 *138:12 *485:43 8.02407e-05
68 *139:12 *485:43 0.000183662
69 *288:29 *485:18 0.000218192
70 *289:8 *485:18 6.23445e-05
71 *289:23 *485:18 3.33106e-05
72 *290:10 *485:18 1.36414e-05
73 *298:8 *485:43 0.000183652
74 *299:16 *1622:A3 3.15639e-05
75 *356:10 *1618:A1 6.91924e-05
76 *356:42 *485:64 0.000110969
77 *359:10 *485:18 5.66236e-06
78 *484:18 *485:18 4.74252e-05
79 *484:27 *485:18 3.55693e-05
*RES
1 *1833:Q *485:18 28.53 
2 *485:18 *485:22 5.31 
3 *485:22 *485:26 5.13 
4 *485:26 *1415:I 4.5 
5 *485:26 *485:43 9.36 
6 *485:43 *485:55 24.93 
7 *485:55 *1728:A1 9 
8 *485:55 *485:64 8.55 
9 *485:64 *1607:A1 9 
10 *485:64 *1622:A3 11.16 
11 *485:43 *1626:A1 4.5 
12 *485:22 *1618:A1 11.43 
13 *485:18 *1665:A2 4.5 
*END

*D_NET *486 0.0260778
*CONN
*I *1666:A2 I *D gf180mcu_fd_sc_mcu7t5v0__nand2_1
*I *1617:A2 I *D gf180mcu_fd_sc_mcu7t5v0__nor2_1
*I *1687:A2 I *D gf180mcu_fd_sc_mcu7t5v0__nor3_1
*I *1749:A3 I *D gf180mcu_fd_sc_mcu7t5v0__nor4_1
*I *1626:A2 I *D gf180mcu_fd_sc_mcu7t5v0__nor2_1
*I *1744:B2 I *D gf180mcu_fd_sc_mcu7t5v0__oai221_1
*I *1607:A2 I *D gf180mcu_fd_sc_mcu7t5v0__nand2_1
*I *1622:A2 I *D gf180mcu_fd_sc_mcu7t5v0__nand3_1
*I *1728:A2 I *D gf180mcu_fd_sc_mcu7t5v0__aoi211_1
*I *1619:A2 I *D gf180mcu_fd_sc_mcu7t5v0__nor2_1
*I *1416:I I *D gf180mcu_fd_sc_mcu7t5v0__clkinv_1
*I *1834:Q O *D gf180mcu_fd_sc_mcu7t5v0__dffq_1
*CAP
1 *1666:A2 0.000148737
2 *1617:A2 0
3 *1687:A2 0.000220155
4 *1749:A3 0
5 *1626:A2 0
6 *1744:B2 8.83138e-05
7 *1607:A2 0
8 *1622:A2 0.000157085
9 *1728:A2 0
10 *1619:A2 0
11 *1416:I 0
12 *1834:Q 0.000234274
13 *486:118 0.000302147
14 *486:114 0.000520742
15 *486:103 0.000707526
16 *486:63 0.000801699
17 *486:52 0.00189236
18 *486:42 0.00172747
19 *486:29 0.00052084
20 *486:20 0.000617384
21 *486:8 0.00113975
22 *486:20 *1761:A2 0
23 *486:52 *567:30 0
24 *486:63 *488:49 0.00103532
25 *486:103 *1761:A2 0
26 *1618:A1 *486:8 0
27 *1619:A1 *486:29 0.000110838
28 *1619:A1 *486:42 1.61174e-05
29 *1622:A3 *1622:A2 4.06219e-05
30 *1628:A1 *486:42 9.90362e-06
31 *1665:A1 *486:8 0
32 *1665:A1 *486:20 5.05993e-05
33 *1666:A1 *1666:A2 0.000554286
34 *1670:A2 *1666:A2 1.84368e-05
35 *1682:A2 *1666:A2 1.84476e-05
36 *1687:A1 *1687:A2 0.000204502
37 *1698:A2 *1666:A2 0.000354728
38 *1704:A1 *486:42 7.84068e-05
39 *1704:A2 *486:42 2.954e-05
40 *1705:B *486:42 7.66556e-05
41 *1710:A2 *1622:A2 0.00012512
42 *1713:A1 *486:29 3.55118e-05
43 *1713:A1 *486:42 0.000365454
44 *1713:A2 *486:42 0.000276065
45 *1715:A2 *486:20 2.40587e-06
46 *1715:A3 *486:114 0.000123255
47 *1716:A2 *486:8 1.80607e-05
48 *1717:B *486:103 3.01487e-05
49 *1718:A1 *1687:A2 0.000152028
50 *1718:A1 *486:118 9.6428e-06
51 *1719:A1 *486:103 0
52 *1719:B *486:103 0.000918485
53 *1719:B *486:114 0.000169524
54 *1744:A2 *1687:A2 7.65946e-06
55 *1744:A2 *486:118 2.47509e-05
56 *1745:A1 *1744:B2 0
57 *1825:D *486:20 0
58 *123:44 *486:63 0.000289436
59 *123:57 *486:63 0.000212972
60 *138:12 *486:20 3.06557e-05
61 *138:16 *486:114 1.38506e-05
62 *139:12 *486:20 0.000101624
63 *139:36 *486:20 0.000728102
64 *139:53 *486:20 5.33485e-05
65 *139:53 *486:103 0.000161555
66 *297:30 *1666:A2 0.000480268
67 *297:30 *486:114 0.000866087
68 *303:12 *486:63 0.000403964
69 *305:12 *486:63 0
70 *309:48 *1622:A2 0.000354719
71 *309:48 *1744:B2 0.00017123
72 *311:12 *486:42 9.57035e-05
73 *317:36 *486:103 0.000795772
74 *317:45 *486:103 3.01487e-05
75 *317:45 *486:114 0.000203968
76 *356:10 *486:8 0
77 *356:10 *486:20 0.00077783
78 *356:42 *1622:A2 0.000641018
79 *356:77 *486:114 3.62799e-05
80 *356:88 *1666:A2 7.05157e-05
81 *356:88 *486:114 5.28867e-05
82 *360:6 *486:114 1.85072e-05
83 *394:6 *486:8 0.000110735
84 *394:6 *486:20 0
85 *472:12 *486:103 0.000706192
86 *480:32 *1622:A2 0.000131469
87 *480:32 *1744:B2 0.000307396
88 *485:18 *486:8 8.40905e-05
89 *485:22 *486:20 3.53802e-05
90 *485:43 *486:29 0.000213046
91 *485:43 *486:42 0.000245765
92 *485:55 *486:52 0.000521459
93 *485:55 *486:63 0.000117164
94 *485:64 *1622:A2 1.91657e-05
95 *485:64 *486:63 0.00306048
*RES
1 *1834:Q *486:8 10.89 
2 *486:8 *486:20 18.63 
3 *486:20 *1416:I 4.5 
4 *486:20 *486:29 1.62 
5 *486:29 *1619:A2 4.5 
6 *486:29 *486:42 4.68 
7 *486:42 *486:52 22.68 
8 *486:52 *1728:A2 9 
9 *486:52 *486:63 13.23 
10 *486:63 *1622:A2 16.2 
11 *486:63 *1607:A2 4.5 
12 *486:63 *1744:B2 5.85 
13 *486:42 *1626:A2 4.5 
14 *486:8 *486:103 10.08 
15 *486:103 *1749:A3 4.5 
16 *486:103 *486:114 7.74 
17 *486:114 *486:118 4.95 
18 *486:118 *1687:A2 6.66 
19 *486:118 *1617:A2 4.5 
20 *486:114 *1666:A2 11.88 
*END

*D_NET *487 0.0415484
*CONN
*I *1741:A3 I *D gf180mcu_fd_sc_mcu7t5v0__nand3_1
*I *1632:S0 I *D gf180mcu_fd_sc_mcu7t5v0__mux4_1
*I *1631:S0 I *D gf180mcu_fd_sc_mcu7t5v0__mux4_1
*I *1608:A2 I *D gf180mcu_fd_sc_mcu7t5v0__nor2_1
*I *1686:A2 I *D gf180mcu_fd_sc_mcu7t5v0__nand4_1
*I *1693:A4 I *D gf180mcu_fd_sc_mcu7t5v0__nand4_1
*I *1688:A1 I *D gf180mcu_fd_sc_mcu7t5v0__nand4_1
*I *1605:A2 I *D gf180mcu_fd_sc_mcu7t5v0__nand4_1
*I *1708:A1 I *D gf180mcu_fd_sc_mcu7t5v0__nand4_1
*I *1685:A2 I *D gf180mcu_fd_sc_mcu7t5v0__and4_1
*I *1623:A2 I *D gf180mcu_fd_sc_mcu7t5v0__oai32_1
*I *1604:A3 I *D gf180mcu_fd_sc_mcu7t5v0__nand4_1
*I *1403:I I *D gf180mcu_fd_sc_mcu7t5v0__clkinv_1
*I *1821:Q O *D gf180mcu_fd_sc_mcu7t5v0__dffq_1
*CAP
1 *1741:A3 0
2 *1632:S0 0.000634866
3 *1631:S0 0
4 *1608:A2 0.000221644
5 *1686:A2 0
6 *1693:A4 7.8875e-05
7 *1688:A1 0
8 *1605:A2 3.98227e-05
9 *1708:A1 0.000263619
10 *1685:A2 0
11 *1623:A2 0.000177512
12 *1604:A3 4.38417e-05
13 *1403:I 0.00022958
14 *1821:Q 0.000474489
15 *487:156 0.0022333
16 *487:141 0.00219581
17 *487:120 0.000523623
18 *487:76 0.000353962
19 *487:74 0.000681255
20 *487:72 0.000432677
21 *487:70 0.000596416
22 *487:68 0.000347048
23 *487:51 0.00112611
24 *487:45 0.00114857
25 *487:41 0.000764731
26 *487:14 0.00143119
27 *1623:A2 *1685:A1 2.26729e-05
28 *1623:A2 *567:45 0.000309993
29 *1632:S0 *1499:A1 1.56176e-05
30 *1632:S0 *1499:B2 0.00049208
31 *1632:S0 *1631:I2 9.07674e-05
32 *1632:S0 *1632:I3 1.07374e-05
33 *1632:S0 *1915:I 9.72117e-05
34 *1632:S0 *520:16 0.00112672
35 *1632:S0 *582:85 0.000991322
36 *1693:A4 *567:88 2.47453e-05
37 *487:14 *488:8 0
38 *487:14 *488:127 0
39 *487:41 *1741:A1 0.000252329
40 *487:41 *488:37 0.000122329
41 *487:45 *488:37 1.0415e-05
42 *487:45 *488:39 5.5916e-05
43 *487:51 *1604:A4 6.64738e-05
44 *487:51 *1613:A1 0.000220709
45 *487:51 *1741:A1 4.78526e-05
46 *487:51 *488:39 0
47 *487:51 *488:49 9.34436e-06
48 *487:51 *488:53 5.08683e-05
49 *487:51 *490:91 0
50 *487:68 *1603:A3 1.69954e-05
51 *487:68 *1686:A1 9.18115e-05
52 *487:68 *488:68 7.80452e-05
53 *487:72 *567:60 6.69502e-06
54 *487:74 *567:51 0.000140772
55 *487:76 *567:45 0.000101615
56 *487:76 *567:51 3.2559e-05
57 *487:120 *1602:A1 0
58 *487:120 *567:60 1.16612e-05
59 *487:120 *567:77 6.03342e-05
60 *487:141 *1741:A1 0.000102653
61 *487:141 *489:12 0.000103249
62 *487:156 *1425:I 8.25538e-05
63 *487:156 *1673:A1 0.000390584
64 *487:156 *1782:B2 0.00207605
65 *487:156 *520:16 0.000157878
66 *487:156 *557:10 0.000773459
67 *487:156 *557:32 0.00244243
68 *1497:B1 *487:156 0.000293736
69 *1499:B1 *1632:S0 0.000156001
70 *1527:A1 *1632:S0 6.99911e-06
71 *1605:A3 *487:68 4.6283e-05
72 *1615:A1 *487:68 0.000153256
73 *1615:A2 *487:51 0.000169524
74 *1615:A2 *487:68 4.51648e-05
75 *1616:A1 *487:76 3.82269e-05
76 *1616:A3 *1623:A2 0.0004846
77 *1623:B2 *1623:A2 4.47101e-05
78 *1628:A2 *1623:A2 5.00115e-05
79 *1633:A2 *1632:S0 8.63254e-05
80 *1634:B *1608:A2 0.00013218
81 *1635:B *1608:A2 2.52774e-05
82 *1685:A4 *487:72 0.000285887
83 *1685:A4 *487:74 0.00115984
84 *1685:A4 *487:76 0.000154262
85 *1686:A4 *487:120 0.000142883
86 *1692:A3 *487:68 0.000378965
87 *1692:A3 *487:72 7.10228e-05
88 *1692:A3 *487:74 8.43025e-06
89 *1694:A3 *487:120 0
90 *1703:B *1623:A2 0.000560019
91 *1706:A1 *487:68 4.16618e-06
92 *1706:B *1623:A2 0.000415035
93 *1710:A1 *1708:A1 6.0061e-06
94 *1710:A2 *487:120 0.000161805
95 *1721:A1 *1608:A2 0
96 *1726:A3 *1708:A1 0
97 *1739:A2 *487:14 2.58435e-05
98 *1742:A3 *487:41 0
99 *1742:A3 *487:51 5.29454e-05
100 *1744:C *487:45 0.000155486
101 *1745:A2 *487:141 4.02636e-05
102 *1747:A1 *487:51 4.04191e-05
103 *1748:B *487:51 0.000213554
104 *1751:A1 *487:41 0.000494158
105 *1751:A4 *487:14 1.51153e-05
106 *1752:B *487:14 3.57113e-05
107 *1823:D *487:41 0.000562588
108 *1823:CLK *487:14 0
109 *124:10 *487:51 0.000835195
110 *124:10 *487:141 0.000627694
111 *124:33 *487:51 0.000117089
112 *125:10 *487:51 2.24475e-05
113 *125:34 *487:51 0.00137566
114 *126:21 *1403:I 6.59892e-05
115 *139:103 *487:141 0.000178791
116 *139:103 *487:156 0.00012775
117 *152:52 *487:156 0.000774454
118 *176:43 *487:156 6.73398e-05
119 *176:80 *1632:S0 3.49085e-05
120 *176:80 *487:156 9.34436e-06
121 *176:87 *1632:S0 1.38253e-05
122 *208:22 *487:156 5.31477e-05
123 *292:18 *487:41 0
124 *294:8 *487:68 0.000289482
125 *294:10 *487:68 4.09191e-05
126 *294:10 *487:72 0.000324784
127 *294:10 *487:120 8.56918e-05
128 *299:26 *1623:A2 5.82028e-05
129 *300:16 *1608:A2 3.01487e-05
130 *300:62 *1608:A2 6.02974e-05
131 *305:8 *487:51 0.000334562
132 *309:31 *487:120 0.000372037
133 *309:48 *487:41 9.04462e-05
134 *309:48 *487:45 0.000289489
135 *316:58 *1403:I 0.000392492
136 *316:58 *487:41 0.000185235
137 *351:26 *487:141 2.3312e-05
138 *351:26 *487:156 0
139 *352:12 *487:41 3.33773e-05
140 *359:61 *487:41 3.75599e-05
141 *359:61 *487:51 0
142 *359:67 *487:51 0
143 *359:86 *487:14 0.000128061
144 *361:47 *487:156 0.000291659
145 *375:12 *1623:A2 0
146 *375:12 *487:76 0
147 *385:27 *487:51 1.68677e-06
148 *385:42 *1403:I 0
149 *385:42 *487:41 0
150 *385:44 *1403:I 0
151 *386:18 *1708:A1 0.00010897
152 *389:6 *1708:A1 0
153 *404:28 *1403:I 0.000430589
154 *480:18 *487:14 0.00134562
155 *480:62 *1708:A1 0.000887025
*RES
1 *1821:Q *487:14 22.86 
2 *487:14 *1403:I 11.61 
3 *487:14 *487:41 21.06 
4 *487:41 *487:45 5.31 
5 *487:45 *487:51 12.78 
6 *487:51 *1604:A3 4.77 
7 *487:51 *487:68 12.33 
8 *487:68 *487:70 4.5 
9 *487:70 *487:72 1.71 
10 *487:72 *487:74 3.15 
11 *487:74 *487:76 1.35 
12 *487:76 *1623:A2 12.6 
13 *487:76 *1685:A2 9 
14 *487:74 *1708:A1 11.88 
15 *487:72 *1605:A2 9.27 
16 *487:70 *487:120 8.82 
17 *487:120 *1688:A1 4.5 
18 *487:120 *1693:A4 5.13 
19 *487:68 *1686:A2 4.5 
20 *487:45 *487:141 4.32 
21 *487:141 *1608:A2 10.71 
22 *487:141 *487:156 24.3 
23 *487:156 *1631:S0 4.5 
24 *487:156 *1632:S0 12.15 
25 *487:41 *1741:A3 4.5 
*END

*D_NET *488 0.0438093
*CONN
*I *1631:S1 I *D gf180mcu_fd_sc_mcu7t5v0__mux4_1
*I *1632:S1 I *D gf180mcu_fd_sc_mcu7t5v0__mux4_1
*I *1741:A2 I *D gf180mcu_fd_sc_mcu7t5v0__nand3_1
*I *1608:A1 I *D gf180mcu_fd_sc_mcu7t5v0__nor2_1
*I *1402:I I *D gf180mcu_fd_sc_mcu7t5v0__clkinv_1
*I *1602:A2 I *D gf180mcu_fd_sc_mcu7t5v0__nor2_1
*I *1603:A3 I *D gf180mcu_fd_sc_mcu7t5v0__nor3_1
*I *1623:A3 I *D gf180mcu_fd_sc_mcu7t5v0__oai32_1
*I *1738:A1 I *D gf180mcu_fd_sc_mcu7t5v0__nor2_1
*I *1822:Q O *D gf180mcu_fd_sc_mcu7t5v0__dffq_1
*CAP
1 *1631:S1 0.000788896
2 *1632:S1 0
3 *1741:A2 0
4 *1608:A1 0.000172179
5 *1402:I 0
6 *1602:A2 0
7 *1603:A3 0.000380835
8 *1623:A3 0.000254513
9 *1738:A1 0.000138746
10 *1822:Q 0.000433876
11 *488:127 0.00305313
12 *488:68 0.000603011
13 *488:53 0.000680349
14 *488:49 0.000472939
15 *488:39 0.000699127
16 *488:37 0.000877376
17 *488:16 0.00113441
18 *488:8 0.00307406
19 *1603:A3 *1602:A1 0.000654179
20 *1603:A3 *489:68 0.000249402
21 *1631:S1 *1631:I3 1.86887e-06
22 *1631:S1 *1789:A1 3.22122e-05
23 *1631:S1 *520:16 0
24 *488:37 *1741:A1 2.93938e-05
25 *488:39 *1741:A1 1.0415e-05
26 *488:53 *1604:A4 9.92342e-05
27 *488:127 *1424:I 0
28 *488:127 *1442:A2 0.000277903
29 *488:127 *1533:I1 0.00167766
30 *488:127 *561:12 0.000169927
31 *488:127 *562:81 6.0354e-06
32 *1443:B *488:127 5.34652e-05
33 *1511:A1 *1631:S1 0.0017908
34 *1511:A1 *488:127 1.71414e-05
35 *1517:S *488:127 0.000151342
36 *1518:A1 *488:127 0
37 *1523:B1 *488:127 0.000839389
38 *1527:A1 *1631:S1 0.000294944
39 *1527:A1 *488:127 3.84416e-05
40 *1527:A2 *1631:S1 0.000264683
41 *1610:A2 *1603:A3 3.31517e-06
42 *1615:A2 *488:68 0.000207647
43 *1620:A2 *1608:A1 0.000481929
44 *1623:B1 *1623:A3 2.07943e-05
45 *1625:A1 *1603:A3 4.6613e-06
46 *1634:B *1608:A1 0.000546549
47 *1650:A1 *488:127 0.000302997
48 *1651:A1 *488:127 7.66319e-06
49 *1653:A1 *488:127 0.000142777
50 *1678:A1 *488:127 4.22217e-05
51 *1684:A2 *1603:A3 0.00077472
52 *1691:A1 *1603:A3 0.000319384
53 *1692:A3 *488:68 0.000145212
54 *1703:A1 *1623:A3 0.000105364
55 *1706:A1 *1603:A3 0.00043263
56 *1706:A1 *1623:A3 2.13441e-06
57 *1710:A2 *1603:A3 3.91349e-05
58 *1721:A1 *1603:A3 1.23607e-05
59 *1729:A4 *1608:A1 6.81154e-05
60 *1739:A2 *1738:A1 4.49934e-06
61 *1739:A2 *488:37 9.11356e-05
62 *1739:A3 *488:16 0.000246471
63 *1744:B1 *1608:A1 0.000226823
64 *1744:C *488:39 0.000723289
65 *1745:B *488:39 7.42354e-05
66 *1751:A1 *488:37 8.111e-05
67 *1751:A1 *488:39 8.1718e-05
68 *1751:A2 *488:37 2.75886e-05
69 *1753:A3 *488:37 0.000183189
70 *1753:A4 *488:37 0.00014106
71 *1754:A2 *488:127 1.0571e-05
72 *1793:A2 *488:127 1.81108e-05
73 *1822:D *488:8 2.64467e-05
74 *1822:D *488:16 7.15588e-05
75 *1823:D *488:37 0.000756908
76 *1826:CLK *488:127 3.31858e-06
77 *1827:D *488:127 0.00023018
78 *1857:D *488:127 6.67701e-05
79 *1868:D *488:127 0.000719031
80 *1870:D *488:127 0.00142547
81 *1935:I *488:127 0.0014591
82 *123:10 *1623:A3 0.000241883
83 *123:57 *1608:A1 2.59465e-05
84 *123:57 *488:49 0.00102762
85 *123:95 *1603:A3 3.37977e-05
86 *124:33 *488:49 0
87 *124:35 *488:68 6.2979e-05
88 *124:37 *488:68 0.000261573
89 *125:34 *488:49 0
90 *125:34 *488:68 9.84908e-05
91 *131:12 *488:127 0.00033108
92 *132:35 *488:127 0.000265313
93 *135:19 *1603:A3 1.1402e-05
94 *136:8 *488:127 7.02619e-05
95 *139:103 *1608:A1 2.08301e-05
96 *142:74 *488:127 3.68029e-05
97 *142:170 *488:127 0.000443358
98 *295:8 *1603:A3 0
99 *299:16 *1623:A3 0.00174056
100 *299:16 *488:68 0.000457955
101 *300:16 *1608:A1 9.04462e-05
102 *300:62 *1608:A1 9.04462e-05
103 *309:48 *488:37 0.00186971
104 *309:48 *488:39 3.59064e-05
105 *309:48 *488:49 0.000131469
106 *316:62 *488:37 0.000491913
107 *316:81 *488:37 0.000312562
108 *316:97 *1608:A1 0.000164228
109 *316:99 *1608:A1 0.00125973
110 *352:12 *1738:A1 0.000122472
111 *352:12 *488:37 0.000167273
112 *385:27 *1623:A3 0.000646148
113 *385:27 *488:49 0.000128649
114 *385:27 *488:53 0.000783832
115 *422:30 *488:127 0
116 *422:41 *488:127 0
117 *475:22 *488:127 1.09664e-05
118 *475:24 *488:127 7.94227e-05
119 *480:18 *488:16 0.000332952
120 *480:28 *1608:A1 0.000363617
121 *480:42 *1623:A3 4.34199e-06
122 *480:42 *488:68 2.64146e-05
123 *480:114 *1608:A1 0.000331026
124 *483:63 *1738:A1 4.49678e-05
125 *483:63 *488:16 6.16151e-05
126 *486:63 *488:49 0.00103532
127 *487:14 *488:8 0
128 *487:14 *488:127 0
129 *487:41 *488:37 0.000122329
130 *487:45 *488:37 1.0415e-05
131 *487:45 *488:39 5.5916e-05
132 *487:51 *488:39 0
133 *487:51 *488:49 9.34436e-06
134 *487:51 *488:53 5.08683e-05
135 *487:68 *1603:A3 1.69954e-05
136 *487:68 *488:68 7.80452e-05
*RES
1 *1822:Q *488:8 11.61 
2 *488:8 *488:16 12.78 
3 *488:16 *1738:A1 10.08 
4 *488:16 *488:37 14.22 
5 *488:37 *488:39 2.79 
6 *488:39 *488:49 13.23 
7 *488:49 *488:53 6.75 
8 *488:53 *1623:A3 13.77 
9 *488:53 *488:68 7.2 
10 *488:68 *1603:A3 18.72 
11 *488:68 *1602:A2 4.5 
12 *488:49 *1402:I 4.5 
13 *488:39 *1608:A1 18.72 
14 *488:37 *1741:A2 4.5 
15 *488:8 *488:127 32.94 
16 *488:127 *1632:S1 4.5 
17 *488:127 *1631:S1 12.42 
*END

*D_NET *489 0.0109959
*CONN
*I *1634:A2 I *D gf180mcu_fd_sc_mcu7t5v0__aoi21_1
*I *1401:I I *D gf180mcu_fd_sc_mcu7t5v0__clkinv_1
*I *1601:A2 I *D gf180mcu_fd_sc_mcu7t5v0__nor2_1
*I *1612:A3 I *D gf180mcu_fd_sc_mcu7t5v0__nor4_1
*I *1610:A3 I *D gf180mcu_fd_sc_mcu7t5v0__nor3_1
*I *1603:A2 I *D gf180mcu_fd_sc_mcu7t5v0__nor3_1
*I *1602:A1 I *D gf180mcu_fd_sc_mcu7t5v0__nor2_1
*I *1741:A1 I *D gf180mcu_fd_sc_mcu7t5v0__nand3_1
*I *1823:Q O *D gf180mcu_fd_sc_mcu7t5v0__dffq_1
*CAP
1 *1634:A2 5.74829e-05
2 *1401:I 0
3 *1601:A2 0
4 *1612:A3 0
5 *1610:A3 0.000113803
6 *1603:A2 0
7 *1602:A1 0.000160818
8 *1741:A1 0.000312907
9 *1823:Q 3.36697e-05
10 *489:68 0.000355304
11 *489:49 0.000677442
12 *489:39 0.000517832
13 *489:33 0.000826397
14 *489:25 0.000583688
15 *489:12 0.000698022
16 *489:6 0.000476267
17 *1603:A3 *1602:A1 0.000654179
18 *1603:A3 *489:68 0.000249402
19 *1610:A2 *489:49 5.13763e-05
20 *1612:A2 *489:39 0.00035741
21 *1612:A2 *489:49 6.10987e-05
22 *1622:A3 *489:39 0.000142676
23 *1634:B *489:12 0
24 *1635:B *489:6 6.02974e-05
25 *1635:B *489:12 0.00048874
26 *1660:B *489:33 9.6501e-06
27 *1683:A1 *489:49 0.000101415
28 *1684:A1 *489:39 0.000103075
29 *1686:A4 *1602:A1 0
30 *1693:A1 *1610:A3 0
31 *1710:A2 *489:39 0.00011337
32 *1710:A2 *489:49 2.22631e-05
33 *1710:A2 *489:68 0.00035741
34 *1721:A1 *1610:A3 0.000213904
35 *1721:A1 *489:33 6.03144e-06
36 *1721:A1 *489:39 2.22631e-05
37 *1729:A2 *489:33 0.00013316
38 *1729:A2 *489:39 0.00027605
39 *1730:B *489:33 5.32571e-05
40 *1745:A1 *489:33 2.65063e-05
41 *1751:A1 *1741:A1 3.97987e-05
42 *123:95 *1610:A3 0.000289427
43 *123:95 *489:68 0.000174506
44 *124:10 *489:33 7.73059e-05
45 *124:83 *489:33 5.5916e-05
46 *135:19 *489:49 0.000133037
47 *299:16 *489:39 3.92905e-06
48 *299:16 *489:49 0.000164228
49 *299:74 *489:33 0.000155226
50 *299:74 *489:39 3.07932e-05
51 *304:16 *1610:A3 0.000213904
52 *309:31 *489:49 0.00015123
53 *309:31 *489:68 4.57916e-05
54 *309:48 *489:33 2.93619e-05
55 *309:48 *489:49 9.28737e-05
56 *351:26 *489:12 0.000117194
57 *351:26 *489:33 0
58 *359:61 *1741:A1 0
59 *359:61 *489:12 0
60 *480:32 *489:49 6.2979e-05
61 *480:42 *489:49 0.000295383
62 *487:41 *1741:A1 0.000252329
63 *487:51 *1741:A1 4.78526e-05
64 *487:120 *1602:A1 0
65 *487:141 *1741:A1 0.000102653
66 *487:141 *489:12 0.000103249
67 *488:37 *1741:A1 2.93938e-05
68 *488:39 *1741:A1 1.0415e-05
*RES
1 *1823:Q *489:6 4.77 
2 *489:6 *489:12 7.56 
3 *489:12 *1741:A1 11.52 
4 *489:12 *489:25 4.5 
5 *489:25 *489:33 4.32 
6 *489:33 *489:39 2.97 
7 *489:39 *489:49 16.74 
8 *489:49 *1602:A1 10.71 
9 *489:49 *489:68 11.61 
10 *489:68 *1603:A2 9 
11 *489:68 *1610:A3 10.44 
12 *489:39 *1612:A3 4.5 
13 *489:33 *1601:A2 4.5 
14 *489:25 *1401:I 4.5 
15 *489:6 *1634:A2 4.95 
*END

*D_NET *490 0.0175324
*CONN
*I *1613:A1 I *D gf180mcu_fd_sc_mcu7t5v0__nand4_1
*I *1736:A1 I *D gf180mcu_fd_sc_mcu7t5v0__nor4_1
*I *1611:A3 I *D gf180mcu_fd_sc_mcu7t5v0__nand3_1
*I *1604:A4 I *D gf180mcu_fd_sc_mcu7t5v0__nand4_1
*I *1615:A4 I *D gf180mcu_fd_sc_mcu7t5v0__nand4_1
*I *1686:A1 I *D gf180mcu_fd_sc_mcu7t5v0__nand4_1
*I *1605:A1 I *D gf180mcu_fd_sc_mcu7t5v0__nand4_1
*I *1692:A1 I *D gf180mcu_fd_sc_mcu7t5v0__nand4_1
*I *1690:B1 I *D gf180mcu_fd_sc_mcu7t5v0__oai22_1
*I *1685:A1 I *D gf180mcu_fd_sc_mcu7t5v0__and4_1
*I *1707:B1 I *D gf180mcu_fd_sc_mcu7t5v0__oai221_1
*I *1624:A2 I *D gf180mcu_fd_sc_mcu7t5v0__nor2_1
*I *1400:I I *D gf180mcu_fd_sc_mcu7t5v0__clkinv_1
*I *1824:Q O *D gf180mcu_fd_sc_mcu7t5v0__dffq_1
*CAP
1 *1613:A1 0.000480629
2 *1736:A1 0
3 *1611:A3 0
4 *1604:A4 0.000218966
5 *1615:A4 0
6 *1686:A1 0.000384522
7 *1605:A1 2.14203e-05
8 *1692:A1 0.000153313
9 *1690:B1 1.72285e-05
10 *1685:A1 0.000309455
11 *1707:B1 8.33286e-05
12 *1624:A2 0.000146104
13 *1400:I 0.000384613
14 *1824:Q 9.08322e-05
15 *490:97 0.000292091
16 *490:93 0.000551875
17 *490:91 0.000299468
18 *490:87 0.000669885
19 *490:76 0.000298357
20 *490:52 0.000481473
21 *490:50 0.000437836
22 *490:46 0.000529115
23 *490:29 0.000505284
24 *490:14 0.000578104
25 *490:10 0.000665424
26 *1685:A1 *567:51 1.0415e-05
27 *1605:A3 *1686:A1 3.23804e-05
28 *1605:A3 *490:93 3.85076e-05
29 *1611:A2 *1690:B1 9.85004e-05
30 *1611:A2 *490:50 7.23562e-05
31 *1612:A2 *1604:A4 0.000109874
32 *1612:A2 *490:87 0.000129087
33 *1613:A3 *1613:A1 4.66871e-05
34 *1615:A2 *490:91 1.34992e-05
35 *1616:A1 *1686:A1 1.91584e-05
36 *1616:A3 *1685:A1 0.0001078
37 *1616:A3 *490:50 0
38 *1621:B *1685:A1 0.000145218
39 *1623:A2 *1685:A1 2.26729e-05
40 *1685:A4 *1686:A1 8.83517e-06
41 *1690:B2 *1707:B1 0.000354284
42 *1690:B2 *490:52 0.000275217
43 *1690:B2 *490:76 0.000147005
44 *1692:A2 *1692:A1 0
45 *1692:A3 *1686:A1 0.000427038
46 *1703:A1 *1685:A1 0.00033718
47 *1706:A1 *1685:A1 0.000106536
48 *1706:A1 *1686:A1 7.12154e-05
49 *1706:A3 *1690:B1 2.31089e-05
50 *1706:B *1685:A1 0.000102894
51 *1728:B *490:50 3.73774e-06
52 *1731:A1 *490:10 1.56779e-05
53 *1731:A1 *490:46 0.00096271
54 *1731:A1 *490:50 3.24207e-05
55 *1736:A2 *1613:A1 0.000102454
56 *1736:A2 *490:10 2.93065e-05
57 *1736:A2 *490:29 0.000155552
58 *1736:A3 *1624:A2 0.000126645
59 *1736:A3 *490:29 5.63592e-06
60 *1736:A3 *490:46 7.20436e-05
61 *1736:A4 *1613:A1 5.20456e-05
62 *1736:A4 *490:29 0.000331082
63 *1737:A3 *1400:I 0.000229812
64 *1737:A3 *490:10 3.12451e-05
65 *1737:A3 *490:14 0.000245511
66 *1737:A3 *490:46 5.79059e-06
67 *1742:A2 *1613:A1 0.000119829
68 *1748:A1 *1613:A1 1.7368e-05
69 *1748:B *1613:A1 4.50934e-05
70 *1824:D *1613:A1 0.00081596
71 *1824:D *1624:A2 7.39716e-05
72 *1824:D *490:10 0.000210588
73 *1824:D *490:29 1.4352e-05
74 *123:10 *1400:I 3.55118e-05
75 *124:10 *1613:A1 1.30288e-05
76 *124:33 *1613:A1 0.000158788
77 *294:10 *1686:A1 1.73111e-06
78 *297:20 *1692:A1 0.000163704
79 *297:20 *490:97 6.34901e-05
80 *299:16 *1604:A4 5.52338e-05
81 *299:16 *1707:B1 7.64901e-05
82 *299:16 *490:52 5.678e-05
83 *299:16 *490:76 5.28249e-05
84 *299:16 *490:87 0.00014259
85 *301:10 *490:87 0.000206695
86 *301:12 *490:76 4.6977e-05
87 *301:12 *490:87 5.62747e-05
88 *303:14 *490:50 3.11786e-05
89 *307:22 *490:97 5.96479e-05
90 *385:27 *1604:A4 9.3226e-06
91 *385:27 *490:91 0.000335957
92 *385:38 *1613:A1 1.77876e-05
93 *386:18 *1685:A1 0.000381652
94 *386:18 *490:46 0
95 *386:18 *490:50 9.04462e-05
96 *403:14 *490:87 0.000288831
97 *403:14 *490:91 3.84844e-06
98 *480:42 *490:91 4.64661e-05
99 *480:44 *490:91 3.12451e-05
100 *480:44 *490:93 1.0415e-05
101 *480:50 *1686:A1 7.772e-05
102 *483:63 *1400:I 0.000243246
103 *483:63 *1692:A1 9.09867e-05
104 *483:63 *490:14 1.87097e-05
105 *483:63 *490:91 7.34917e-05
106 *483:63 *490:93 3.07932e-05
107 *483:63 *490:97 8.4713e-05
108 *487:51 *1604:A4 6.64738e-05
109 *487:51 *1613:A1 0.000220709
110 *487:51 *490:91 0
111 *487:68 *1686:A1 9.18115e-05
112 *488:53 *1604:A4 9.92342e-05
*RES
1 *1824:Q *490:10 9.9 
2 *490:10 *490:14 5.31 
3 *490:14 *1400:I 8.37 
4 *490:14 *490:29 5.67 
5 *490:29 *1624:A2 10.35 
6 *490:29 *490:46 7.83 
7 *490:46 *490:50 6.21 
8 *490:50 *490:52 0.81 
9 *490:52 *1707:B1 9.99 
10 *490:52 *1685:A1 12.87 
11 *490:50 *490:76 0.81 
12 *490:76 *1690:B1 9.27 
13 *490:76 *490:87 2.61 
14 *490:87 *490:91 6.57 
15 *490:91 *490:93 0.54 
16 *490:93 *490:97 1.35 
17 *490:97 *1692:A1 5.94 
18 *490:97 *1605:A1 4.77 
19 *490:93 *1686:A1 16.47 
20 *490:91 *1615:A4 4.5 
21 *490:87 *1604:A4 10.8 
22 *490:46 *1611:A3 4.5 
23 *490:14 *1736:A1 4.5 
24 *490:10 *1613:A1 13.68 
*END

*D_NET *491 0.0158086
*CONN
*I *1515:A3 I *D gf180mcu_fd_sc_mcu7t5v0__nand4_1
*I *1500:A3 I *D gf180mcu_fd_sc_mcu7t5v0__nand4_1
*I *1495:A3 I *D gf180mcu_fd_sc_mcu7t5v0__and4_1
*I *1510:A3 I *D gf180mcu_fd_sc_mcu7t5v0__nand4_1
*I *1505:A3 I *D gf180mcu_fd_sc_mcu7t5v0__nand4_1
*I *1526:A3 I *D gf180mcu_fd_sc_mcu7t5v0__nand4_1
*I *1521:A3 I *D gf180mcu_fd_sc_mcu7t5v0__and4_1
*I *1531:A3 I *D gf180mcu_fd_sc_mcu7t5v0__nand4_1
*I *1936:Z O *D gf180mcu_fd_sc_mcu7t5v0__dlyb_1
*CAP
1 *1515:A3 0
2 *1500:A3 0
3 *1495:A3 0.00025104
4 *1510:A3 0
5 *1505:A3 0.000149138
6 *1526:A3 0.000145182
7 *1521:A3 0
8 *1531:A3 0.000143648
9 *1936:Z 0.00302158
10 *491:73 0.000416063
11 *491:49 0.000217797
12 *491:45 0.000529405
13 *491:43 0.000295722
14 *491:23 0.000210526
15 *491:12 0.00323058
16 *1495:A3 *1495:A2 0.000494048
17 *1495:A3 *1500:A2 5.82191e-05
18 *1495:A3 *1500:A4 7.2432e-05
19 *1505:A3 *581:91 0.000227854
20 *1505:A3 *583:10 0.000101615
21 *1505:A3 *583:73 0.000229402
22 *1526:A3 *1515:A4 0.000472339
23 *1526:A3 *1531:A4 8.3187e-05
24 *1531:A3 *1788:B2 1.68605e-05
25 *491:12 *518:130 0.00194183
26 *491:23 *1515:A4 0.000587394
27 *491:45 *1515:A2 3.57578e-05
28 *491:45 *1521:A4 0
29 *491:45 *492:235 0.00017696
30 *491:49 *492:235 7.20436e-05
31 *491:73 *1510:A4 6.79679e-05
32 *1496:C *1495:A3 2.16833e-05
33 *1496:C *491:45 4.5247e-05
34 *1496:C *491:49 1.77397e-05
35 *1496:C *491:73 4.20346e-05
36 *1501:B *491:12 0.000238074
37 *1511:B *491:45 2.40587e-06
38 *1515:A1 *491:45 1.19491e-05
39 *1521:A1 *1526:A3 4.76142e-05
40 *1522:C *1531:A3 0.000150746
41 *1522:C *491:23 2.57552e-05
42 *1522:C *491:45 1.31385e-05
43 *1527:B *1526:A3 0.000345279
44 *1532:B *1526:A3 9.97179e-05
45 *1532:B *1531:A3 0.000254794
46 *1532:B *491:23 0.000311071
47 *1592:B *1505:A3 1.24166e-05
48 *1881:D *1505:A3 0
49 *1882:D *1505:A3 0
50 *1882:D *491:73 2.84883e-05
51 *140:127 *1505:A3 9.08599e-05
52 *140:127 *491:49 7.55765e-06
53 *140:127 *491:73 1.68605e-05
54 *140:133 *491:73 0.00012775
55 *477:89 *1495:A3 0.000487326
56 *477:89 *491:73 0.000161479
57 *477:100 *491:45 0
*RES
1 *1936:Z *491:12 40.95 
2 *491:12 *1531:A3 10.71 
3 *491:12 *491:23 1.89 
4 *491:23 *1521:A3 9 
5 *491:23 *1526:A3 11.34 
6 *491:12 *491:43 4.5 
7 *491:43 *491:45 2.25 
8 *491:45 *491:49 0.72 
9 *491:49 *1505:A3 15.21 
10 *491:49 *1510:A3 4.5 
11 *491:45 *491:73 10.98 
12 *491:73 *1495:A3 7.56 
13 *491:73 *1500:A3 4.5 
14 *491:43 *1515:A3 4.5 
*END

*D_NET *492 0.104205
*CONN
*I *1778:A1 I *D gf180mcu_fd_sc_mcu7t5v0__nor2_1
*I *1594:B I *D gf180mcu_fd_sc_mcu7t5v0__aoi21_1
*I *1791:A1 I *D gf180mcu_fd_sc_mcu7t5v0__nor2_1
*I *1795:A1 I *D gf180mcu_fd_sc_mcu7t5v0__nor2_1
*I *1797:A1 I *D gf180mcu_fd_sc_mcu7t5v0__nor2_1
*I *1801:A1 I *D gf180mcu_fd_sc_mcu7t5v0__nor2_1
*I *1793:A1 I *D gf180mcu_fd_sc_mcu7t5v0__nor2_1
*I *1419:I I *D gf180mcu_fd_sc_mcu7t5v0__clkinv_1
*I *1630:B I *D gf180mcu_fd_sc_mcu7t5v0__aoi21_1
*I *1762:A2 I *D gf180mcu_fd_sc_mcu7t5v0__nor2_1
*I *1789:A1 I *D gf180mcu_fd_sc_mcu7t5v0__nor2_1
*I *1787:A1 I *D gf180mcu_fd_sc_mcu7t5v0__nor2_1
*I *1783:A1 I *D gf180mcu_fd_sc_mcu7t5v0__nor2_1
*I *1785:A1 I *D gf180mcu_fd_sc_mcu7t5v0__nor2_1
*I *1799:B I *D gf180mcu_fd_sc_mcu7t5v0__aoi21_1
*I *1592:C I *D gf180mcu_fd_sc_mcu7t5v0__aoi211_1
*I *1772:A1 I *D gf180mcu_fd_sc_mcu7t5v0__nor2_1
*I *1776:A1 I *D gf180mcu_fd_sc_mcu7t5v0__nor2_1
*I *1774:A1 I *D gf180mcu_fd_sc_mcu7t5v0__nor2_1
*I *1768:A1 I *D gf180mcu_fd_sc_mcu7t5v0__nor2_1
*I *1766:A1 I *D gf180mcu_fd_sc_mcu7t5v0__nor2_1
*I *1585:A2 I *D gf180mcu_fd_sc_mcu7t5v0__nor2_1
*I *1589:A2 I *D gf180mcu_fd_sc_mcu7t5v0__nor2_1
*I *1590:B2 I *D gf180mcu_fd_sc_mcu7t5v0__oai33_1
*I *1588:A3 I *D gf180mcu_fd_sc_mcu7t5v0__oai32_1
*I *1701:C I *D gf180mcu_fd_sc_mcu7t5v0__aoi211_1
*I *1699:A1 I *D gf180mcu_fd_sc_mcu7t5v0__nor4_1
*I *1668:A1 I *D gf180mcu_fd_sc_mcu7t5v0__nor3_1
*I *1761:A2 I *D gf180mcu_fd_sc_mcu7t5v0__nor2_1
*I *1770:A1 I *D gf180mcu_fd_sc_mcu7t5v0__nor2_1
*I *1780:A1 I *D gf180mcu_fd_sc_mcu7t5v0__nor2_1
*I *1937:Z O *D gf180mcu_fd_sc_mcu7t5v0__dlyb_1
*CAP
1 *1778:A1 3.27377e-05
2 *1594:B 1.88951e-05
3 *1791:A1 0.000774802
4 *1795:A1 0.000159265
5 *1797:A1 0.000123575
6 *1801:A1 0
7 *1793:A1 0
8 *1419:I 0.000151642
9 *1630:B 0.00121012
10 *1762:A2 0.000131679
11 *1789:A1 5.02606e-06
12 *1787:A1 0
13 *1783:A1 0
14 *1785:A1 0
15 *1799:B 0.000460131
16 *1592:C 0
17 *1772:A1 0
18 *1776:A1 0
19 *1774:A1 6.0323e-05
20 *1768:A1 0
21 *1766:A1 0.000423686
22 *1585:A2 0.000280908
23 *1589:A2 0
24 *1590:B2 0
25 *1588:A3 0
26 *1701:C 0
27 *1699:A1 4.63413e-05
28 *1668:A1 1.23394e-05
29 *1761:A2 0.000918752
30 *1770:A1 0.000479753
31 *1780:A1 0
32 *1937:Z 0.000419407
33 *492:345 0.00178389
34 *492:343 0.00127029
35 *492:331 0.000938066
36 *492:325 0.000465325
37 *492:317 0.00087444
38 *492:313 0.00233348
39 *492:296 0.00231368
40 *492:277 0.00104299
41 *492:262 0.000769276
42 *492:258 0.00126057
43 *492:247 0.000541691
44 *492:235 0.00106811
45 *492:209 0.00201334
46 *492:200 0.000967686
47 *492:198 0.000108903
48 *492:164 0.000866014
49 *492:140 0.000491147
50 *492:133 0.000534403
51 *492:120 0.00108238
52 *492:105 0.0016734
53 *492:58 0.00124427
54 *492:54 0.000703218
55 *492:52 0.00288354
56 *492:50 0.00232289
57 *492:33 0.00143168
58 *492:27 0.000756349
59 *492:25 0.000774948
60 *492:15 0.00135187
61 *492:6 0.000920164
62 *1585:A2 *557:8 0
63 *1594:B *1574:A2 9.04462e-05
64 *1594:B *559:67 1.23715e-05
65 *1630:B *1427:A2 0.000187886
66 *1630:B *1428:A2 0.00161763
67 *1630:B *516:14 0
68 *1630:B *517:6 0
69 *1630:B *567:20 0.000266818
70 *1761:A2 *1760:A2 8.75335e-06
71 *1791:A1 *1512:I1 0.000370046
72 *1791:A1 *1784:B2 0.000138345
73 *1791:A1 *1788:A1 0.000496785
74 *1791:A1 *1924:I 0.00017515
75 *1791:A1 *574:14 0.000255104
76 *1795:A1 *1967:I 0.000174911
77 *1797:A1 *1800:A2 0
78 *1799:B *1478:B 0
79 *1799:B *1479:A1 3.22348e-05
80 *1799:B *1479:A2 3.55118e-05
81 *1799:B *1505:A4 0.000372597
82 *1799:B *1798:A2 0
83 *1799:B *584:20 1.69023e-06
84 *492:6 *1771:B1 0
85 *492:6 *518:33 0
86 *492:52 *1698:B 0.000119954
87 *492:54 *1698:B 0.000178014
88 *492:58 *1698:B 0.000109143
89 *492:105 *1697:I1 0.000500948
90 *492:105 *556:25 0.000143051
91 *492:105 *565:6 0
92 *492:105 *565:23 0
93 *492:120 *556:25 0.000232206
94 *492:120 *585:14 6.40664e-06
95 *492:133 *1431:A2 4.53652e-05
96 *492:133 *1911:I 0.00016042
97 *492:133 *585:14 2.42085e-05
98 *492:133 *585:34 1.56708e-05
99 *492:209 *1495:A2 0
100 *492:209 *1798:A2 0.000288483
101 *492:209 *504:33 3.12497e-06
102 *492:209 *583:73 4.6613e-06
103 *492:235 *1495:A2 0
104 *492:235 *1515:A2 0.000478005
105 *492:235 *1531:A2 0.000539413
106 *492:235 *581:42 0.000532202
107 *492:235 *581:93 0.000161479
108 *492:235 *581:99 0.000278772
109 *492:235 *583:73 1.10228e-05
110 *492:247 *1509:A1 1.62696e-05
111 *492:247 *1574:A2 4.72947e-05
112 *492:247 *559:67 0.00107515
113 *492:247 *574:14 0.000146086
114 *492:247 *582:128 0.000126308
115 *492:258 *574:14 2.65444e-06
116 *492:262 *1631:I2 2.39814e-05
117 *492:262 *1928:I 9.75861e-06
118 *492:277 *558:27 5.44009e-05
119 *492:277 *582:43 0.000152138
120 *492:296 *1915:I 5.41725e-05
121 *492:296 *504:33 0.000151537
122 *492:296 *582:43 4.63487e-05
123 *492:296 *582:56 5.92728e-05
124 *492:313 *504:33 0.000462686
125 *492:313 *563:12 0.00107429
126 *492:317 *1450:A1 1.20708e-05
127 *492:317 *563:12 0.000536348
128 *492:317 *564:44 8.72359e-05
129 *492:317 *564:52 0.000101812
130 *492:343 *1910:I 3.08806e-06
131 *492:343 *560:16 6.8023e-06
132 *492:345 *1910:I 4.55978e-05
133 *492:345 *523:10 0.00033971
134 *1445:A2 *492:343 6.68757e-05
135 *1446:A3 *492:331 0.000382884
136 *1446:A3 *492:343 8.33579e-05
137 *1450:A2 *1797:A1 0
138 *1451:A3 *1797:A1 0.000286386
139 *1451:A3 *492:317 1.3026e-05
140 *1451:A3 *492:325 0.000428433
141 *1455:A2 *492:343 0.00023506
142 *1457:A1 *492:317 0
143 *1474:A4 *492:52 3.78209e-05
144 *1496:C *492:235 0.00168901
145 *1501:A1 *492:277 1.18477e-05
146 *1502:S *492:277 0.000127214
147 *1506:B *492:296 3.97987e-05
148 *1507:I0 *492:262 0
149 *1507:I0 *492:277 9.84908e-05
150 *1507:I0 *492:296 0.000330318
151 *1511:A1 *492:247 0.000754291
152 *1511:A1 *492:258 0.000337078
153 *1516:B *492:296 1.70086e-05
154 *1520:B1 *492:296 0.000315369
155 *1522:C *492:235 0.000268684
156 *1527:A1 *1789:A1 0.000106536
157 *1527:A2 *492:296 0.000363688
158 *1527:A2 *492:313 0.000588725
159 *1527:B *1791:A1 0.000252588
160 *1527:B *492:262 0.000101355
161 *1533:I0 *1791:A1 0.000204502
162 *1543:A1 *492:52 1.00759e-05
163 *1543:A3 *492:52 7.45535e-06
164 *1549:A2 *492:52 0.00011019
165 *1549:B2 *492:120 6.35387e-05
166 *1550:A2 *492:52 4.7231e-06
167 *1552:A1 *1585:A2 0
168 *1552:A1 *492:140 0
169 *1553:A1 *492:164 9.14077e-06
170 *1557:B *492:52 0.000203424
171 *1557:C *492:52 8.26766e-05
172 *1558:A2 *1770:A1 9.09626e-05
173 *1558:A2 *492:50 6.20146e-05
174 *1558:A2 *492:52 2.5666e-05
175 *1561:C *1770:A1 3.19379e-05
176 *1565:A1 *492:50 1.1941e-06
177 *1566:A2 *492:164 0.000152207
178 *1566:A3 *492:52 1.75833e-05
179 *1566:A3 *492:164 9.04462e-05
180 *1566:B1 *492:33 3.44029e-05
181 *1566:B1 *492:50 9.18491e-06
182 *1567:A1 *1774:A1 0.000182206
183 *1567:A2 *1774:A1 0.00016583
184 *1567:A2 *492:25 0.000215089
185 *1567:A2 *492:33 0.000285513
186 *1568:A1 *492:25 0
187 *1571:B1 *1799:B 0.00022164
188 *1571:B2 *492:15 5.24647e-06
189 *1576:A2 *492:209 0
190 *1576:B *492:25 0.000121621
191 *1577:A1 *492:209 9.90342e-05
192 *1577:A2 *492:25 0.000427025
193 *1582:A1 *1799:B 2.30981e-05
194 *1582:A2 *1799:B 5.23429e-06
195 *1585:A1 *492:140 0
196 *1588:B2 *492:133 4.71078e-05
197 *1589:A1 *1585:A2 4.08207e-05
198 *1589:A1 *492:133 3.55118e-05
199 *1589:A1 *492:140 0.000853515
200 *1590:A3 *492:133 0.000925861
201 *1591:A1 *492:247 0
202 *1592:A2 *1799:B 0.000104054
203 *1592:B *492:235 0.000139148
204 *1630:A1 *1630:B 3.55118e-05
205 *1631:S1 *1789:A1 3.22122e-05
206 *1634:A1 *492:262 0.0014126
207 *1637:A2 *492:343 0
208 *1656:B2 *492:331 5.30888e-06
209 *1664:A1 *1630:B 0.000287975
210 *1675:S *492:247 0.000365635
211 *1699:A4 *1668:A1 9.12635e-05
212 *1699:A4 *492:58 1.92385e-05
213 *1701:B *492:105 9.04462e-05
214 *1718:C *1761:A2 1.49501e-05
215 *1719:A1 *1761:A2 0.000157047
216 *1720:A1 *1761:A2 0.000177411
217 *1722:A2 *1761:A2 0.0014453
218 *1722:A2 *492:58 1.17585e-05
219 *1722:B *1761:A2 0.000843771
220 *1723:A1 *1761:A2 0.00074501
221 *1723:B *1761:A2 0.00110785
222 *1764:A2 *492:25 1.71254e-05
223 *1767:A1 *492:6 0
224 *1768:A2 *492:6 0
225 *1772:A2 *1778:A1 0.000119878
226 *1773:A2 *492:6 2.39483e-05
227 *1780:A2 *492:6 3.98088e-05
228 *1780:A2 *492:15 0.00015959
229 *1783:A2 *1791:A1 0.000134939
230 *1783:A2 *492:262 0.000116826
231 *1787:A2 *492:277 0.000358535
232 *1795:A2 *1795:A1 0.000109569
233 *1798:A1 *492:209 3.29477e-05
234 *1799:A1 *1799:B 0.000814533
235 *1800:B *492:317 0.000251568
236 *1801:A2 *492:317 0
237 *1801:A2 *492:325 0.000255088
238 *1806:D *1630:B 0.000109333
239 *1815:D *492:120 9.02221e-05
240 *1817:D *1699:A1 4.65521e-05
241 *1817:CLK *1699:A1 0.000144257
242 *1818:D *492:105 0.000127736
243 *1822:D *1630:B 1.50737e-05
244 *1831:CLK *1419:I 1.51153e-05
245 *1831:CLK *492:343 0.000135666
246 *1831:CLK *492:345 0.00022921
247 *1839:D *1770:A1 9.63432e-05
248 *1840:D *492:6 0.000618493
249 *1840:D *492:15 0.000743222
250 *1840:CLK *492:15 0
251 *1842:D *492:25 0.000152367
252 *1846:D *492:247 0.000163092
253 *1847:D *492:277 9.06417e-05
254 *1850:D *492:331 8.10176e-05
255 *1850:D *492:343 4.83522e-05
256 *1852:D *1797:A1 2.93938e-05
257 *1852:D *492:313 0.000335943
258 *1852:D *492:317 0.000533849
259 *1853:D *1778:A1 0.000466036
260 *1853:D *492:25 0.000129087
261 *1853:D *492:198 6.05946e-05
262 *1854:D *492:317 0
263 *1858:D *492:325 0
264 *1858:CLK *492:331 3.12451e-05
265 *1858:CLK *492:343 0.000108692
266 *1863:CLK *492:296 0
267 *1864:D *492:296 6.13973e-05
268 *1874:CLK *1766:A1 0
269 *1875:D *1766:A1 0.000115999
270 *1875:D *492:164 0.000182424
271 *1877:D *492:15 7.15661e-05
272 *1878:D *492:209 9.41715e-06
273 *1878:CLK *492:209 0
274 *1879:D *492:120 0.000390584
275 *1879:D *492:133 0.000526079
276 *1880:D *492:120 0
277 *1881:D *1799:B 6.17613e-06
278 *1883:CLK *1585:A2 9.92078e-05
279 *1884:CLK *1585:A2 5.79792e-06
280 *1885:D *1630:B 0.000163566
281 *1886:D *1630:B 0.000782491
282 *10:24 *1774:A1 4.04833e-05
283 *10:24 *492:33 1.7301e-05
284 *129:12 *492:133 0.000190246
285 *131:44 *492:164 2.09156e-05
286 *140:127 *492:235 6.75054e-06
287 *141:129 *492:313 0
288 *142:10 *1419:I 0.000496785
289 *142:10 *492:343 0.000215722
290 *142:64 *492:343 0.00433121
291 *142:203 *492:325 5.13763e-05
292 *142:203 *492:331 0.000320271
293 *144:27 *492:133 4.34199e-06
294 *146:23 *492:52 6.70549e-05
295 *146:36 *492:52 0.000123239
296 *149:12 *1774:A1 4.83237e-05
297 *149:12 *492:33 0.000333447
298 *176:43 *492:247 0.000169908
299 *179:104 *492:277 0.000257005
300 *179:104 *492:296 3.01487e-05
301 *193:137 *1799:B 0.00012775
302 *205:22 *1770:A1 0.000147801
303 *206:37 *492:25 0.000800911
304 *206:58 *492:25 0.000226832
305 *208:43 *492:258 0.00040953
306 *240:10 *492:25 0.000320271
307 *240:28 *492:25 0.000283821
308 *240:43 *492:25 0.000562027
309 *242:12 *492:25 0.000758698
310 *245:10 *492:133 5.50497e-05
311 *246:10 *492:164 5.62899e-05
312 *247:8 *492:52 7.4601e-06
313 *249:8 *492:52 0.000261354
314 *257:10 *492:164 1.17652e-05
315 *273:8 *492:25 0.00072417
316 *288:12 *492:54 0.000186024
317 *288:12 *492:58 0.000149891
318 *288:16 *492:58 0.000613229
319 *288:29 *1761:A2 0.000956316
320 *288:29 *492:58 2.70227e-05
321 *290:10 *1761:A2 6.71645e-05
322 *290:10 *492:58 1.17934e-05
323 *316:43 *1630:B 1.74018e-05
324 *317:16 *1761:A2 3.12451e-05
325 *322:12 *1630:B 2.31089e-05
326 *359:10 *1668:A1 9.12635e-05
327 *359:10 *1761:A2 0.000343854
328 *359:40 *492:120 4.0961e-06
329 *361:30 *492:105 6.99656e-05
330 *361:30 *492:120 0.00015554
331 *396:8 *1761:A2 3.3721e-05
332 *434:40 *492:296 0.00190352
333 *447:159 *1770:A1 5.97725e-05
334 *448:35 *492:52 4.50117e-05
335 *448:84 *492:33 2.65028e-05
336 *448:94 *1770:A1 9.13516e-05
337 *451:12 *1766:A1 7.55765e-06
338 *451:26 *1770:A1 0.000249572
339 *451:26 *492:50 1.1256e-05
340 *451:39 *492:33 7.04606e-05
341 *451:69 *1774:A1 3.91591e-05
342 *451:69 *492:33 2.15995e-05
343 *458:22 *492:343 0
344 *459:29 *492:343 9.99638e-05
345 *460:16 *492:343 0.00277516
346 *467:8 *492:343 0.001402
347 *472:38 *1761:A2 0.000145765
348 *473:32 *492:120 8.81006e-05
349 *473:45 *492:120 0.000133728
350 *474:17 *1419:I 0
351 *474:19 *492:345 0.000140508
352 *474:21 *492:345 0.00017213
353 *474:25 *1762:A2 0.000169917
354 *474:25 *492:345 0.000296375
355 *476:15 *492:25 7.94868e-06
356 *476:21 *492:25 4.24724e-05
357 *477:6 *492:209 0
358 *477:23 *492:209 0
359 *478:14 *492:296 2.26729e-05
360 *483:16 *1419:I 0
361 *484:71 *492:105 0
362 *485:18 *1761:A2 3.76284e-05
363 *485:22 *1761:A2 5.47541e-05
364 *485:26 *1761:A2 4.10656e-05
365 *486:20 *1761:A2 0
366 *486:103 *1761:A2 0
367 *491:45 *492:235 0.00017696
368 *491:49 *492:235 7.20436e-05
*RES
1 *1937:Z *492:6 7.65 
2 *492:6 *1780:A1 4.5 
3 *492:6 *492:15 9.09 
4 *492:15 *492:25 15.48 
5 *492:25 *492:27 4.5 
6 *492:27 *492:33 9.36 
7 *492:33 *1770:A1 16.92 
8 *492:33 *492:50 6.03 
9 *492:50 *492:52 10.89 
10 *492:52 *492:54 2.43 
11 *492:54 *492:58 2.7 
12 *492:58 *1761:A2 31.23 
13 *492:58 *1668:A1 9.27 
14 *492:54 *1699:A1 9.45 
15 *492:52 *492:105 11.79 
16 *492:105 *1701:C 4.5 
17 *492:105 *492:120 11.88 
18 *492:120 *1588:A3 9 
19 *492:120 *492:133 9.36 
20 *492:133 *1590:B2 4.5 
21 *492:133 *492:140 2.43 
22 *492:140 *1589:A2 4.5 
23 *492:140 *1585:A2 6.93 
24 *492:50 *492:164 8.01 
25 *492:164 *1766:A1 7.65 
26 *492:164 *1768:A1 4.5 
27 *492:27 *1774:A1 10.17 
28 *492:25 *1776:A1 4.5 
29 *492:15 *492:198 0.72 
30 *492:198 *492:200 4.5 
31 *492:200 *1772:A1 4.5 
32 *492:200 *492:209 6.66 
33 *492:209 *1592:C 4.5 
34 *492:209 *1799:B 18.72 
35 *492:209 *492:235 17.82 
36 *492:235 *492:247 15.48 
37 *492:247 *1785:A1 4.5 
38 *492:247 *492:258 5.94 
39 *492:258 *492:262 9.45 
40 *492:262 *1783:A1 4.5 
41 *492:262 *492:277 12.87 
42 *492:277 *1787:A1 4.5 
43 *492:277 *492:296 18.45 
44 *492:296 *1789:A1 13.77 
45 *492:296 *492:313 18.9 
46 *492:313 *492:317 10.89 
47 *492:317 *492:325 6.93 
48 *492:325 *492:331 7.38 
49 *492:331 *492:343 22.05 
50 *492:343 *492:345 5.31 
51 *492:345 *1762:A2 9.99 
52 *492:345 *1630:B 22.23 
53 *492:343 *1419:I 10.53 
54 *492:331 *1793:A1 4.5 
55 *492:325 *1801:A1 9 
56 *492:317 *1797:A1 5.67 
57 *492:313 *1795:A1 10.35 
58 *492:258 *1791:A1 17.28 
59 *492:235 *1594:B 4.77 
60 *492:198 *1778:A1 10.17 
*END

*D_NET *493 0.00102126
*CONN
*I *1887:D I *D gf180mcu_fd_sc_mcu7t5v0__dffq_1
*I *1938:Z O *D gf180mcu_fd_sc_mcu7t5v0__dlyb_1
*CAP
1 *1887:D 0.000498989
2 *1938:Z 0.000498989
3 *1887:D *1888:D 2.32821e-05
4 *1887:D *1908:I 0
*RES
1 *1938:Z *1887:D 21.42 
*END

*D_NET *494 0.00151013
*CONN
*I *1889:D I *D gf180mcu_fd_sc_mcu7t5v0__dffq_1
*I *1939:Z O *D gf180mcu_fd_sc_mcu7t5v0__dlyb_1
*CAP
1 *1889:D 0.000452627
2 *1939:Z 0.000452627
3 *1889:D *1890:D 1.10551e-05
4 *1833:D *1889:D 1.79733e-05
5 *1889:CLK *1889:D 0
6 *1890:CLK *1889:D 0.000575844
*RES
1 *1939:Z *1889:D 12.6 
*END

*D_NET *495 0.000805462
*CONN
*I *1950:I I *D gf180mcu_fd_sc_mcu7t5v0__dlyb_1
*I *1932:I I *D gf180mcu_fd_sc_mcu7t5v0__dlyc_1
*I *1837:Q O *D gf180mcu_fd_sc_mcu7t5v0__dffq_1
*CAP
1 *1950:I 0
2 *1932:I 0.000115287
3 *1837:Q 0.000174775
4 *495:12 0.000290062
5 *1932:I *1771:B1 4.83522e-05
6 *495:12 *1767:B2 3.72839e-05
7 *495:12 *1771:B1 7.20334e-05
8 *1842:D *495:12 0
9 *1937:I *1932:I 6.76694e-05
*RES
1 *1837:Q *495:12 15.12 
2 *495:12 *1932:I 5.49 
3 *495:12 *1950:I 4.5 
*END

*D_NET *496 0.00366765
*CONN
*I *1951:I I *D gf180mcu_fd_sc_mcu7t5v0__dlyb_1
*I *1767:B2 I *D gf180mcu_fd_sc_mcu7t5v0__aoi22_1
*I *1838:Q O *D gf180mcu_fd_sc_mcu7t5v0__dffq_1
*CAP
1 *1951:I 0.000184895
2 *1767:B2 0.000491039
3 *1838:Q 0
4 *496:4 0.000675934
5 *1767:B2 *518:52 0.000478175
6 ADDR_O[0] *1767:B2 0
7 ADDR_O[0] *1951:I 0.000166843
8 *1842:CLK *1767:B2 0.00025367
9 *1937:I *1767:B2 0.00137509
10 *1937:I *1951:I 0
11 *279:55 *1767:B2 4.72305e-06
12 *495:12 *1767:B2 3.72839e-05
*RES
1 *1838:Q *496:4 4.5 
2 *496:4 *1767:B2 20.16 
3 *496:4 *1951:I 6.12 
*END

*D_NET *497 0.00920157
*CONN
*I *1952:I I *D gf180mcu_fd_sc_mcu7t5v0__dlyb_1
*I *1769:B2 I *D gf180mcu_fd_sc_mcu7t5v0__aoi22_1
*I *1839:Q O *D gf180mcu_fd_sc_mcu7t5v0__dffq_1
*CAP
1 *1952:I 0.00126369
2 *1769:B2 0.000270119
3 *1839:Q 0
4 *497:4 0.0015338
5 *1769:B2 *1765:B2 8.43025e-06
6 *1769:B2 *1769:B1 6.23828e-05
7 *1769:B2 *518:58 0.000182682
8 *1952:I *1775:B1 0
9 *1952:I *1775:B2 0
10 *1952:I *518:58 8.81508e-05
11 *1429:A3 *1952:I 0.000158798
12 *1571:B1 *1952:I 0
13 *1572:A1 *1952:I 1.23715e-05
14 *1765:A2 *1769:B2 1.31271e-05
15 *1769:A2 *1769:B2 0.000303031
16 *1776:A2 *1952:I 0.000117788
17 *1780:A2 *1952:I 0.000788072
18 *1837:D *1769:B2 0.000156008
19 *1838:CLK *1769:B2 4.79071e-05
20 *1842:D *1769:B2 1.28865e-05
21 *1877:CLK *1952:I 1.56779e-05
22 *262:23 *1952:I 0
23 *272:10 *1952:I 0.000129597
24 *279:63 *1769:B2 2.38751e-06
25 *279:63 *1952:I 2.54602e-05
26 *450:10 *1769:B2 0.000216103
27 *452:8 *1952:I 0.000164228
28 *453:15 *1952:I 0.000908483
29 *476:15 *1952:I 0
30 *476:47 *1952:I 0.000528808
31 *476:49 *1769:B2 0.000486059
32 *476:49 *1952:I 0.0014524
33 *476:53 *1769:B2 0.000181628
34 *476:55 *1769:B2 7.14936e-05
*RES
1 *1839:Q *497:4 4.5 
2 *497:4 *1769:B2 17.55 
3 *497:4 *1952:I 36.36 
*END

*D_NET *498 0.00434832
*CONN
*I *1771:B2 I *D gf180mcu_fd_sc_mcu7t5v0__aoi22_1
*I *1953:I I *D gf180mcu_fd_sc_mcu7t5v0__dlyb_1
*I *1840:Q O *D gf180mcu_fd_sc_mcu7t5v0__dffq_1
*CAP
1 *1771:B2 0.000353461
2 *1953:I 0
3 *1840:Q 0.000478826
4 *498:12 0.000832288
5 *1771:B2 *1771:B1 0.00138956
6 *1771:B2 *500:12 9.34006e-05
7 *498:12 *1771:B1 0.000692382
8 ADDR_O[0] *498:12 0.000177559
9 *1772:A2 *1771:B2 5.78854e-06
10 *1842:CLK *498:12 5.97936e-05
11 *1843:D *498:12 0.000198053
12 *279:51 *498:12 8.68281e-06
13 *477:48 *498:12 5.85252e-05
*RES
1 *1840:Q *498:12 13.95 
2 *498:12 *1953:I 9 
3 *498:12 *1771:B2 13.14 
*END

*D_NET *499 0.00523428
*CONN
*I *1954:I I *D gf180mcu_fd_sc_mcu7t5v0__dlyb_1
*I *1773:B2 I *D gf180mcu_fd_sc_mcu7t5v0__aoi22_1
*I *1841:Q O *D gf180mcu_fd_sc_mcu7t5v0__dffq_1
*CAP
1 *1954:I 0.000472066
2 *1773:B2 0
3 *1841:Q 0.000443182
4 *499:14 0.000915249
5 *1954:I *1775:B1 4.21768e-05
6 *1954:I *1775:B2 3.11077e-05
7 *1954:I *1777:B2 9.80657e-05
8 *1954:I *1956:I 0.000222613
9 *1954:I *518:31 7.09607e-05
10 *499:14 *518:31 2.08352e-05
11 *1571:A1 *499:14 0.000180381
12 *1767:A1 *499:14 4.45971e-05
13 *1771:A2 *1954:I 1.35491e-05
14 *1772:A2 *1954:I 2.6676e-05
15 *1773:A1 *499:14 0.00124589
16 *1774:A2 *499:14 6.17613e-06
17 *1840:CLK *499:14 1.56206e-05
18 *1843:D *1954:I 0
19 *1844:D *1954:I 0.000659533
20 *1844:D *499:14 0.000693934
21 *452:8 *499:14 0
22 *476:49 *499:14 3.16606e-05
*RES
1 *1841:Q *499:14 14.4 
2 *499:14 *1773:B2 9 
3 *499:14 *1954:I 13.68 
*END

*D_NET *500 0.00477611
*CONN
*I *1955:I I *D gf180mcu_fd_sc_mcu7t5v0__dlyb_1
*I *1775:B2 I *D gf180mcu_fd_sc_mcu7t5v0__aoi22_1
*I *1842:Q O *D gf180mcu_fd_sc_mcu7t5v0__dffq_1
*CAP
1 *1955:I 0
2 *1775:B2 0.000352606
3 *1842:Q 0.00106687
4 *500:12 0.00141948
5 *1775:B2 *1775:B1 0.000256675
6 *1775:B2 *1956:I 3.63092e-05
7 *500:12 *501:10 0.000829694
8 *500:12 *503:14 0.000495276
9 ADDR_O[3] *500:12 0.00013531
10 ADDR_O[4] *500:12 4.6353e-05
11 ADDR_O[5] *500:12 1.3026e-05
12 *1771:B2 *500:12 9.34006e-05
13 *1772:A2 *500:12 0
14 *1952:I *1775:B2 0
15 *1954:I *1775:B2 3.11077e-05
*RES
1 *1842:Q *500:12 17.55 
2 *500:12 *1775:B2 12.06 
3 *500:12 *1955:I 9 
*END

*D_NET *501 0.0054372
*CONN
*I *1956:I I *D gf180mcu_fd_sc_mcu7t5v0__dlyb_1
*I *1777:B2 I *D gf180mcu_fd_sc_mcu7t5v0__aoi22_1
*I *1843:Q O *D gf180mcu_fd_sc_mcu7t5v0__dffq_1
*CAP
1 *1956:I 0.000493185
2 *1777:B2 0.000489889
3 *1843:Q 0.000427366
4 *501:10 0.00141044
5 *1777:B2 *1775:B1 1.39839e-05
6 *1956:I *1775:B1 0
7 ADDR_O[2] *501:10 0.000103693
8 ADDR_O[3] *501:10 0.000368541
9 ADDR_O[4] *501:10 0.000236608
10 *1771:A2 *1777:B2 8.8011e-05
11 *1771:A2 *501:10 3.11532e-05
12 *1772:A2 *1956:I 0.000292073
13 *1775:B2 *1956:I 3.63092e-05
14 *1843:D *1777:B2 6.30159e-05
15 *1844:D *1777:B2 9.01347e-05
16 *1954:I *1777:B2 9.80657e-05
17 *1954:I *1956:I 0.000222613
18 *279:40 *1777:B2 2.31089e-05
19 *279:51 *1777:B2 0.000119315
20 *500:12 *501:10 0.000829694
*RES
1 *1843:Q *501:10 13.32 
2 *501:10 *1777:B2 12.78 
3 *501:10 *1956:I 13.23 
*END

*D_NET *502 0.00299928
*CONN
*I *1495:A4 I *D gf180mcu_fd_sc_mcu7t5v0__and4_1
*I *1940:Z O *D gf180mcu_fd_sc_mcu7t5v0__dlyb_1
*CAP
1 *1495:A4 0.000924681
2 *1940:Z 0.000924681
3 *1495:A4 *1505:A4 0.00114991
4 *1495:A4 *1779:B2 0
5 *454:10 *1495:A4 0
6 *477:81 *1495:A4 0
*RES
1 *1940:Z *1495:A4 25.2 
*END

*D_NET *503 0.0053737
*CONN
*I *1957:I I *D gf180mcu_fd_sc_mcu7t5v0__dlyb_1
*I *1779:B2 I *D gf180mcu_fd_sc_mcu7t5v0__aoi22_1
*I *1844:Q O *D gf180mcu_fd_sc_mcu7t5v0__dffq_1
*CAP
1 *1957:I 0
2 *1779:B2 0.000557824
3 *1844:Q 0.000803462
4 *503:14 0.00136129
5 *503:14 *504:14 9.67043e-05
6 ADDR_O[2] *503:14 0.000664621
7 ADDR_O[4] *503:14 9.69917e-05
8 ADDR_O[5] *503:14 0.000171129
9 ADDR_O[6] *503:14 0.000177559
10 ADDR_O[7] *503:14 0.000294421
11 *1495:A4 *1779:B2 0
12 *1772:A2 *1779:B2 0
13 *1772:A2 *503:14 5.4279e-05
14 *1780:A2 *1779:B2 0.000145265
15 *1853:D *1779:B2 4.79098e-05
16 *1940:I *503:14 1.18076e-06
17 *279:34 *1779:B2 0.000306084
18 *454:10 *1779:B2 9.5364e-05
19 *477:23 *1779:B2 4.34467e-06
20 *500:12 *503:14 0.000495276
*RES
1 *1844:Q *503:14 17.28 
2 *503:14 *1779:B2 14.04 
3 *503:14 *1957:I 9 
*END

*D_NET *504 0.0197813
*CONN
*I *1958:I I *D gf180mcu_fd_sc_mcu7t5v0__dlyb_1
*I *1891:I I *D gf180mcu_fd_sc_mcu7t5v0__buf_1
*I *1798:B I *D gf180mcu_fd_sc_mcu7t5v0__oai21_1
*I *1853:Q O *D gf180mcu_fd_sc_mcu7t5v0__dffq_1
*CAP
1 *1958:I 0
2 *1891:I 6.10699e-06
3 *1798:B 0
4 *1853:Q 0.00125125
5 *504:35 6.10699e-06
6 *504:33 0.00568207
7 *504:14 0.00693332
8 *1891:I *563:12 0.000319294
9 *1891:I *564:44 0.000319294
10 *504:14 *1500:A4 0.000236501
11 *504:33 *1798:A2 0.000193724
12 ADDR_O[7] *504:14 0.000436478
13 *1527:A2 *504:33 3.78484e-05
14 *1534:A1 *504:33 0
15 *1576:A2 *504:33 9.35086e-05
16 *1579:A3 *504:33 0.000353651
17 *1579:B1 *504:33 0
18 *1580:A2 *504:33 0
19 *1592:A2 *504:33 0
20 *1798:A1 *504:33 1.61174e-05
21 *1799:A2 *504:33 0.000130361
22 *1892:I *504:33 0.000814144
23 *1897:I *504:33 0
24 *1898:I *504:33 9.06915e-05
25 *1905:I *504:14 0.000111971
26 *1905:I *504:33 0.000296375
27 *1940:I *504:14 0.000104278
28 *1941:I *504:14 5.05894e-05
29 *157:33 *504:33 0
30 *241:14 *504:33 0.00126518
31 *241:49 *504:33 0.000126819
32 *241:64 *504:33 0.000135174
33 *241:70 *504:33 0
34 *454:10 *504:14 0
35 *454:12 *504:14 0
36 *477:6 *504:33 3.54696e-05
37 *477:23 *504:33 2.09122e-05
38 *492:209 *504:33 3.12497e-06
39 *492:296 *504:33 0.000151537
40 *492:313 *504:33 0.000462686
41 *503:14 *504:14 9.67043e-05
*RES
1 *1853:Q *504:14 23.49 
2 *504:14 *1798:B 4.5 
3 *504:14 *504:33 48.51 
4 *504:33 *504:35 4.5 
5 *504:35 *1891:I 9.81 
6 *504:35 *1958:I 9 
*END

*D_NET *505 0.00168494
*CONN
*I *1959:I I *D gf180mcu_fd_sc_mcu7t5v0__dlyb_1
*I *1919:I I *D gf180mcu_fd_sc_mcu7t5v0__dlyc_1
*I *1845:Q O *D gf180mcu_fd_sc_mcu7t5v0__dffq_1
*CAP
1 *1959:I 0.000111855
2 *1919:I 0.000314592
3 *1845:Q 0
4 *505:4 0.000426448
5 *1919:I *1786:A2 0.000133728
6 *1919:I *1790:A1 0.000336951
7 *1959:I *1786:A1 4.5615e-05
8 *1959:I *1786:A2 3.22122e-05
9 *1959:I *1786:B2 0
10 *1959:I *1790:A1 0.000196928
11 *1786:B1 *1919:I 8.66077e-05
12 *1946:I *1919:I 0
*RES
1 *1845:Q *505:4 4.5 
2 *505:4 *1919:I 16.74 
3 *505:4 *1959:I 5.85 
*END

*D_NET *506 0.00181674
*CONN
*I *1918:I I *D gf180mcu_fd_sc_mcu7t5v0__dlyc_1
*I *1960:I I *D gf180mcu_fd_sc_mcu7t5v0__dlyb_1
*I *1846:Q O *D gf180mcu_fd_sc_mcu7t5v0__dffq_1
*CAP
1 *1918:I 0.000201777
2 *1960:I 0.000150937
3 *1846:Q 0.000161496
4 *506:8 0.000514211
5 *1918:I *1790:A1 0
6 *506:8 *1790:A1 0
7 DAT_O[1] *1918:I 0.000169524
8 DAT_O[1] *506:8 0.000163092
9 DAT_O[2] *1918:I 0.000106536
10 *1787:A2 *1960:I 0.000194259
11 *1787:A2 *506:8 0.000154907
*RES
1 *1846:Q *506:8 6.12 
2 *506:8 *1960:I 15.03 
3 *506:8 *1918:I 6.21 
*END

*D_NET *507 0.00321097
*CONN
*I *1961:I I *D gf180mcu_fd_sc_mcu7t5v0__dlyb_1
*I *1917:I I *D gf180mcu_fd_sc_mcu7t5v0__dlyc_1
*I *1847:Q O *D gf180mcu_fd_sc_mcu7t5v0__dffq_1
*CAP
1 *1961:I 0
2 *1917:I 0.000650195
3 *1847:Q 0.000426388
4 *507:12 0.00107658
5 *1917:I *559:12 0.000310854
6 *1917:I *559:106 1.24166e-05
7 *507:12 *1790:A1 0.000499457
8 *507:12 *508:12 0
9 DAT_O[3] *507:12 2.29071e-05
10 DAT_O[4] *507:12 0
11 *1516:B *1917:I 0.000174497
12 *1789:A2 *1917:I 3.76765e-05
13 *1847:D *507:12 0
14 *1848:D *1917:I 0
*RES
1 *1847:Q *507:12 17.1 
2 *507:12 *1917:I 18.63 
3 *507:12 *1961:I 4.5 
*END

*D_NET *508 0.00518582
*CONN
*I *1962:I I *D gf180mcu_fd_sc_mcu7t5v0__dlyb_1
*I *1921:I I *D gf180mcu_fd_sc_mcu7t5v0__dlyc_1
*I *1848:Q O *D gf180mcu_fd_sc_mcu7t5v0__dffq_1
*CAP
1 *1962:I 0
2 *1921:I 0.000557119
3 *1848:Q 0.000446368
4 *508:12 0.00100349
5 *1921:I *1632:I0 0.0008099
6 *1921:I *1792:A1 0
7 *1921:I *518:130 0
8 DAT_O[3] *508:12 9.85004e-05
9 DAT_O[4] *508:12 0.000308081
10 *1533:I0 *1921:I 0.00136213
11 *1809:CLK *1921:I 0.000137181
12 *1810:D *1921:I 0.000344002
13 *1848:D *1921:I 0.000119046
14 *507:12 *508:12 0
*RES
1 *1848:Q *508:12 12.69 
2 *508:12 *1921:I 16.38 
3 *508:12 *1962:I 9 
*END

*D_NET *509 0.010691
*CONN
*I *1963:I I *D gf180mcu_fd_sc_mcu7t5v0__dlyb_1
*I *1790:A1 I *D gf180mcu_fd_sc_mcu7t5v0__aoi22_1
*I *1849:Q O *D gf180mcu_fd_sc_mcu7t5v0__dffq_1
*CAP
1 *1963:I 0
2 *1790:A1 0.00226738
3 *1849:Q 0.00101229
4 *509:14 0.00327967
5 *1790:A1 *1515:A4 0
6 *1790:A1 *1531:A4 0.000300509
7 *1790:A1 *1782:A1 0.000712019
8 *1790:A1 *1786:A1 0
9 *1790:A1 *1788:B2 0.000131521
10 *509:14 *1922:I 1.96635e-05
11 DAT_O[3] *1790:A1 0
12 DAT_O[4] *1790:A1 0
13 DAT_O[5] *509:14 0.00112998
14 DAT_O[6] *509:14 0.000412946
15 *1527:B *1790:A1 7.10395e-05
16 *1786:B1 *1790:A1 0.000171686
17 *1846:D *1790:A1 0
18 *1847:D *1790:A1 0
19 *1848:D *1790:A1 0
20 *1849:D *1790:A1 0
21 *1918:I *1790:A1 0
22 *1919:I *1790:A1 0.000336951
23 *1959:I *1790:A1 0.000196928
24 *434:107 *1790:A1 0.000100647
25 *477:100 *1790:A1 4.83237e-05
26 *506:8 *1790:A1 0
27 *507:12 *1790:A1 0.000499457
*RES
1 *1849:Q *509:14 22.41 
2 *509:14 *1790:A1 31.68 
3 *509:14 *1963:I 4.5 
*END

*D_NET *510 0.00372635
*CONN
*I *1929:I I *D gf180mcu_fd_sc_mcu7t5v0__dlyc_1
*I *1964:I I *D gf180mcu_fd_sc_mcu7t5v0__dlyb_1
*I *1850:Q O *D gf180mcu_fd_sc_mcu7t5v0__dffq_1
*CAP
1 *1929:I 0.000328104
2 *1964:I 0
3 *1850:Q 0.000396923
4 *510:10 0.000725028
5 *510:10 *1792:A1 0.000588913
6 *510:10 *1966:I 0.000184352
7 DAT_O[6] *1929:I 0.000114321
8 DAT_O[7] *1929:I 0.000248965
9 DAT_O[7] *510:10 0.000330616
10 *1849:D *510:10 0.000733735
11 *479:10 *510:10 7.5391e-05
*RES
1 *1850:Q *510:10 15.66 
2 *510:10 *1964:I 9 
3 *510:10 *1929:I 12.06 
*END

*D_NET *511 0.00862231
*CONN
*I *1965:I I *D gf180mcu_fd_sc_mcu7t5v0__dlyb_1
*I *1920:I I *D gf180mcu_fd_sc_mcu7t5v0__dlyc_1
*I *1851:Q O *D gf180mcu_fd_sc_mcu7t5v0__dffq_1
*CAP
1 *1965:I 0.000435482
2 *1920:I 0.000354785
3 *1851:Q 6.19063e-05
4 *511:8 0.000852173
5 *1920:I *1796:A1 0.00391248
6 *1920:I *560:10 0.000851874
7 *1920:I *560:16 0.000502288
8 *1965:I *1922:I 0
9 *511:8 *1792:A1 0.000119192
10 *511:8 *1966:I 0.000499457
11 CYC_O *1965:I 1.10551e-05
12 DAT_O[7] *1920:I 0
13 DAT_O[7] *1965:I 0
14 *1514:B1 *1920:I 0.000966303
15 *1849:D *1965:I 0
16 *1849:CLK *511:8 5.53103e-05
*RES
1 *1851:Q *511:8 10.35 
2 *511:8 *1920:I 20.07 
3 *511:8 *1965:I 11.88 
*END

*D_NET *512 0.00868542
*CONN
*I *1922:I I *D gf180mcu_fd_sc_mcu7t5v0__dlyc_1
*I *1966:I I *D gf180mcu_fd_sc_mcu7t5v0__dlyb_1
*I *1852:Q O *D gf180mcu_fd_sc_mcu7t5v0__dffq_1
*CAP
1 *1922:I 0.000759297
2 *1966:I 0.00110915
3 *1852:Q 3.44897e-05
4 *512:6 0.00190294
5 *1966:I *1514:B2 0
6 *1966:I *1632:I1 7.49914e-05
7 *1966:I *1792:A1 2.91742e-05
8 *1966:I *1926:I 2.5344e-05
9 CYC_O *1922:I 0.00105658
10 DAT_O[6] *1922:I 2.89427e-06
11 DAT_O[7] *1966:I 0.000734114
12 STB_O *1922:I 0.000108989
13 WE_O *1922:I 0.000171129
14 *1511:A1 *1966:I 0.000302466
15 *1514:B1 *1966:I 0.000294421
16 *1532:A1 *1966:I 1.20708e-05
17 *1849:D *1966:I 0.00116039
18 *1849:CLK *1966:I 9.05146e-05
19 *1900:I *1966:I 0.000112985
20 *1965:I *1922:I 0
21 *509:14 *1922:I 1.96635e-05
22 *510:10 *1966:I 0.000184352
23 *511:8 *1966:I 0.000499457
*RES
1 *1852:Q *512:6 4.77 
2 *512:6 *1966:I 26.01 
3 *512:6 *1922:I 20.34 
*END

*D_NET *513 0.00283467
*CONN
*I *1500:A4 I *D gf180mcu_fd_sc_mcu7t5v0__nand4_1
*I *1941:Z O *D gf180mcu_fd_sc_mcu7t5v0__dlyb_1
*CAP
1 *1500:A4 0.000717084
2 *1941:Z 0.000717084
3 *1500:A4 *1495:A2 7.40965e-05
4 *1495:A1 *1500:A4 0.000817278
5 *1495:A3 *1500:A4 7.2432e-05
6 *477:6 *1500:A4 2.32821e-05
7 *477:81 *1500:A4 8.11796e-05
8 *477:89 *1500:A4 9.57294e-05
9 *504:14 *1500:A4 0.000236501
*RES
1 *1941:Z *1500:A4 25.11 
*END

*D_NET *514 0.00259204
*CONN
*I *1967:I I *D gf180mcu_fd_sc_mcu7t5v0__dlyb_1
*I *1891:Z O *D gf180mcu_fd_sc_mcu7t5v0__buf_1
*CAP
1 *1967:I 0.000497667
2 *1891:Z 0.000497667
3 *1967:I *1800:A1 0.00140323
4 *1795:A1 *1967:I 0.000174911
5 *1795:A2 *1967:I 1.85721e-05
*RES
1 *1891:Z *1967:I 23.22 
*END

*D_NET *515 0.00359974
*CONN
*I *1968:I I *D gf180mcu_fd_sc_mcu7t5v0__dlyb_1
*I *1931:I I *D gf180mcu_fd_sc_mcu7t5v0__dlyc_1
*I *1854:Q O *D gf180mcu_fd_sc_mcu7t5v0__dffq_1
*CAP
1 *1968:I 0.000435931
2 *1931:I 0.00042392
3 *1854:Q 7.32649e-05
4 *515:8 0.000933116
5 STB_O *1931:I 0.0011869
6 STB_O *1968:I 0.000424169
7 *1936:I *1968:I 0.00010488
8 *1936:I *515:8 1.75631e-05
*RES
1 *1854:Q *515:8 9.45 
2 *515:8 *1931:I 15.39 
3 *515:8 *1968:I 13.14 
*END

*D_NET *516 0.00877017
*CONN
*I *1426:I I *D gf180mcu_fd_sc_mcu7t5v0__clkinv_1
*I *1969:I I *D gf180mcu_fd_sc_mcu7t5v0__dlyb_1
*I *1806:Q O *D gf180mcu_fd_sc_mcu7t5v0__dffq_1
*CAP
1 *1426:I 0
2 *1969:I 0.00144097
3 *1806:Q 0.000387061
4 *516:14 0.00182803
5 *1969:I *1663:A2 0.000954839
6 *516:14 *567:20 0.00035741
7 *1623:B2 *1969:I 4.18632e-05
8 *1628:A2 *1969:I 0
9 *1629:A1 *1969:I 7.84068e-05
10 *1629:A3 *1969:I 0.00124414
11 *1630:A1 *1969:I 0.000505896
12 *1630:B *516:14 0
13 *1662:A1 *1969:I 0
14 *1662:B *1969:I 0.000586561
15 *1664:A1 *1969:I 0.000332025
16 *1664:A2 *1969:I 2.14748e-05
17 *1734:A2 *516:14 1.39839e-05
18 *1824:CLK *1969:I 0.000149818
19 *316:43 *1969:I 5.34514e-05
20 *316:43 *516:14 0
21 *316:58 *516:14 2.13478e-05
22 *352:12 *516:14 0.000344784
23 *485:55 *1969:I 0.000408092
*RES
1 *1806:Q *516:14 16.47 
2 *516:14 *1969:I 29.97 
3 *516:14 *1426:I 4.5 
*END

*D_NET *517 0.00179652
*CONN
*I *1970:I I *D gf180mcu_fd_sc_mcu7t5v0__dlyb_1
*I *1663:A2 I *D gf180mcu_fd_sc_mcu7t5v0__or2_1
*I *1426:ZN O *D gf180mcu_fd_sc_mcu7t5v0__clkinv_1
*CAP
1 *1970:I 0
2 *1663:A2 0.000190587
3 *1426:ZN 0.000114277
4 *517:6 0.000304864
5 *517:6 *567:20 1.17853e-05
6 *1630:B *517:6 0
7 *1664:A2 *1663:A2 0.000127736
8 *1824:CLK *1663:A2 3.02306e-05
9 *1969:I *1663:A2 0.000954839
10 *322:12 *1663:A2 6.22032e-05
*RES
1 *1426:ZN *517:6 5.31 
2 *517:6 *1663:A2 16.2 
3 *517:6 *1970:I 4.5 
*END

*D_NET *518 0.0450834
*CONN
*I *1786:A2 I *D gf180mcu_fd_sc_mcu7t5v0__aoi22_1
*I *1784:A2 I *D gf180mcu_fd_sc_mcu7t5v0__aoi22_1
*I *1782:A2 I *D gf180mcu_fd_sc_mcu7t5v0__aoi22_1
*I *1788:A2 I *D gf180mcu_fd_sc_mcu7t5v0__aoi22_1
*I *1790:A2 I *D gf180mcu_fd_sc_mcu7t5v0__aoi22_1
*I *1794:A2 I *D gf180mcu_fd_sc_mcu7t5v0__aoi22_1
*I *1796:A2 I *D gf180mcu_fd_sc_mcu7t5v0__aoi22_1
*I *1800:A2 I *D gf180mcu_fd_sc_mcu7t5v0__aoi21_1
*I *1792:A2 I *D gf180mcu_fd_sc_mcu7t5v0__aoi22_1
*I *1779:B1 I *D gf180mcu_fd_sc_mcu7t5v0__aoi22_1
*I *1775:B1 I *D gf180mcu_fd_sc_mcu7t5v0__aoi22_1
*I *1773:B1 I *D gf180mcu_fd_sc_mcu7t5v0__aoi22_1
*I *1767:B1 I *D gf180mcu_fd_sc_mcu7t5v0__aoi22_1
*I *1765:B1 I *D gf180mcu_fd_sc_mcu7t5v0__aoi22_1
*I *1769:B1 I *D gf180mcu_fd_sc_mcu7t5v0__aoi22_1
*I *1771:B1 I *D gf180mcu_fd_sc_mcu7t5v0__aoi22_1
*I *1777:B1 I *D gf180mcu_fd_sc_mcu7t5v0__aoi22_1
*I *1971:Z O *D gf180mcu_fd_sc_mcu7t5v0__buf_4
*CAP
1 *1786:A2 0.000395801
2 *1784:A2 0
3 *1782:A2 0
4 *1788:A2 3.91601e-05
5 *1790:A2 6.21589e-05
6 *1794:A2 0
7 *1796:A2 0
8 *1800:A2 0.000476953
9 *1792:A2 0
10 *1779:B1 0
11 *1775:B1 0.000177748
12 *1773:B1 0
13 *1767:B1 0
14 *1765:B1 0
15 *1769:B1 7.64014e-05
16 *1771:B1 0.000780452
17 *1777:B1 0
18 *1971:Z 9.27526e-05
19 *518:205 0.000418081
20 *518:184 0.000280456
21 *518:182 0.000179137
22 *518:151 0.000688878
23 *518:143 0.000410502
24 *518:130 0.001608
25 *518:116 0.00157055
26 *518:114 0.0019884
27 *518:101 0.00221337
28 *518:58 0.00053456
29 *518:52 0.000584013
30 *518:33 0.00120138
31 *518:31 0.000501409
32 *518:25 0.000430542
33 *518:14 0.000950393
34 *518:10 0.00140506
35 *1786:A2 *1786:B2 0
36 *1800:A2 *1450:A1 0
37 *1800:A2 *560:16 0.000229402
38 *518:130 *1442:A2 2.16372e-05
39 *518:130 *1533:I1 1.94121e-05
40 *518:130 *1632:I0 7.35825e-05
41 *518:130 *1792:A1 0.00516474
42 *518:143 *1794:A1 0
43 *518:151 *1453:A2 9.84908e-05
44 *518:151 *1796:B2 9.89629e-06
45 *518:151 *563:32 0.000145763
46 *518:184 *1782:A1 0.000196332
47 *518:184 *1788:A1 5.46423e-05
48 ADDR_O[1] *1771:B1 0
49 *1457:A1 *1800:A2 8.6117e-05
50 *1501:B *518:114 0
51 *1501:B *518:130 0.00181168
52 *1511:A1 *1800:A2 4.47101e-05
53 *1516:A1 *518:151 0.000117138
54 *1516:B *518:184 0
55 *1517:S *518:130 0.001008
56 *1523:B1 *518:130 0.00026052
57 *1765:A1 *1769:B1 1.61174e-05
58 *1765:A1 *518:58 0.000135102
59 *1767:B2 *518:52 0.000478175
60 *1768:A2 *518:58 0
61 *1769:A2 *1769:B1 0.000201529
62 *1769:B2 *1769:B1 6.23828e-05
63 *1769:B2 *518:58 0.000182682
64 *1771:A2 *1771:B1 8.12856e-06
65 *1771:B2 *1771:B1 0.00138956
66 *1772:A2 *1771:B1 0.000189245
67 *1773:A2 *518:33 0.000111431
68 *1774:A2 *518:31 0.00019593
69 *1774:A2 *518:33 3.55118e-05
70 *1775:A1 *1775:B1 0.000134176
71 *1775:A1 *518:25 5.6683e-05
72 *1775:A1 *518:31 0.000117031
73 *1775:B2 *1775:B1 0.000256675
74 *1776:A2 *1775:B1 0.000170229
75 *1777:B2 *1775:B1 1.39839e-05
76 *1778:A2 *518:14 0.000149478
77 *1780:A2 *518:33 0
78 *1786:B1 *1786:A2 0.00129618
79 *1786:B1 *518:116 7.64364e-05
80 *1786:B1 *518:205 3.11982e-05
81 *1789:A2 *518:114 8.12897e-05
82 *1789:A2 *518:130 0.000264383
83 *1797:A1 *1800:A2 0
84 *1797:A2 *1800:A2 5.70785e-05
85 *1797:A2 *518:151 3.01487e-05
86 *1800:B *1800:A2 7.62769e-05
87 *1800:B *518:151 2.65444e-06
88 *1801:A2 *1800:A2 0.000217786
89 *1837:D *1769:B1 9.85004e-05
90 *1837:D *518:58 0.000284981
91 *1842:D *1769:B1 0.000304291
92 *1842:D *1771:B1 6.57646e-05
93 *1843:D *518:31 0.000223398
94 *1843:D *518:33 0.00055759
95 *1845:CLK *518:184 3.02306e-05
96 *1846:D *1786:A2 5.69932e-05
97 *1846:D *518:116 9.08209e-05
98 *1846:D *518:130 6.66828e-06
99 *1846:D *518:205 1.44494e-05
100 *1853:D *518:10 0
101 *1862:CLK *1800:A2 0.000438416
102 *1870:D *518:130 0.000779505
103 *1919:I *1786:A2 0.000133728
104 *1921:I *518:130 0
105 *1932:I *1771:B1 4.83522e-05
106 *1937:I *1771:B1 0.000709856
107 *1952:I *1775:B1 0
108 *1952:I *518:58 8.81508e-05
109 *1954:I *1775:B1 4.21768e-05
110 *1954:I *518:31 7.09607e-05
111 *1956:I *1775:B1 0
112 *1959:I *1786:A2 3.22122e-05
113 *180:10 *518:130 0.000150744
114 *180:10 *518:143 0.000982188
115 *180:21 *518:143 0.000101
116 *279:19 *518:10 0.000171937
117 *279:34 *518:10 0.000199701
118 *279:40 *1775:B1 6.99566e-06
119 *279:55 *518:52 4.44491e-05
120 *279:57 *518:52 0.000219448
121 *279:57 *518:58 4.03682e-05
122 *279:63 *518:58 0.000269961
123 *434:40 *518:130 4.99529e-05
124 *434:40 *518:143 1.50763e-05
125 *434:47 *518:143 0.000167545
126 *434:47 *518:151 3.01487e-05
127 *434:60 *518:151 0.000410917
128 *434:111 *518:116 0.000159055
129 *434:111 *518:130 2.82325e-05
130 *452:8 *518:31 6.2083e-06
131 *458:10 *1800:A2 0.0012201
132 *461:12 *518:143 0.000496785
133 *461:23 *518:143 0.000284981
134 *461:23 *518:151 0.00015651
135 *477:33 *518:33 1.23715e-05
136 *477:48 *1771:B1 5.79059e-06
137 *477:48 *518:33 2.71524e-05
138 *477:100 *518:184 5.77941e-06
139 *478:99 *1800:A2 0.000338443
140 *478:99 *518:151 0.000231798
141 *491:12 *518:130 0.00194183
142 *492:6 *1771:B1 0
143 *492:6 *518:33 0
144 *495:12 *1771:B1 7.20334e-05
145 *498:12 *1771:B1 0.000692382
146 *499:14 *518:31 2.08352e-05
*RES
1 *1971:Z *518:10 14.49 
2 *518:10 *518:14 10.17 
3 *518:14 *1777:B1 9 
4 *518:14 *518:25 0.63 
5 *518:25 *518:31 6.75 
6 *518:31 *518:33 2.61 
7 *518:33 *1771:B1 22.77 
8 *518:33 *518:52 7.47 
9 *518:52 *518:58 9.36 
10 *518:58 *1769:B1 15.48 
11 *518:58 *1765:B1 4.5 
12 *518:52 *1767:B1 9 
13 *518:31 *1773:B1 4.5 
14 *518:25 *1775:B1 11.43 
15 *518:10 *518:101 2.25 
16 *518:101 *1779:B1 13.5 
17 *518:101 *518:114 14.67 
18 *518:114 *518:116 1.53 
19 *518:116 *518:130 39.06 
20 *518:130 *1792:A2 4.5 
21 *518:130 *518:143 3.96 
22 *518:143 *518:151 11.88 
23 *518:151 *1800:A2 19.89 
24 *518:151 *1796:A2 4.5 
25 *518:143 *1794:A2 4.5 
26 *518:116 *518:182 4.5 
27 *518:182 *518:184 1.35 
28 *518:184 *1790:A2 4.95 
29 *518:184 *1788:A2 4.77 
30 *518:182 *1782:A2 4.5 
31 *518:114 *518:205 0.27 
32 *518:205 *1784:A2 9 
33 *518:205 *1786:A2 14.04 
*END

*D_NET *519 0.00696527
*CONN
*I *1756:S I *D gf180mcu_fd_sc_mcu7t5v0__mux2_2
*I *1759:S I *D gf180mcu_fd_sc_mcu7t5v0__mux2_2
*I *1757:S I *D gf180mcu_fd_sc_mcu7t5v0__mux2_2
*I *1758:S I *D gf180mcu_fd_sc_mcu7t5v0__mux2_2
*I *1948:Z O *D gf180mcu_fd_sc_mcu7t5v0__buf_2
*CAP
1 *1756:S 0.000146753
2 *1759:S 0.000159167
3 *1757:S 0.00037721
4 *1758:S 4.74913e-05
5 *1948:Z 0.00066616
6 *519:16 0.000545985
7 *519:12 0.00109336
8 *1759:S *1759:I0 4.45729e-05
9 *1640:A1 *1759:S 4.34597e-05
10 *1640:A2 *1759:S 0
11 *1644:A1 *519:12 4.01309e-05
12 *1651:A1 *519:12 3.77882e-05
13 *1755:I1 *519:12 0
14 *1755:S *519:12 8.40821e-05
15 *1756:I0 *1756:S 0.000213046
16 *1756:I1 *1757:S 0.00022328
17 *1758:I0 *519:16 0.000604092
18 *1832:D *1759:S 3.73774e-06
19 *1832:D *519:12 9.04462e-05
20 *1832:CLK *1756:S 0
21 *1832:CLK *1757:S 0.000375857
22 *1832:CLK *1758:S 0.000215897
23 *332:8 *1759:S 0
24 *336:10 *1759:S 0
25 *422:56 *519:12 1.56862e-05
26 *460:16 *519:12 1.74449e-05
27 *466:23 *1757:S 0.000774456
28 *466:23 *1758:S 0.000499457
29 *467:40 *1756:S 1.61174e-05
30 *468:30 *519:16 0
31 *469:8 *519:12 1.39839e-05
32 *469:23 *1759:S 0.000270982
33 *469:23 *519:16 0.00023968
34 *469:27 *1759:S 3.97987e-05
35 *469:27 *519:12 6.51436e-05
*RES
1 *1948:Z *519:12 13.59 
2 *519:12 *519:16 7.29 
3 *519:16 *1758:S 5.85 
4 *519:16 *1757:S 17.28 
5 *519:12 *1759:S 10.62 
6 *1757:S *1756:S 10.35 
*END

*D_NET *520 0.0154928
*CONN
*I *1676:S I *D gf180mcu_fd_sc_mcu7t5v0__mux2_2
*I *1681:S I *D gf180mcu_fd_sc_mcu7t5v0__mux2_2
*I *1680:S I *D gf180mcu_fd_sc_mcu7t5v0__mux2_2
*I *1679:S I *D gf180mcu_fd_sc_mcu7t5v0__mux2_2
*I *1949:Z O *D gf180mcu_fd_sc_mcu7t5v0__buf_2
*CAP
1 *1676:S 0.000414882
2 *1681:S 0.000334716
3 *1680:S 0
4 *1679:S 0
5 *1949:Z 0.000959879
6 *520:33 0.0006077
7 *520:26 0.00134302
8 *520:16 0.0024448
9 *1676:S *1569:A2 5.20752e-05
10 *1676:S *1632:I2 1.3026e-05
11 *1681:S *1681:I0 9.85004e-05
12 *1681:S *562:71 0.000140266
13 *1681:S *563:22 0.00021153
14 *520:16 *1631:I3 0.000206052
15 *520:16 *1915:I 0.000219086
16 *520:26 *1520:A1 8.66027e-05
17 *520:26 *1520:B2 0.000248523
18 *520:26 *1632:I2 7.02473e-05
19 *520:26 *562:71 2.93836e-05
20 *520:26 *562:81 0.00125584
21 *520:26 *563:26 3.01487e-05
22 *520:26 *582:56 3.60134e-05
23 *520:33 *1679:I1 9.8582e-06
24 *520:33 *562:71 3.22348e-05
25 *520:33 *563:22 8.12856e-06
26 *520:33 *563:26 0.000827216
27 *1511:A1 *520:16 1.15459e-05
28 *1516:A1 *520:26 0
29 *1516:A2 *1676:S 0.00151188
30 *1516:A2 *520:26 0.000781635
31 *1516:B *520:26 0.000139597
32 *1527:A1 *520:16 0.000144738
33 *1527:B *520:16 0.000166843
34 *1533:I0 *1676:S 0
35 *1533:I0 *520:26 9.84908e-05
36 *1631:S1 *520:16 0
37 *1632:S0 *520:16 0.00112672
38 *1633:A2 *520:16 0.000213472
39 *1789:A2 *1676:S 0.000245672
40 *1800:B *1681:S 1.9243e-05
41 *1848:D *1676:S 0
42 *1865:CLK *1676:S 7.44879e-06
43 *1865:CLK *520:16 0.000178376
44 *1865:CLK *520:26 8.38609e-05
45 *1899:I *520:26 0.000254207
46 *176:43 *520:16 0
47 *180:10 *520:26 7.03523e-05
48 *208:101 *520:26 3.89202e-05
49 *434:40 *520:26 0.000416302
50 *478:8 *520:26 1.51107e-05
51 *478:56 *520:26 6.52309e-05
52 *478:67 *520:26 6.55842e-05
53 *487:156 *520:16 0.000157878
*RES
1 *1949:Z *520:16 17.91 
2 *520:16 *520:26 16.2 
3 *520:26 *1679:S 4.5 
4 *520:26 *520:33 2.61 
5 *520:33 *1680:S 4.5 
6 *520:33 *1681:S 7.38 
7 *520:16 *1676:S 13.68 
*END

*D_NET *521 0.000716109
*CONN
*I *1888:D I *D gf180mcu_fd_sc_mcu7t5v0__dffq_1
*I *1908:Z O *D gf180mcu_fd_sc_mcu7t5v0__dlyc_1
*CAP
1 *1888:D 0.000336224
2 *1908:Z 0.000336224
3 *1888:D *1908:I 0
4 *1887:D *1888:D 2.32821e-05
5 *1938:I *1888:D 2.03791e-05
*RES
1 *1908:Z *1888:D 11.25 
*END

*D_NET *522 0.00155908
*CONN
*I *1890:D I *D gf180mcu_fd_sc_mcu7t5v0__dffq_1
*I *1909:Z O *D gf180mcu_fd_sc_mcu7t5v0__dlyc_1
*CAP
1 *1890:D 0.000500213
2 *1909:Z 0.000500213
3 *1890:D *1909:I 0.000482998
4 *1833:D *1890:D 6.46036e-05
5 *1889:D *1890:D 1.10551e-05
*RES
1 *1909:Z *1890:D 21.78 
*END

*D_NET *523 0.00429317
*CONN
*I *1427:A2 I *D gf180mcu_fd_sc_mcu7t5v0__nor2_1
*I *1428:A2 I *D gf180mcu_fd_sc_mcu7t5v0__and2_1
*I *1910:Z O *D gf180mcu_fd_sc_mcu7t5v0__dlyc_1
*CAP
1 *1427:A2 4.49502e-05
2 *1428:A2 0.000110387
3 *1910:Z 0.00047658
4 *523:10 0.000631917
5 *523:10 *1910:I 0.000108702
6 *1428:A1 *1427:A2 7.84041e-05
7 *1428:A1 *1428:A2 0.000697001
8 *1630:B *1427:A2 0.000187886
9 *1630:B *1428:A2 0.00161763
10 *492:345 *523:10 0.00033971
*RES
1 *1910:Z *523:10 17.19 
2 *523:10 *1428:A2 8.73 
3 *523:10 *1427:A2 5.13 
*END

*D_NET *524 0.0041861
*CONN
*I *1505:A4 I *D gf180mcu_fd_sc_mcu7t5v0__nand4_1
*I *1942:Z O *D gf180mcu_fd_sc_mcu7t5v0__dlyb_1
*CAP
1 *1505:A4 0.000532689
2 *1942:Z 0.000532689
3 *1505:A4 *583:8 0.000190146
4 *1505:A4 *583:73 0.000817278
5 *1495:A4 *1505:A4 0.00114991
6 *1799:B *1505:A4 0.000372597
7 *1881:D *1505:A4 0.000568662
8 *477:89 *1505:A4 2.2129e-05
*RES
1 *1942:Z *1505:A4 25.83 
*END

*D_NET *525 0.000634468
*CONN
*I *1406:I I *D gf180mcu_fd_sc_mcu7t5v0__clkinv_1
*I *1911:Z O *D gf180mcu_fd_sc_mcu7t5v0__dlyc_1
*CAP
1 *1406:I 0.000272958
2 *1911:Z 0.000272958
3 *1477:B *1406:I 0
4 *154:44 *1406:I 2.16166e-05
5 *157:73 *1406:I 2.36813e-05
6 *175:30 *1406:I 4.32532e-05
*RES
1 *1911:Z *1406:I 11.07 
*END

*D_NET *526 0.00299668
*CONN
*I *1404:I I *D gf180mcu_fd_sc_mcu7t5v0__clkinv_1
*I *1912:Z O *D gf180mcu_fd_sc_mcu7t5v0__dlyc_1
*CAP
1 *1404:I 0.000765472
2 *1912:Z 0.000765472
3 *1724:A1 *1404:I 0.000473061
4 *1724:B *1404:I 0.000517818
5 *1760:A1 *1404:I 3.69932e-05
6 *1819:D *1404:I 0
7 *1833:D *1404:I 0
8 *1889:CLK *1404:I 1.70736e-05
9 *1890:CLK *1404:I 1.51153e-05
10 *1939:I *1404:I 2.19668e-05
11 *127:14 *1404:I 0.000383704
*RES
1 *1912:Z *1404:I 24.66 
*END

*D_NET *527 0.000560123
*CONN
*I *1407:I I *D gf180mcu_fd_sc_mcu7t5v0__clkinv_1
*I *1913:Z O *D gf180mcu_fd_sc_mcu7t5v0__dlyc_1
*CAP
1 *1407:I 7.35087e-05
2 *1913:Z 7.35087e-05
3 *1588:A1 *1407:I 0.000365445
4 *150:61 *1407:I 4.76605e-05
*RES
1 *1913:Z *1407:I 9.99 
*END

*D_NET *528 0.0012253
*CONN
*I *1425:I I *D gf180mcu_fd_sc_mcu7t5v0__clkinv_1
*I *1914:Z O *D gf180mcu_fd_sc_mcu7t5v0__dlyc_1
*CAP
1 *1425:I 0.000376898
2 *1914:Z 0.000376898
3 *1425:I *1782:B2 3.97273e-05
4 *1511:A1 *1425:I 0
5 *1511:B *1425:I 7.96333e-06
6 *1892:I *1425:I 0.000148576
7 *1949:I *1425:I 0
8 *141:54 *1425:I 5.74356e-06
9 *176:43 *1425:I 0
10 *361:47 *1425:I 0.000186939
11 *487:156 *1425:I 8.25538e-05
*RES
1 *1914:Z *1425:I 21.24 
*END

*D_NET *529 0.00325586
*CONN
*I *1424:I I *D gf180mcu_fd_sc_mcu7t5v0__clkinv_1
*I *1915:Z O *D gf180mcu_fd_sc_mcu7t5v0__dlyc_1
*CAP
1 *1424:I 0.000705053
2 *1915:Z 0.000705053
3 *1424:I *1442:A2 5.30918e-06
4 *1424:I *1520:B2 0.000182476
5 *1518:A1 *1424:I 6.98034e-05
6 *1523:A1 *1424:I 0.000219997
7 *1523:B2 *1424:I 4.79378e-05
8 *1533:I0 *1424:I 0.000360177
9 *1865:CLK *1424:I 0.000173849
10 *1899:I *1424:I 1.58072e-05
11 *159:12 *1424:I 0.000233586
12 *176:110 *1424:I 0.000219997
13 *434:40 *1424:I 0.000219956
14 *478:12 *1424:I 9.686e-05
15 *488:127 *1424:I 0
*RES
1 *1915:Z *1424:I 25.47 
*END

*D_NET *530 0.00373541
*CONN
*I *1723:A2 I *D gf180mcu_fd_sc_mcu7t5v0__aoi21_1
*I *1760:A2 I *D gf180mcu_fd_sc_mcu7t5v0__and2_1
*I *1916:Z O *D gf180mcu_fd_sc_mcu7t5v0__dlyc_1
*CAP
1 *1723:A2 0.000168895
2 *1760:A2 0.000761145
3 *1916:Z 0
4 *530:4 0.000930041
5 *1719:A2 *1760:A2 0.000153405
6 *1719:B *1723:A2 3.46495e-05
7 *1720:A1 *1760:A2 2.87813e-05
8 *1720:A2 *1760:A2 0.000166107
9 *1724:A2 *1723:A2 0.000101236
10 *1724:A2 *1760:A2 0
11 *1760:A1 *1760:A2 3.99345e-05
12 *1761:A2 *1760:A2 8.75335e-06
13 *1819:D *1760:A2 0.000109586
14 *1833:CLK *1723:A2 0
15 *1834:D *1760:A2 0
16 *1890:CLK *1760:A2 0
17 *1912:I *1760:A2 0
18 *127:14 *1760:A2 0
19 *472:12 *1723:A2 5.25e-05
20 *472:38 *1760:A2 0.00107594
21 *483:63 *1723:A2 7.71681e-06
22 *485:18 *1760:A2 9.6717e-05
*RES
1 *1916:Z *530:4 4.5 
2 *530:4 *1760:A2 19.89 
3 *530:4 *1723:A2 5.76 
*END

*D_NET *531 0.00510699
*CONN
*I *1786:A1 I *D gf180mcu_fd_sc_mcu7t5v0__aoi22_1
*I *1917:Z O *D gf180mcu_fd_sc_mcu7t5v0__dlyc_1
*CAP
1 *1786:A1 0.000676916
2 *1917:Z 0.000676916
3 *1786:A1 *1784:A1 0.00015028
4 *1786:A1 *559:12 6.71066e-05
5 *1527:B *1786:A1 2.76794e-05
6 *1787:A2 *1786:A1 0.00230837
7 *1790:A1 *1786:A1 0
8 *1846:CLK *1786:A1 1.52946e-05
9 *1849:D *1786:A1 0.00113882
10 *1959:I *1786:A1 4.5615e-05
*RES
1 *1917:Z *1786:A1 27.09 
*END

*D_NET *532 0.0028342
*CONN
*I *1784:A1 I *D gf180mcu_fd_sc_mcu7t5v0__aoi22_1
*I *1918:Z O *D gf180mcu_fd_sc_mcu7t5v0__dlyc_1
*CAP
1 *1784:A1 0.000491159
2 *1918:Z 0.000491159
3 *1784:A1 *1784:B2 0.000164132
4 *1784:A1 *1788:A1 0
5 *1532:A1 *1784:A1 0.00039463
6 *1532:A2 *1784:A1 4.56242e-05
7 *1532:B *1784:A1 0.000403202
8 *1785:A2 *1784:A1 0.000284918
9 *1786:A1 *1784:A1 0.00015028
10 *1846:D *1784:A1 5.15895e-05
11 *1846:CLK *1784:A1 0.000335881
12 *1849:D *1784:A1 2.1622e-05
*RES
1 *1918:Z *1784:A1 15.3 
*END

*D_NET *533 0.00177565
*CONN
*I *1782:A1 I *D gf180mcu_fd_sc_mcu7t5v0__aoi22_1
*I *1919:Z O *D gf180mcu_fd_sc_mcu7t5v0__dlyc_1
*CAP
1 *1782:A1 0.000137246
2 *1919:Z 0.000137246
3 *1786:B1 *1782:A1 5.44903e-05
4 *1790:A1 *1782:A1 0.000712019
5 *434:107 *1782:A1 5.90767e-05
6 *477:100 *1782:A1 0.000479244
7 *518:184 *1782:A1 0.000196332
*RES
1 *1919:Z *1782:A1 20.52 
*END

*D_NET *534 0.000890899
*CONN
*I *1794:A1 I *D gf180mcu_fd_sc_mcu7t5v0__aoi22_1
*I *1920:Z O *D gf180mcu_fd_sc_mcu7t5v0__dlyc_1
*CAP
1 *1794:A1 0.000174035
2 *1920:Z 0.000174035
3 *1795:A2 *1794:A1 1.11402e-05
4 *1800:B *1794:A1 0.000248583
5 *180:21 *1794:A1 6.34901e-05
6 *434:60 *1794:A1 0.000219614
7 *518:143 *1794:A1 0
*RES
1 *1920:Z *1794:A1 10.8 
*END

*D_NET *535 0.00238086
*CONN
*I *1510:A4 I *D gf180mcu_fd_sc_mcu7t5v0__nand4_1
*I *1943:Z O *D gf180mcu_fd_sc_mcu7t5v0__dlyb_1
*CAP
1 *1510:A4 0.00063768
2 *1943:Z 0.00063768
3 *1510:A4 *1521:A2 0
4 *1510:A4 *581:99 2.62622e-05
5 *1510:A4 *581:131 0.000131199
6 *1495:A1 *1510:A4 0
7 *140:127 *1510:A4 0.000247379
8 *140:133 *1510:A4 0.000624311
9 *477:81 *1510:A4 5.06031e-06
10 *477:89 *1510:A4 3.31517e-06
11 *491:73 *1510:A4 6.79679e-05
*RES
1 *1943:Z *1510:A4 23.22 
*END

*D_NET *536 0.00490916
*CONN
*I *1788:A1 I *D gf180mcu_fd_sc_mcu7t5v0__aoi22_1
*I *1921:Z O *D gf180mcu_fd_sc_mcu7t5v0__dlyc_1
*CAP
1 *1788:A1 0.00117689
2 *1921:Z 0.00117689
3 *1788:A1 *1784:B2 0.000475585
4 *1788:A1 *1923:I 0.000284991
5 *1788:A1 *559:20 5.81351e-05
6 *1788:A1 *559:106 1.88182e-05
7 *1516:B *1788:A1 0
8 *1532:A2 *1788:A1 0.000514667
9 *1533:I0 *1788:A1 0.00036947
10 *1783:A2 *1788:A1 7.69132e-05
11 *1784:A1 *1788:A1 0
12 *1788:B1 *1788:A1 3.30181e-05
13 *1791:A1 *1788:A1 0.000496785
14 *1791:A2 *1788:A1 1.9093e-05
15 *1845:D *1788:A1 0.000153256
16 *1845:CLK *1788:A1 0
17 *518:184 *1788:A1 5.46423e-05
*RES
1 *1921:Z *1788:A1 19.17 
*END

*D_NET *537 0.0101335
*CONN
*I *1796:A1 I *D gf180mcu_fd_sc_mcu7t5v0__aoi22_1
*I *1922:Z O *D gf180mcu_fd_sc_mcu7t5v0__dlyc_1
*CAP
1 *1796:A1 0.00137174
2 *1922:Z 0.00137174
3 *1796:A1 *1790:B2 0.000370119
4 *1796:A1 *560:10 0.000216299
5 *1796:A1 *560:16 0.000559949
6 *1796:A1 *561:38 0.000191926
7 *1511:A1 *1796:A1 0.00130971
8 *1532:A1 *1796:A1 0.000195527
9 *1849:CLK *1796:A1 0.000324046
10 *1920:I *1796:A1 0.00391248
11 *1936:I *1796:A1 0.000309924
*RES
1 *1922:Z *1796:A1 38.52 
*END

*D_NET *538 0.00140735
*CONN
*I *1507:I1 I *D gf180mcu_fd_sc_mcu7t5v0__mux2_2
*I *1923:Z O *D gf180mcu_fd_sc_mcu7t5v0__dlyc_1
*CAP
1 *1507:I1 0.000259661
2 *1923:Z 0.000259661
3 *1507:I1 *1631:I1 0.000297143
4 *1507:I1 *1923:I 6.05852e-05
5 *1507:I1 *558:42 1.56942e-05
6 *1507:I1 *573:8 5.90767e-05
7 *1506:B *1507:I1 3.08083e-05
8 *1527:B *1507:I1 0.000365645
9 *1809:D *1507:I1 5.90767e-05
*RES
1 *1923:Z *1507:I1 21.24 
*END

*D_NET *539 0.00228385
*CONN
*I *1512:I1 I *D gf180mcu_fd_sc_mcu7t5v0__mux2_2
*I *1924:Z O *D gf180mcu_fd_sc_mcu7t5v0__dlyc_1
*CAP
1 *1512:I1 0.000320772
2 *1924:Z 0.000320772
3 *1512:I1 *1784:B2 0.000224368
4 *1512:I1 *1790:B2 0.000338443
5 *1506:B *1512:I1 0
6 *1512:I0 *1512:I1 5.06377e-06
7 *1527:B *1512:I1 0
8 *1783:A2 *1512:I1 0.000675483
9 *1791:A1 *1512:I1 0.000370046
10 *1845:D *1512:I1 2.89001e-05
*RES
1 *1924:Z *1512:I1 21.78 
*END

*D_NET *540 0.00597357
*CONN
*I *1533:I1 I *D gf180mcu_fd_sc_mcu7t5v0__mux2_2
*I *1925:Z O *D gf180mcu_fd_sc_mcu7t5v0__dlyc_1
*CAP
1 *1533:I1 0.000301418
2 *1925:Z 0.000301418
3 *1533:I1 *1442:A2 0.00295486
4 *1516:A2 *1533:I1 0.000223407
5 *1870:D *1533:I1 0.000471626
6 *479:103 *1533:I1 2.37695e-05
7 *488:127 *1533:I1 0.00167766
8 *518:130 *1533:I1 1.94121e-05
*RES
1 *1925:Z *1533:I1 26.46 
*END

*D_NET *541 0.00149912
*CONN
*I *1517:I1 I *D gf180mcu_fd_sc_mcu7t5v0__mux2_2
*I *1926:Z O *D gf180mcu_fd_sc_mcu7t5v0__dlyc_1
*CAP
1 *1517:I1 0.000378306
2 *1926:Z 0.000378306
3 *1517:I1 *1632:I3 0.000294431
4 *1514:A2 *1517:I1 0
5 *1812:D *1517:I1 0.000264683
6 *1869:D *1517:I1 2.83425e-05
7 *478:125 *1517:I1 0.000149021
8 *478:131 *1517:I1 6.03144e-06
*RES
1 *1926:Z *1517:I1 12.33 
*END

*D_NET *542 0.00739855
*CONN
*I *1528:I1 I *D gf180mcu_fd_sc_mcu7t5v0__mux2_2
*I *1927:Z O *D gf180mcu_fd_sc_mcu7t5v0__dlyc_1
*CAP
1 *1528:I1 0.00101091
2 *1927:Z 0.00101091
3 *1528:I1 *1569:A2 0.00337342
4 *1528:I1 *1574:A2 0.000253523
5 *1528:I1 *1632:I1 0.000235343
6 *1528:I1 *1927:I 1.97748e-06
7 *1528:I1 *562:39 0.000156885
8 *1514:A2 *1528:I1 0
9 *1514:B1 *1528:I1 5.47143e-05
10 *1813:D *1528:I1 0.000164248
11 *1850:D *1528:I1 0.000285507
12 *1854:CLK *1528:I1 0.000190911
13 *1869:D *1528:I1 0.000660202
*RES
1 *1927:Z *1528:I1 30.78 
*END

*D_NET *543 0.000916157
*CONN
*I *1502:I1 I *D gf180mcu_fd_sc_mcu7t5v0__mux2_2
*I *1928:Z O *D gf180mcu_fd_sc_mcu7t5v0__dlyc_1
*CAP
1 *1502:I1 2.07184e-05
2 *1928:Z 2.07184e-05
3 *1506:B *1502:I1 0.000442919
4 *1633:A2 *1502:I1 0.000431801
*RES
1 *1928:Z *1502:I1 19.17 
*END

*D_NET *544 0.0109284
*CONN
*I *1792:A1 I *D gf180mcu_fd_sc_mcu7t5v0__aoi22_1
*I *1929:Z O *D gf180mcu_fd_sc_mcu7t5v0__dlyc_1
*CAP
1 *1792:A1 0.00137747
2 *1929:Z 0.00137747
3 *1792:A1 *562:81 0.000453188
4 *1523:B1 *1792:A1 1.81129e-05
5 *1527:A1 *1792:A1 8.57077e-05
6 *1532:A1 *1792:A1 3.22122e-05
7 *1849:CLK *1792:A1 0.000761058
8 *1869:D *1792:A1 0.000356031
9 *1870:CLK *1792:A1 0
10 *1921:I *1792:A1 0
11 *1966:I *1792:A1 2.91742e-05
12 *176:110 *1792:A1 0.000163746
13 *479:6 *1792:A1 0.000183662
14 *479:8 *1792:A1 0.000207343
15 *479:10 *1792:A1 1.0415e-05
16 *479:31 *1792:A1 0
17 *479:33 *1792:A1 0
18 *510:10 *1792:A1 0.000588913
19 *511:8 *1792:A1 0.000119192
20 *518:130 *1792:A1 0.00516474
*RES
1 *1929:Z *1792:A1 38.16 
*END

*D_NET *545 0.000114966
*CONN
*I *1405:I I *D gf180mcu_fd_sc_mcu7t5v0__clkinv_1
*I *1930:Z O *D gf180mcu_fd_sc_mcu7t5v0__dlyc_1
*CAP
1 *1405:I 5.74829e-05
2 *1930:Z 5.74829e-05
*RES
1 *1930:Z *1405:I 9.45 
*END

*D_NET *546 0.00307335
*CONN
*I *1515:A4 I *D gf180mcu_fd_sc_mcu7t5v0__nand4_1
*I *1944:Z O *D gf180mcu_fd_sc_mcu7t5v0__dlyb_1
*CAP
1 *1515:A4 0.000548576
2 *1944:Z 0.000548576
3 *1515:A4 *1521:A4 0.000751406
4 *1515:A4 *1526:A4 2.00649e-05
5 *1515:A4 *1531:A4 6.59126e-05
6 *1515:A4 *581:131 0
7 *1496:C *1515:A4 7.94868e-06
8 *1522:C *1515:A4 5.9182e-05
9 *1526:A3 *1515:A4 0.000472339
10 *1527:B *1515:A4 1.19491e-05
11 *1790:A1 *1515:A4 0
12 *491:23 *1515:A4 0.000587394
*RES
1 *1944:Z *1515:A4 24.12 
*END

*D_NET *547 0.00345084
*CONN
*I *1800:A1 I *D gf180mcu_fd_sc_mcu7t5v0__aoi21_1
*I *1931:Z O *D gf180mcu_fd_sc_mcu7t5v0__dlyc_1
*CAP
1 *1800:A1 0.000164133
2 *1931:Z 0.000164133
3 *1800:A1 *1450:A1 0.00052864
4 STB_O *1800:A1 0.000817609
5 *1797:A2 *1800:A1 0.000135666
6 *1852:D *1800:A1 0.000237428
7 *1967:I *1800:A1 0.00140323
*RES
1 *1931:Z *1800:A1 23.31 
*END

*D_NET *548 0.000535547
*CONN
*I *1765:B2 I *D gf180mcu_fd_sc_mcu7t5v0__aoi22_1
*I *1932:Z O *D gf180mcu_fd_sc_mcu7t5v0__dlyc_1
*CAP
1 *1765:B2 6.51783e-05
2 *1932:Z 6.51783e-05
3 *1769:B2 *1765:B2 8.43025e-06
4 *1838:D *1765:B2 0
5 *1842:D *1765:B2 0.000390584
6 *476:53 *1765:B2 6.17613e-06
*RES
1 *1932:Z *1765:B2 18.99 
*END

*D_NET *549 0.000454493
*CONN
*I *1759:I0 I *D gf180mcu_fd_sc_mcu7t5v0__mux2_2
*I *1933:Z O *D gf180mcu_fd_sc_mcu7t5v0__dlyc_1
*CAP
1 *1759:I0 0.000182738
2 *1933:Z 0.000182738
3 *1640:A1 *1759:I0 3.68874e-05
4 *1657:B2 *1759:I0 7.55765e-06
5 *1658:A1 *1759:I0 0
6 *1759:S *1759:I0 4.45729e-05
7 *1832:D *1759:I0 0
*RES
1 *1933:Z *1759:I0 10.35 
*END

*D_NET *550 0.00157419
*CONN
*I *1802:A1 I *D gf180mcu_fd_sc_mcu7t5v0__oai21_1
*I *1934:Z O *D gf180mcu_fd_sc_mcu7t5v0__dlyc_1
*CAP
1 *1802:A1 0.000253077
2 *1934:Z 0.000253077
3 *1802:A1 *557:32 0
4 *1467:A1 *1802:A1 8.91593e-05
5 *1634:A1 *1802:A1 0.000881502
6 *1802:A2 *1802:A1 1.0415e-05
7 *160:14 *1802:A1 8.69576e-05
*RES
1 *1934:Z *1802:A1 20.88 
*END

*D_NET *551 0.00227474
*CONN
*I *1753:A1 I *D gf180mcu_fd_sc_mcu7t5v0__nand4_1
*I *1935:Z O *D gf180mcu_fd_sc_mcu7t5v0__dlyc_1
*CAP
1 *1753:A1 0.000323629
2 *1935:Z 0.000323629
3 *1413:I *1753:A1 2.14748e-05
4 *1414:I *1753:A1 0.000499457
5 *1649:A1 *1753:A1 3.0177e-06
6 *1649:A2 *1753:A1 0.000931858
7 *1754:A2 *1753:A1 0
8 *316:81 *1753:A1 3.56071e-05
9 *341:12 *1753:A1 0.00013607
10 *422:41 *1753:A1 0
11 *465:14 *1753:A1 0
*RES
1 *1935:Z *1753:A1 22.23 
*END

*D_NET *552 0.00199562
*CONN
*I *1521:A4 I *D gf180mcu_fd_sc_mcu7t5v0__and4_1
*I *1945:Z O *D gf180mcu_fd_sc_mcu7t5v0__dlyb_1
*CAP
1 *1521:A4 0.000445945
2 *1945:Z 0.000445945
3 *1521:A4 *1521:A2 3.90035e-05
4 *1521:A4 *1526:A4 5.36435e-05
5 *1515:A4 *1521:A4 0.000751406
6 *1522:C *1521:A4 1.31385e-05
7 *1527:B *1521:A4 3.02306e-05
8 *477:100 *1521:A4 0.000216305
9 *491:45 *1521:A4 0
*RES
1 *1945:Z *1521:A4 22.23 
*END

*D_NET *553 0.000929818
*CONN
*I *1526:A4 I *D gf180mcu_fd_sc_mcu7t5v0__nand4_1
*I *1946:Z O *D gf180mcu_fd_sc_mcu7t5v0__dlyb_1
*CAP
1 *1526:A4 0.000180365
2 *1946:Z 0.000180365
3 *1515:A4 *1526:A4 2.00649e-05
4 *1521:A4 *1526:A4 5.36435e-05
5 *1527:B *1526:A4 0.00049538
*RES
1 *1946:Z *1526:A4 10.98 
*END

*D_NET *554 0.00455215
*CONN
*I *1531:A4 I *D gf180mcu_fd_sc_mcu7t5v0__nand4_1
*I *1947:Z O *D gf180mcu_fd_sc_mcu7t5v0__dlyb_1
*CAP
1 *1531:A4 0.00056556
2 *1947:Z 0.00056556
3 *1531:A4 *1788:B2 0.00117264
4 *1478:A2 *1531:A4 3.7357e-05
5 *1511:B *1531:A4 0.000216245
6 *1515:A4 *1531:A4 6.59126e-05
7 *1526:A3 *1531:A4 8.3187e-05
8 *1527:B *1531:A4 0.000131992
9 *1532:B *1531:A4 0.00141319
10 *1790:A1 *1531:A4 0.000300509
*RES
1 *1947:Z *1531:A4 26.19 
*END

*D_NET *555 0.00184361
*CONN
*I *1910:I I *D gf180mcu_fd_sc_mcu7t5v0__dlyc_1
*I *1835:Q O *D gf180mcu_fd_sc_mcu7t5v0__dffq_1
*CAP
1 *1910:I 0.000672867
2 *1835:Q 0.000672867
3 *1410:I *1910:I 1.20058e-05
4 *1428:A1 *1910:I 0
5 *1828:D *1910:I 0.00016179
6 *142:10 *1910:I 0.000118691
7 *142:64 *1910:I 4.80033e-05
8 *480:18 *1910:I 0
9 *492:343 *1910:I 3.08806e-06
10 *492:345 *1910:I 4.55978e-05
11 *523:10 *1910:I 0.000108702
*RES
1 *1835:Q *1910:I 23.4 
*END

*D_NET *556 0.0146443
*CONN
*I *1434:A3 I *D gf180mcu_fd_sc_mcu7t5v0__nand3_1
*I *1483:A2 I *D gf180mcu_fd_sc_mcu7t5v0__nor2_1
*I *1471:B2 I *D gf180mcu_fd_sc_mcu7t5v0__aoi22_1
*I *1432:A2 I *D gf180mcu_fd_sc_mcu7t5v0__nand2_1
*I *1462:B2 I *D gf180mcu_fd_sc_mcu7t5v0__aoi22_1
*I *1538:A3 I *D gf180mcu_fd_sc_mcu7t5v0__nand4_1
*I *1537:A3 I *D gf180mcu_fd_sc_mcu7t5v0__and4_1
*I *1421:I I *D gf180mcu_fd_sc_mcu7t5v0__clkinv_1
*I *1697:I1 I *D gf180mcu_fd_sc_mcu7t5v0__mux2_2
*I *1816:Q O *D gf180mcu_fd_sc_mcu7t5v0__dffq_1
*CAP
1 *1434:A3 2.73637e-05
2 *1483:A2 0
3 *1471:B2 9.73479e-05
4 *1432:A2 0
5 *1462:B2 0.00027364
6 *1538:A3 0
7 *1537:A3 0.000135064
8 *1421:I 0
9 *1697:I1 0.000455458
10 *1816:Q 0
11 *556:96 0.000158534
12 *556:83 0.000187402
13 *556:66 0.000678535
14 *556:60 0.000388745
15 *556:36 0.000135064
16 *556:34 0.000173927
17 *556:25 0.000743821
18 *556:4 0.00110805
19 *1537:A3 *1538:A4 7.77088e-05
20 *1697:I1 *565:23 0
21 *556:25 *1695:I1 0.000518371
22 *556:25 *1700:A1 3.29767e-05
23 *556:25 *565:23 0
24 *556:25 *565:34 3.31858e-06
25 *556:25 *585:14 0
26 *556:34 *585:14 0
27 *1434:A2 *556:66 2.86227e-05
28 *1462:B1 *1462:B2 0.00109776
29 *1462:B1 *556:83 8.51741e-06
30 *1471:B1 *1471:B2 0.00016526
31 *1471:B1 *556:83 1.56862e-05
32 *1471:B1 *556:96 1.1858e-05
33 *1485:A2 *556:60 5.22248e-06
34 *1486:A2 *1471:B2 1.07374e-05
35 *1486:A2 *556:66 9.92341e-05
36 *1486:A2 *556:83 0.000365635
37 *1492:A1 *556:96 0.000445479
38 *1537:A2 *1537:A3 0.000303443
39 *1538:A1 *1537:A3 0.00013126
40 *1540:C *556:66 0.000228111
41 *1542:A3 *1462:B2 0.000498052
42 *1542:A4 *1462:B2 0.000330141
43 *1542:A4 *556:66 0.000166798
44 *1542:A4 *556:83 0.000351573
45 *1586:A1 *556:60 0.00030956
46 *1816:D *1697:I1 1.78052e-05
47 *1818:D *556:25 0.000302466
48 *1818:CLK *556:25 0.000143061
49 *1893:I *1697:I1 0
50 *143:8 *1537:A3 5.92385e-05
51 *143:8 *556:25 0.000244819
52 *143:8 *556:34 0.000419316
53 *143:8 *556:60 0.000132926
54 *143:28 *556:60 0.000453188
55 *143:37 *556:60 0.000382875
56 *143:37 *556:66 0.000356062
57 *144:14 *556:34 0
58 *144:14 *556:60 0
59 *150:36 *1462:B2 9.06729e-06
60 *150:36 *1471:B2 0.000416248
61 *157:50 *556:96 0.000455757
62 *175:30 *556:83 6.03838e-05
63 *175:30 *556:96 0.00011983
64 *179:21 *1462:B2 0.000129067
65 *179:31 *1462:B2 1.10145e-05
66 *361:30 *1697:I1 2.72966e-05
67 *447:76 *1434:A3 2.31089e-05
68 *447:76 *556:66 2.58667e-05
69 *447:115 *1462:B2 1.0415e-05
70 *473:21 *556:25 0.000101505
71 *473:32 *556:25 9.84776e-05
72 *492:105 *1697:I1 0.000500948
73 *492:105 *556:25 0.000143051
74 *492:120 *556:25 0.000232206
*RES
1 *1816:Q *556:4 4.5 
2 *556:4 *1697:I1 17.46 
3 *556:4 *556:25 11.61 
4 *556:25 *1421:I 9 
5 *556:25 *556:34 1.17 
6 *556:34 *556:36 4.5 
7 *556:36 *1537:A3 15.03 
8 *556:36 *1538:A3 4.5 
9 *556:34 *556:60 6.93 
10 *556:60 *556:66 7.74 
11 *556:66 *1462:B2 13.68 
12 *556:66 *556:83 6.12 
13 *556:83 *1432:A2 4.5 
14 *556:83 *556:96 10.62 
15 *556:96 *1471:B2 5.94 
16 *556:96 *1483:A2 4.5 
17 *556:60 *1434:A3 4.77 
*END

*D_NET *557 0.0156589
*CONN
*I *1782:B2 I *D gf180mcu_fd_sc_mcu7t5v0__aoi22_1
*I *1469:B2 I *D gf180mcu_fd_sc_mcu7t5v0__oai221_1
*I *1399:I I *D gf180mcu_fd_sc_mcu7t5v0__clkinv_1
*I *1673:A1 I *D gf180mcu_fd_sc_mcu7t5v0__nand4_1
*I *1807:Q O *D gf180mcu_fd_sc_mcu7t5v0__dffq_1
*CAP
1 *1782:B2 0.00127684
2 *1469:B2 5.82494e-05
3 *1399:I 4.31578e-05
4 *1673:A1 0.000282855
5 *1807:Q 0.000269689
6 *557:32 0.00180915
7 *557:10 0.000545085
8 *557:8 0.000962815
9 *1782:B2 *1631:I3 5.91328e-05
10 *1782:B2 *1914:I 7.01302e-05
11 *1782:B2 *559:67 0.000301004
12 *1425:I *1782:B2 3.97273e-05
13 *1467:A1 *557:32 7.27728e-05
14 *1469:C *1782:B2 5.34514e-05
15 *1469:C *557:32 6.40822e-05
16 *1530:A2 *1782:B2 0.000114046
17 *1532:A2 *1782:B2 7.66114e-06
18 *1552:A1 *557:8 0.000192021
19 *1585:A2 *557:8 0
20 *1634:A1 *1673:A1 0
21 *1634:A1 *557:10 0
22 *1634:A1 *557:32 0
23 *1675:S *1782:B2 6.71273e-05
24 *1802:A1 *557:32 0
25 *1803:A1 *1399:I 5.30888e-06
26 *1803:A2 *557:10 2.10158e-05
27 *1803:B *557:10 3.04847e-05
28 *1803:B *557:32 5.78822e-05
29 *1845:D *1782:B2 0
30 *1846:D *1782:B2 0.00206407
31 *1866:D *1782:B2 0.00027267
32 *1883:CLK *557:8 0
33 *122:8 *1399:I 0.000155486
34 *157:73 *557:32 0.000164416
35 *175:30 *1469:B2 2.34463e-05
36 *175:40 *1782:B2 5.59795e-06
37 *175:40 *557:32 1.36965e-05
38 *176:20 *1469:B2 5.82191e-05
39 *176:37 *1782:B2 0
40 *179:104 *1782:B2 0.000258379
41 *208:35 *1782:B2 0.000133544
42 *356:55 *1673:A1 0.000127399
43 *361:47 *1782:B2 2.86935e-05
44 *361:71 *1399:I 9.04539e-05
45 *361:71 *1673:A1 0.000176638
46 *487:156 *1673:A1 0.000390584
47 *487:156 *1782:B2 0.00207605
48 *487:156 *557:10 0.000773459
49 *487:156 *557:32 0.00244243
*RES
1 *1807:Q *557:8 11.07 
2 *557:8 *557:10 2.07 
3 *557:10 *1673:A1 11.88 
4 *557:10 *1399:I 9.63 
5 *557:8 *557:32 6.39 
6 *557:32 *1469:B2 9.45 
7 *557:32 *1782:B2 23.22 
*END

*D_NET *558 0.0178142
*CONN
*I *1804:A1 I *D gf180mcu_fd_sc_mcu7t5v0__nand2_1
*I *1675:I1 I *D gf180mcu_fd_sc_mcu7t5v0__mux2_2
*I *1784:B2 I *D gf180mcu_fd_sc_mcu7t5v0__aoi22_1
*I *1499:A1 I *D gf180mcu_fd_sc_mcu7t5v0__oai22_1
*I *1398:I I *D gf180mcu_fd_sc_mcu7t5v0__clkinv_1
*I *1808:Q O *D gf180mcu_fd_sc_mcu7t5v0__dffq_1
*CAP
1 *1804:A1 0.00010127
2 *1675:I1 0
3 *1784:B2 0.000545363
4 *1499:A1 9.18636e-05
5 *1398:I 0.000241707
6 *1808:Q 6.40185e-05
7 *558:42 0.000875611
8 *558:27 0.00132638
9 *558:8 0.00114598
10 *558:6 0.000165289
11 *1784:B2 *1786:B2 4.49689e-05
12 *1784:B2 *1790:B2 8.49208e-05
13 *558:42 *1631:I1 0.000876715
14 *558:42 *1790:B2 0.000358292
15 *558:42 *1923:I 0.000510671
16 *558:42 *1928:I 2.17099e-05
17 *1441:A3 *558:6 0
18 *1441:A4 *558:6 0
19 *1470:A1 *558:27 0.000193103
20 *1506:B *1784:B2 0
21 *1506:B *558:42 0
22 *1507:I0 *558:27 0.000594042
23 *1507:I0 *558:42 0.000352496
24 *1507:I1 *558:42 1.56942e-05
25 *1512:I1 *1784:B2 0.000224368
26 *1527:B *1784:B2 0.000798097
27 *1528:I0 *558:42 0.000362319
28 *1532:A2 *1784:B2 0.000621237
29 *1533:I0 *1784:B2 3.24083e-05
30 *1552:A1 *1398:I 6.96564e-06
31 *1632:S0 *1499:A1 1.56176e-05
32 *1633:A2 *1398:I 0
33 *1633:A2 *558:27 0
34 *1783:A2 *1784:B2 6.96564e-06
35 *1784:A1 *1784:B2 0.000164132
36 *1785:A2 *1784:B2 0.000284918
37 *1787:A2 *558:27 0.00110225
38 *1787:A2 *558:42 0.00264424
39 *1788:A1 *1784:B2 0.000475585
40 *1788:B1 *1784:B2 4.83522e-05
41 *1791:A1 *1784:B2 0.000138345
42 *1791:A2 *1784:B2 0.000249268
43 *1805:A2 *1398:I 0
44 *1809:D *558:42 1.06822e-05
45 *1845:D *1784:B2 0.000279246
46 *121:6 *1398:I 3.46409e-05
47 *152:77 *558:27 0.000282357
48 *154:65 *558:27 3.21222e-05
49 *158:12 *1804:A1 0.000768119
50 *158:12 *558:6 0.000164036
51 *158:12 *558:27 0.00053963
52 *158:29 *1804:A1 7.10237e-05
53 *160:12 *1398:I 4.03554e-05
54 *160:12 *558:27 9.01083e-06
55 *160:14 *558:6 3.97987e-05
56 *160:40 *1398:I 0.00017161
57 *160:40 *1804:A1 0.000278159
58 *160:40 *558:6 9.77802e-05
59 *176:80 *1499:A1 3.99899e-05
60 *176:87 *1499:A1 1.0415e-05
61 *179:104 *558:27 4.45552e-05
62 *179:110 *558:27 6.10887e-05
63 *475:103 *1398:I 0
64 *492:277 *558:27 5.44009e-05
*RES
1 *1808:Q *558:6 5.31 
2 *558:6 *558:8 4.5 
3 *558:8 *1398:I 10.71 
4 *558:8 *558:27 10.35 
5 *558:27 *1499:A1 9.45 
6 *558:27 *558:42 12.78 
7 *558:42 *1784:B2 29.97 
8 *558:42 *1675:I1 4.5 
9 *558:6 *1804:A1 6.75 
*END

*D_NET *559 0.0351729
*CONN
*I *1442:A2 I *D gf180mcu_fd_sc_mcu7t5v0__oai21_1
*I *1676:I1 I *D gf180mcu_fd_sc_mcu7t5v0__mux2_2
*I *1786:B2 I *D gf180mcu_fd_sc_mcu7t5v0__aoi22_1
*I *1504:A1 I *D gf180mcu_fd_sc_mcu7t5v0__oai22_1
*I *1556:A4 I *D gf180mcu_fd_sc_mcu7t5v0__nor4_1
*I *1675:I0 I *D gf180mcu_fd_sc_mcu7t5v0__mux2_2
*I *1809:Q O *D gf180mcu_fd_sc_mcu7t5v0__dffq_1
*CAP
1 *1442:A2 0.000886418
2 *1676:I1 0
3 *1786:B2 0.00109728
4 *1504:A1 0
5 *1556:A4 0.000291169
6 *1675:I0 0
7 *1809:Q 0.000356446
8 *559:106 0.00115106
9 *559:67 0.00166114
10 *559:37 0.00154437
11 *559:33 0.00151032
12 *559:20 0.000562316
13 *559:12 0.000944761
14 *1442:A2 *1520:B2 0.000148235
15 *1442:A2 *1632:I0 0.000455757
16 *1556:A4 *1560:A4 0.00211445
17 *559:20 *1923:I 0.00015651
18 *559:33 *1790:B2 0.000417002
19 *559:37 *1914:I 0.000345038
20 *559:67 *1560:A4 0.000164876
21 *559:67 *1574:A2 0.000445112
22 *559:67 *574:14 7.32331e-05
23 *559:106 *1790:B2 6.75054e-06
24 *1424:I *1442:A2 5.30918e-06
25 *1429:A3 *559:67 1.11402e-05
26 *1453:A1 *1442:A2 1.0415e-05
27 *1506:A1 *559:67 1.07374e-05
28 *1511:A1 *559:67 1.03055e-05
29 *1511:B *559:67 0
30 *1512:S *559:37 0.000678624
31 *1516:A2 *1442:A2 0.00019576
32 *1516:B *559:20 0.00114393
33 *1516:B *559:33 0.000101184
34 *1516:B *559:106 0.000625542
35 *1523:A1 *1442:A2 0.00134159
36 *1523:B2 *1442:A2 0.000255088
37 *1527:B *1786:B2 0
38 *1527:B *559:20 4.78068e-05
39 *1530:A2 *559:67 4.88543e-05
40 *1533:I0 *1442:A2 0.000517026
41 *1533:I1 *1442:A2 0.00295486
42 *1544:A3 *1556:A4 0
43 *1556:A2 *1556:A4 5.53168e-05
44 *1556:A3 *1556:A4 9.04462e-05
45 *1560:A3 *1556:A4 0.000427492
46 *1578:A1 *559:67 0.000424712
47 *1578:A2 *559:67 0.000322882
48 *1578:A3 *559:67 0.000196928
49 *1579:A1 *559:67 0.000569085
50 *1579:A2 *559:67 0.000673772
51 *1579:A3 *559:67 8.91442e-05
52 *1594:B *559:67 1.23715e-05
53 *1675:S *559:33 0.000926906
54 *1675:S *559:67 2.50084e-05
55 *1782:B2 *559:67 0.000301004
56 *1784:B2 *1786:B2 4.49689e-05
57 *1785:A2 *1786:B2 0.000209758
58 *1785:A2 *559:37 0.000450468
59 *1786:A1 *559:12 6.71066e-05
60 *1786:A2 *1786:B2 0
61 *1786:B1 *1786:B2 3.55118e-05
62 *1787:A2 *1786:B2 3.97987e-05
63 *1788:A1 *559:20 5.81351e-05
64 *1788:A1 *559:106 1.88182e-05
65 *1789:A2 *559:106 0.000291783
66 *1809:CLK *1442:A2 0.000317013
67 *1845:D *1786:B2 0.000700268
68 *1845:D *559:37 0.000191207
69 *1846:D *1786:B2 4.99804e-05
70 *1846:CLK *559:12 0.000368541
71 *1847:D *559:12 0
72 *1868:D *1442:A2 0.000719031
73 *1869:D *1442:A2 6.58907e-05
74 *1883:CLK *559:67 0.000182459
75 *1917:I *559:12 0.000310854
76 *1917:I *559:106 1.24166e-05
77 *1947:I *1786:B2 4.34199e-06
78 *1959:I *1786:B2 0
79 *141:54 *559:67 0
80 *157:10 *559:67 0.00137687
81 *159:12 *1442:A2 0.000141794
82 *192:10 *559:67 8.31705e-06
83 *193:97 *559:67 0.000249406
84 *193:115 *559:67 0.000469308
85 *240:10 *1556:A4 0.000515833
86 *240:28 *1556:A4 0.000138305
87 *240:43 *1556:A4 0.000194518
88 *241:64 *559:67 0
89 *246:10 *1556:A4 0
90 *251:8 *1556:A4 0.000150744
91 *479:103 *1442:A2 9.3226e-06
92 *488:127 *1442:A2 0.000277903
93 *492:247 *559:67 0.00107515
94 *518:130 *1442:A2 2.16372e-05
*RES
1 *1809:Q *559:12 16.74 
2 *559:12 *559:20 12.6 
3 *559:20 *1675:I0 4.5 
4 *559:20 *559:33 8.19 
5 *559:33 *559:37 8.19 
6 *559:37 *559:67 48.06 
7 *559:67 *1556:A4 15.84 
8 *559:37 *1504:A1 4.5 
9 *559:33 *1786:B2 17.28 
10 *559:12 *559:106 12.6 
11 *559:106 *1676:I1 4.5 
12 *559:106 *1442:A2 28.98 
*END

*D_NET *560 0.0401324
*CONN
*I *1509:A1 I *D gf180mcu_fd_sc_mcu7t5v0__oai22_1
*I *1560:A4 I *D gf180mcu_fd_sc_mcu7t5v0__nor4_1
*I *1788:B2 I *D gf180mcu_fd_sc_mcu7t5v0__aoi22_1
*I *1676:I0 I *D gf180mcu_fd_sc_mcu7t5v0__mux2_2
*I *1445:A1 I *D gf180mcu_fd_sc_mcu7t5v0__nand2_1
*I *1677:A1 I *D gf180mcu_fd_sc_mcu7t5v0__nand4_1
*I *1810:Q O *D gf180mcu_fd_sc_mcu7t5v0__dffq_1
*CAP
1 *1509:A1 2.767e-05
2 *1560:A4 0.00243206
3 *1788:B2 0.000476881
4 *1676:I0 0.00184515
5 *1445:A1 0
6 *1677:A1 0.00134288
7 *1810:Q 0.000549497
8 *560:77 0.0025784
9 *560:58 0.00128763
10 *560:16 0.00247284
11 *560:10 0.00283253
12 *1509:A1 *1574:A2 9.30128e-05
13 *1560:A4 *1579:B2 0.0010653
14 *1560:A4 *564:16 0.000102053
15 *1676:I0 *564:16 0.00160282
16 *1788:B2 *1530:B2 0.000231561
17 *1788:B2 *1914:I 0.000388023
18 *560:16 *561:25 9.35987e-06
19 *560:16 *563:22 8.96623e-05
20 *560:58 *1569:A2 0.000314282
21 *560:58 *1631:I0 6.34901e-05
22 *560:58 *1914:I 0.000620857
23 *560:77 *1530:A1 0.000211933
24 *560:77 *564:16 0.000142139
25 *1445:A2 *560:16 0.000525635
26 *1448:A1 *1677:A1 0
27 *1456:A2 *560:16 0.00182527
28 *1506:B *1788:B2 7.23801e-05
29 *1511:A1 *560:16 1.86263e-05
30 *1511:B *1788:B2 0.000325392
31 *1512:I0 *560:77 1.06816e-05
32 *1514:A2 *560:10 3.34893e-05
33 *1514:A2 *560:16 0.000370266
34 *1514:B1 *560:10 0.000331204
35 *1514:B1 *560:16 0.000637669
36 *1522:C *1788:B2 0
37 *1531:A3 *1788:B2 1.68605e-05
38 *1531:A4 *1788:B2 0.00117264
39 *1532:B *1788:B2 9.43811e-05
40 *1544:A3 *1560:A4 0
41 *1556:A4 *1560:A4 0.00211445
42 *1560:A3 *1560:A4 9.04462e-05
43 *1579:A1 *1560:A4 0.000142592
44 *1636:A1 *1677:A1 0.000320262
45 *1639:A2 *1677:A1 0.000100112
46 *1659:A1 *1677:A1 1.37565e-05
47 *1675:S *560:77 0.000136958
48 *1678:A1 *1677:A1 3.12455e-05
49 *1678:B *1677:A1 1.61174e-05
50 *1764:A1 *1560:A4 0
51 *1764:A2 *1560:A4 1.71254e-05
52 *1790:A1 *1788:B2 0.000131521
53 *1795:A2 *560:16 4.9235e-05
54 *1796:A1 *560:10 0.000216299
55 *1796:A1 *560:16 0.000559949
56 *1800:A2 *560:16 0.000229402
57 *1809:CLK *560:58 1.96635e-05
58 *1813:D *560:10 8.95422e-05
59 *1813:D *560:16 0.000270166
60 *1813:CLK *560:10 7.92346e-05
61 *1849:CLK *560:10 0.000295367
62 *1850:D *560:10 0
63 *1854:CLK *560:10 7.18388e-06
64 *1856:CLK *1677:A1 2.67353e-05
65 *1858:CLK *1677:A1 0.000496766
66 *1859:D *1677:A1 5.3819e-05
67 *1865:D *560:58 3.31567e-05
68 *1897:I *1560:A4 0
69 *1920:I *560:10 0.000851874
70 *1920:I *560:16 0.000502288
71 *141:153 *1788:B2 0.000433567
72 *158:42 *560:16 0.000262851
73 *176:47 *1560:A4 4.29917e-05
74 *206:8 *1560:A4 3.49148e-05
75 *240:43 *1560:A4 6.03772e-05
76 *250:14 *1560:A4 3.64675e-05
77 *434:40 *1788:B2 0.000145212
78 *434:40 *560:58 0.00256434
79 *434:90 *1788:B2 3.48413e-05
80 *434:107 *1788:B2 1.74666e-05
81 *458:16 *560:16 0.000298884
82 *458:22 *1677:A1 3.94564e-05
83 *458:22 *560:16 0.000179376
84 *459:29 *1677:A1 0.000154311
85 *459:29 *560:16 0.000169917
86 *462:19 *560:16 0
87 *462:21 *1677:A1 6.87519e-05
88 *462:21 *560:16 0
89 *475:18 *1677:A1 0.000895051
90 *475:68 *1677:A1 0.000987527
91 *475:95 *1677:A1 7.14937e-05
92 *475:103 *1677:A1 0.000101805
93 *477:100 *1788:B2 0.000235076
94 *492:247 *1509:A1 1.62696e-05
95 *492:343 *560:16 6.8023e-06
96 *559:67 *1560:A4 0.000164876
*RES
1 *1810:Q *560:10 15.66 
2 *560:10 *560:16 21.06 
3 *560:16 *1677:A1 26.55 
4 *560:16 *1445:A1 4.5 
5 *560:10 *1676:I0 27.63 
6 *1676:I0 *560:58 12.96 
7 *560:58 *1788:B2 20.79 
8 *560:58 *560:77 5.67 
9 *560:77 *1560:A4 37.17 
10 *560:77 *1509:A1 9.27 
*END

*D_NET *561 0.0224901
*CONN
*I *1790:B2 I *D gf180mcu_fd_sc_mcu7t5v0__aoi22_1
*I *1514:A1 I *D gf180mcu_fd_sc_mcu7t5v0__oai22_1
*I *1679:I1 I *D gf180mcu_fd_sc_mcu7t5v0__mux2_2
*I *1408:I I *D gf180mcu_fd_sc_mcu7t5v0__clkinv_1
*I *1811:Q O *D gf180mcu_fd_sc_mcu7t5v0__dffq_1
*CAP
1 *1790:B2 0.00205231
2 *1514:A1 0.000109025
3 *1679:I1 9.28259e-05
4 *1408:I 0
5 *1811:Q 0.000381303
6 *561:38 0.00247251
7 *561:25 0.000927456
8 *561:12 0.00090476
9 *1514:A1 *1514:B2 4.94535e-05
10 *1790:B2 *1632:I0 0
11 *1790:B2 *1924:I 0
12 *1452:B *561:25 0.00142469
13 *1503:A1 *561:12 0.000170691
14 *1503:A1 *561:25 9.06009e-05
15 *1506:B *1790:B2 0
16 *1511:A1 *561:25 0.00136686
17 *1511:A1 *561:38 0.0018509
18 *1512:I0 *1790:B2 0
19 *1512:I1 *1790:B2 0.000338443
20 *1513:A2 *561:25 3.94291e-05
21 *1514:B1 *1514:A1 7.73059e-05
22 *1515:A1 *1790:B2 0
23 *1516:A2 *1514:A1 0.000473864
24 *1516:B *1790:B2 0.000183738
25 *1518:A2 *561:25 0.00195322
26 *1529:A1 *561:25 0.000327769
27 *1529:A1 *561:38 5.8967e-05
28 *1529:A2 *1679:I1 0
29 *1530:A2 *1790:B2 4.97116e-05
30 *1532:A1 *1790:B2 0.00032812
31 *1532:A1 *561:38 0.00194028
32 *1532:A2 *1790:B2 8.12856e-06
33 *1675:S *1790:B2 3.38463e-05
34 *1784:B2 *1790:B2 8.49208e-05
35 *1796:A1 *1790:B2 0.000370119
36 *1796:A1 *561:38 0.000191926
37 *1809:D *1790:B2 0.000103635
38 *1809:CLK *1790:B2 3.70283e-05
39 *1810:D *1790:B2 0.000931696
40 *1812:D *561:38 0.000284518
41 *1850:D *1790:B2 0.000682689
42 *1851:D *1790:B2 0.000101016
43 *1866:D *1790:B2 9.13402e-05
44 *1866:CLK *1790:B2 0.000284389
45 *131:12 *561:12 0.0001102
46 *142:170 *561:25 0.000161479
47 *161:8 *561:12 5.94224e-05
48 *180:25 *561:25 0.000267366
49 *458:16 *561:25 1.66988e-05
50 *461:23 *561:25 3.42213e-05
51 *488:127 *561:12 0.000169927
52 *520:33 *1679:I1 9.8582e-06
53 *558:42 *1790:B2 0.000358292
54 *559:33 *1790:B2 0.000417002
55 *559:106 *1790:B2 6.75054e-06
56 *560:16 *561:25 9.35987e-06
*RES
1 *1811:Q *561:12 17.1 
2 *561:12 *1408:I 4.5 
3 *561:12 *561:25 15.03 
4 *561:25 *1679:I1 9.45 
5 *561:25 *561:38 7.74 
6 *561:38 *1514:A1 10.35 
7 *561:38 *1790:B2 29.07 
*END

*D_NET *562 0.0339564
*CONN
*I *1679:I0 I *D gf180mcu_fd_sc_mcu7t5v0__mux2_2
*I *1520:B2 I *D gf180mcu_fd_sc_mcu7t5v0__oai221_1
*I *1792:B2 I *D gf180mcu_fd_sc_mcu7t5v0__aoi22_1
*I *1450:A1 I *D gf180mcu_fd_sc_mcu7t5v0__nand2_1
*I *1680:I1 I *D gf180mcu_fd_sc_mcu7t5v0__mux2_2
*I *1569:A2 I *D gf180mcu_fd_sc_mcu7t5v0__nand2_1
*I *1812:Q O *D gf180mcu_fd_sc_mcu7t5v0__dffq_1
*CAP
1 *1679:I0 0
2 *1520:B2 0.000391348
3 *1792:B2 3.44897e-05
4 *1450:A1 0.000781899
5 *1680:I1 0
6 *1569:A2 0.0020559
7 *1812:Q 3.44897e-05
8 *562:81 0.000865495
9 *562:71 0.000727307
10 *562:50 0.00131883
11 *562:39 0.000453419
12 *562:6 0.00229452
13 *1450:A1 *564:52 8.9944e-05
14 *1569:A2 *1417:I 1.69023e-06
15 *1569:A2 *1479:A1 0.00048874
16 *1569:A2 *1504:B2 0.000897399
17 *1569:A2 *1574:A2 0.000653043
18 *1569:A2 *1631:I0 0.000161479
19 *1569:A2 *1914:I 0.000359199
20 *1569:A2 *1926:I 0.0010704
21 *1569:A2 *1927:I 5.63085e-05
22 *1569:A2 *581:46 2.46661e-05
23 *1569:A2 *581:52 5.22596e-06
24 *1569:A2 *582:132 0.000829524
25 *1569:A2 *584:20 0.000565127
26 *562:39 *1927:I 1.56779e-05
27 *562:50 *563:22 0.000542155
28 *562:50 *564:44 0.000134237
29 *562:50 *564:52 7.14936e-05
30 *562:71 *563:26 0.00086541
31 *1424:I *1520:B2 0.000182476
32 *1442:A2 *1520:B2 0.000148235
33 *1451:A3 *1450:A1 0.000204527
34 *1453:A1 *562:81 4.34467e-06
35 *1457:A3 *1450:A1 0.000297533
36 *1516:A2 *1569:A2 8.01894e-05
37 *1523:A1 *1520:B2 0.000653848
38 *1523:B1 *1520:B2 0.000284445
39 *1523:B1 *562:81 1.86284e-05
40 *1527:A1 *562:81 0.000119101
41 *1528:I1 *1569:A2 0.00337342
42 *1528:I1 *562:39 0.000156885
43 *1533:I0 *1520:B2 0.000184352
44 *1594:A2 *1569:A2 0.000147951
45 *1676:S *1569:A2 5.20752e-05
46 *1681:S *562:71 0.000140266
47 *1781:A1 *1569:A2 7.30414e-05
48 *1792:A1 *562:81 0.000453188
49 *1793:A2 *562:81 0.000164228
50 *1795:A2 *562:39 0.000393144
51 *1795:A2 *562:50 3.2625e-05
52 *1795:A2 *562:71 0.000928379
53 *1797:A2 *1450:A1 0.000159857
54 *1800:A1 *1450:A1 0.00052864
55 *1800:A2 *1450:A1 0
56 *1800:B *1450:A1 5.55698e-05
57 *1800:B *562:71 0.000226643
58 *1809:CLK *1569:A2 0
59 *1813:D *562:39 0.000918669
60 *1814:D *562:50 4.12795e-05
61 *1850:D *562:39 0.000557753
62 *1852:D *1450:A1 9.94441e-06
63 *1854:D *1450:A1 6.20781e-05
64 *1854:D *562:50 9.35086e-05
65 *1862:D *1450:A1 0.000367588
66 *1865:D *1569:A2 0.000256629
67 *1869:D *1569:A2 0.00027566
68 *1870:D *1569:A2 2.44114e-05
69 *1900:I *1569:A2 0.000311065
70 *140:12 *1569:A2 4.54603e-06
71 *141:58 *1569:A2 0.000268036
72 *141:65 *1569:A2 0.000897399
73 *141:80 *1569:A2 0.00144572
74 *159:12 *1520:B2 1.32722e-05
75 *180:10 *562:81 7.00413e-05
76 *180:21 *562:71 1.10145e-05
77 *180:21 *562:81 6.39361e-05
78 *208:92 *1520:B2 0.000616533
79 *434:16 *1569:A2 0.000100105
80 *434:40 *1520:B2 0.000176421
81 *434:40 *562:81 9.84908e-05
82 *461:12 *562:81 0
83 *462:19 *562:39 0.00052094
84 *488:127 *562:81 6.0354e-06
85 *492:317 *1450:A1 1.20708e-05
86 *520:26 *1520:B2 0.000248523
87 *520:26 *562:71 2.93836e-05
88 *520:26 *562:81 0.00125584
89 *520:33 *562:71 3.22348e-05
90 *560:58 *1569:A2 0.000314282
*RES
1 *1812:Q *562:6 4.77 
2 *562:6 *1569:A2 32.04 
3 *562:6 *562:39 15.48 
4 *562:39 *1680:I1 4.5 
5 *562:39 *562:50 7.38 
6 *562:50 *1450:A1 25.65 
7 *562:50 *562:71 9.09 
8 *562:71 *562:81 14.49 
9 *562:81 *1792:B2 4.77 
10 *562:81 *1520:B2 19.35 
11 *562:71 *1679:I0 4.5 
*END

*D_NET *563 0.0285554
*CONN
*I *1681:I1 I *D gf180mcu_fd_sc_mcu7t5v0__mux2_2
*I *1680:I0 I *D gf180mcu_fd_sc_mcu7t5v0__mux2_2
*I *1525:A1 I *D gf180mcu_fd_sc_mcu7t5v0__oai22_1
*I *1574:A2 I *D gf180mcu_fd_sc_mcu7t5v0__nand2_1
*I *1794:B2 I *D gf180mcu_fd_sc_mcu7t5v0__aoi22_1
*I *1453:A2 I *D gf180mcu_fd_sc_mcu7t5v0__nor2_1
*I *1813:Q O *D gf180mcu_fd_sc_mcu7t5v0__dffq_1
*CAP
1 *1681:I1 0
2 *1680:I0 0
3 *1525:A1 0
4 *1574:A2 0.00230087
5 *1794:B2 0
6 *1453:A2 0.000160098
7 *1813:Q 0.000137376
8 *563:60 0.00311511
9 *563:32 0.00031782
10 *563:26 0.00105515
11 *563:22 0.000483339
12 *563:12 0.000537525
13 *1574:A2 *1479:A1 0.000133717
14 *1574:A2 *1514:B2 6.23828e-05
15 *1574:A2 *1631:I1 0.000153289
16 *1574:A2 *1632:I1 4.57151e-05
17 *1574:A2 *1928:I 0.00091518
18 *1574:A2 *582:85 0.000104823
19 *1574:A2 *582:128 0.000490017
20 *1574:A2 *582:132 0.00026013
21 *1574:A2 *584:20 1.58782e-05
22 *563:12 *564:44 0.000888386
23 *563:60 *1632:I3 0
24 *563:60 *1926:I 0
25 CYC_O *563:12 0.000150593
26 *1453:A1 *1453:A2 2.18454e-05
27 *1506:A1 *1574:A2 0.000116937
28 *1509:A1 *1574:A2 9.30128e-05
29 *1511:A1 *563:60 0.000746337
30 *1514:A2 *563:60 0.000927295
31 *1516:A1 *563:32 6.84075e-05
32 *1516:A1 *563:60 0.00010457
33 *1528:I1 *1574:A2 0.000253523
34 *1528:S *1574:A2 0.000833658
35 *1529:A1 *563:32 5.00297e-05
36 *1529:A1 *563:60 0.00100255
37 *1529:A2 *563:22 0
38 *1532:A1 *563:60 0.000125039
39 *1535:A1 *1574:A2 7.381e-05
40 *1569:A1 *1574:A2 0.000502347
41 *1569:A2 *1574:A2 0.000653043
42 *1578:A2 *1574:A2 3.59759e-05
43 *1591:A1 *1574:A2 7.73282e-05
44 *1591:A2 *1574:A2 0.000264319
45 *1592:B *1574:A2 0.000100113
46 *1594:A1 *1574:A2 0.000230959
47 *1594:B *1574:A2 9.04462e-05
48 *1681:S *563:22 0.00021153
49 *1795:A2 *563:22 0.000174063
50 *1795:A2 *563:32 0.000317701
51 *1812:D *563:60 0.000150321
52 *1814:D *563:22 1.35833e-05
53 *1852:D *563:12 9.01546e-05
54 *1869:D *1574:A2 0.00076593
55 *1891:I *563:12 0.000319294
56 *1899:I *1574:A2 0.000165461
57 *141:58 *1574:A2 0.000268036
58 *141:65 *1574:A2 0.000867251
59 *141:80 *1574:A2 0.000598281
60 *157:10 *1574:A2 2.61464e-05
61 *180:25 *563:32 0.00013169
62 *193:97 *1574:A2 0.000166065
63 *193:115 *1574:A2 0.000649549
64 *241:8 *1574:A2 0.000289489
65 *241:64 *1574:A2 4.81281e-05
66 *434:47 *1453:A2 0.000187305
67 *461:23 *563:32 0.000219114
68 *478:99 *1453:A2 0.000418993
69 *478:99 *563:32 6.83517e-05
70 *492:247 *1574:A2 4.72947e-05
71 *492:313 *563:12 0.00107429
72 *492:317 *563:12 0.000536348
73 *518:151 *1453:A2 9.84908e-05
74 *518:151 *563:32 0.000145763
75 *520:26 *563:26 3.01487e-05
76 *520:33 *563:22 8.12856e-06
77 *520:33 *563:26 0.000827216
78 *559:67 *1574:A2 0.000445112
79 *560:16 *563:22 8.96623e-05
80 *562:50 *563:22 0.000542155
81 *562:71 *563:26 0.00086541
*RES
1 *1813:Q *563:12 19.44 
2 *563:12 *563:22 13.05 
3 *563:22 *563:26 6.93 
4 *563:26 *563:32 6.84 
5 *563:32 *1453:A2 6.66 
6 *563:32 *1794:B2 4.5 
7 *563:26 *563:60 13.68 
8 *563:60 *1574:A2 40.95 
9 *563:60 *1525:A1 4.5 
10 *563:22 *1680:I0 4.5 
11 *563:12 *1681:I1 4.5 
*END

*D_NET *564 0.0205953
*CONN
*I *1681:I0 I *D gf180mcu_fd_sc_mcu7t5v0__mux2_2
*I *1796:B2 I *D gf180mcu_fd_sc_mcu7t5v0__aoi22_1
*I *1456:A1 I *D gf180mcu_fd_sc_mcu7t5v0__nand2_1
*I *1530:A1 I *D gf180mcu_fd_sc_mcu7t5v0__oai22_1
*I *1579:B2 I *D gf180mcu_fd_sc_mcu7t5v0__oai32_1
*I *1814:Q O *D gf180mcu_fd_sc_mcu7t5v0__dffq_1
*CAP
1 *1681:I0 1.95758e-05
2 *1796:B2 6.83734e-05
3 *1456:A1 2.22482e-05
4 *1530:A1 0.000103669
5 *1579:B2 0.00116143
6 *1814:Q 0
7 *564:52 0.000280378
8 *564:44 0.000806925
9 *564:16 0.00443201
10 *564:4 0.00376451
11 *564:16 *1927:I 5.41383e-05
12 *564:44 *1927:I 7.20436e-05
13 CYC_O *564:44 7.81701e-05
14 *1450:A1 *564:52 8.9944e-05
15 *1456:A2 *1796:B2 6.68757e-05
16 *1457:A2 *564:52 2.32439e-05
17 *1457:A3 *1456:A1 3.22122e-05
18 *1457:A3 *564:52 0.000681882
19 *1504:A2 *564:16 0.000169814
20 *1512:I0 *1530:A1 6.96766e-06
21 *1512:I0 *564:16 5.19278e-05
22 *1560:A4 *1579:B2 0.0010653
23 *1560:A4 *564:16 0.000102053
24 *1675:S *1530:A1 0.000128834
25 *1676:I0 *564:16 0.00160282
26 *1681:S *1681:I0 9.85004e-05
27 *1797:A2 *1796:B2 1.43209e-05
28 *1797:A2 *564:52 3.92172e-06
29 *1800:B *1456:A1 0
30 *1800:B *1681:I0 1.56862e-05
31 *1800:B *1796:B2 0.000309143
32 *1800:B *564:52 0.000911682
33 *1814:D *564:44 0.000219842
34 *1854:D *564:44 0.000124534
35 *1854:CLK *564:44 1.24158e-05
36 *1891:I *564:44 0.000319294
37 *1899:I *564:16 3.18466e-05
38 *141:129 *564:16 0
39 *176:47 *564:16 5.01519e-05
40 *434:16 *1530:A1 0.000211933
41 *434:16 *1579:B2 0.00130438
42 *434:90 *1530:A1 0.00043521
43 *492:317 *564:44 8.72359e-05
44 *492:317 *564:52 0.000101812
45 *518:151 *1796:B2 9.89629e-06
46 *560:77 *1530:A1 0.000211933
47 *560:77 *564:16 0.000142139
48 *562:50 *564:44 0.000134237
49 *562:50 *564:52 7.14936e-05
50 *563:12 *564:44 0.000888386
*RES
1 *1814:Q *564:4 4.5 
2 *564:4 *564:16 33.75 
3 *564:16 *1579:B2 28.17 
4 *564:16 *1530:A1 10.89 
5 *564:4 *564:44 13.14 
6 *564:44 *564:52 8.19 
7 *564:52 *1456:A1 4.77 
8 *564:52 *1796:B2 5.49 
9 *564:44 *1681:I0 9.27 
*END

*D_NET *565 0.00805171
*CONN
*I *1433:A2 I *D gf180mcu_fd_sc_mcu7t5v0__nand2_1
*I *1537:A4 I *D gf180mcu_fd_sc_mcu7t5v0__and4_1
*I *1538:A4 I *D gf180mcu_fd_sc_mcu7t5v0__nand4_1
*I *1700:A1 I *D gf180mcu_fd_sc_mcu7t5v0__nand4_1
*I *1698:B I *D gf180mcu_fd_sc_mcu7t5v0__aoi21_1
*I *1817:Q O *D gf180mcu_fd_sc_mcu7t5v0__dffq_1
*CAP
1 *1433:A2 0
2 *1537:A4 0.000124538
3 *1538:A4 0.000169439
4 *1700:A1 0.00051857
5 *1698:B 0.00076307
6 *1817:Q 3.3353e-05
7 *565:38 0.000384259
8 *565:34 0.000157779
9 *565:23 0.00135202
10 *565:6 0.00156237
11 *1700:A1 *1695:I1 0
12 *1433:A1 *565:38 6.85018e-05
13 *1537:A2 *1538:A4 2.69053e-05
14 *1537:A3 *1538:A4 7.77088e-05
15 *1549:B2 *1700:A1 4.04291e-05
16 *1549:B2 *565:23 6.60189e-05
17 *1549:B2 *565:34 2.7993e-05
18 *1549:B2 *565:38 4.10149e-05
19 *1552:A1 *1538:A4 2.3259e-05
20 *1552:A1 *565:6 1.64264e-05
21 *1552:A1 *565:23 0.00122509
22 *1697:I1 *565:23 0
23 *1701:A1 *1537:A4 3.31517e-06
24 *1701:A1 *1700:A1 0
25 *1701:A1 *565:38 1.75781e-05
26 *1701:B *1700:A1 0
27 *1818:CLK *565:23 9.92058e-05
28 *1872:D *565:23 7.96333e-06
29 *1893:I *1698:B 0
30 *128:19 *1537:A4 8.68281e-06
31 *128:19 *1538:A4 9.04462e-05
32 *128:28 *1537:A4 2.89427e-06
33 *128:28 *1538:A4 6.02974e-05
34 *143:8 *565:34 2.6575e-05
35 *143:8 *565:38 3.08806e-06
36 *153:8 *1537:A4 0.000375166
37 *153:8 *565:38 0.000174497
38 *244:10 *1537:A4 3.12451e-05
39 *359:40 *1700:A1 0
40 *361:30 *1698:B 0
41 *473:21 *565:23 2.86087e-05
42 *492:52 *1698:B 0.000119954
43 *492:54 *1698:B 0.000178014
44 *492:58 *1698:B 0.000109143
45 *492:105 *565:6 0
46 *492:105 *565:23 0
47 *556:25 *1700:A1 3.29767e-05
48 *556:25 *565:23 0
49 *556:25 *565:34 3.31858e-06
*RES
1 *1817:Q *565:6 4.77 
2 *565:6 *1698:B 18.81 
3 *565:6 *565:23 12.42 
4 *565:23 *1700:A1 12.33 
5 *565:23 *565:34 0.63 
6 *565:34 *565:38 1.26 
7 *565:38 *1538:A4 10.35 
8 *565:38 *1537:A4 10.26 
9 *565:34 *1433:A2 9 
*END

*D_NET *566 0.00223784
*CONN
*I *1930:I I *D gf180mcu_fd_sc_mcu7t5v0__dlyc_1
*I *1818:Q O *D gf180mcu_fd_sc_mcu7t5v0__dffq_1
*CAP
1 *1930:I 0.000576485
2 *1818:Q 0.000576485
3 *1475:A4 *1930:I 0
4 *1893:I *1930:I 9.00823e-05
5 *128:6 *1930:I 0.000302466
6 *244:10 *1930:I 6.47307e-05
7 *248:18 *1930:I 9.28737e-05
8 *447:62 *1930:I 0.000406954
9 *447:115 *1930:I 0.000127759
*RES
1 *1818:Q *1930:I 23.31 
*END

*D_NET *567 0.0190177
*CONN
*I *1411:I I *D gf180mcu_fd_sc_mcu7t5v0__clkinv_1
*I *1685:A3 I *D gf180mcu_fd_sc_mcu7t5v0__and4_1
*I *1693:A3 I *D gf180mcu_fd_sc_mcu7t5v0__nand4_1
*I *1625:A2 I *D gf180mcu_fd_sc_mcu7t5v0__nand2_1
*I *1688:A2 I *D gf180mcu_fd_sc_mcu7t5v0__nand4_1
*I *1686:A3 I *D gf180mcu_fd_sc_mcu7t5v0__nand4_1
*I *1692:A4 I *D gf180mcu_fd_sc_mcu7t5v0__nand4_1
*I *1703:A2 I *D gf180mcu_fd_sc_mcu7t5v0__aoi21_1
*I *1885:Q O *D gf180mcu_fd_sc_mcu7t5v0__dffq_1
*CAP
1 *1411:I 0
2 *1685:A3 0
3 *1693:A3 5.90722e-05
4 *1625:A2 6.86337e-05
5 *1688:A2 0
6 *1686:A3 7.18028e-05
7 *1692:A4 0
8 *1703:A2 0.00016084
9 *1885:Q 0.00161341
10 *567:88 0.000286497
11 *567:77 0.000442955
12 *567:60 0.000515922
13 *567:51 0.000856954
14 *567:45 0.000758735
15 *567:30 0.00102073
16 *567:20 0.00241156
17 *1428:A1 *567:20 0.000256675
18 *1614:A1 *567:20 0.000891125
19 *1614:A1 *567:30 0.00118759
20 *1614:A2 *567:20 4.83522e-05
21 *1616:A1 *1703:A2 9.40954e-05
22 *1616:A1 *567:45 0.000167848
23 *1616:A3 *567:20 1.61174e-05
24 *1616:A3 *567:30 6.44696e-05
25 *1623:A2 *567:45 0.000309993
26 *1623:B2 *1703:A2 3.48193e-05
27 *1623:B2 *567:45 4.93782e-06
28 *1623:B2 *567:51 3.97987e-05
29 *1625:A1 *1625:A2 1.51086e-05
30 *1625:A1 *1693:A3 0.000293663
31 *1628:A2 *1703:A2 0.000433797
32 *1628:A2 *567:20 9.13244e-05
33 *1630:A2 *567:20 9.85004e-05
34 *1630:B *567:20 0.000266818
35 *1661:A1 *567:20 7.8081e-05
36 *1661:A3 *567:20 0.000352047
37 *1685:A1 *567:51 1.0415e-05
38 *1688:A4 *1625:A2 6.97829e-06
39 *1688:A4 *567:77 6.06287e-05
40 *1688:A4 *567:88 8.89409e-06
41 *1691:A2 *1693:A3 2.5448e-05
42 *1692:A3 *567:51 0.00016326
43 *1692:A3 *567:60 0.000420092
44 *1693:A4 *567:88 2.47453e-05
45 *1694:A3 *567:51 5.85392e-05
46 *1694:A3 *567:60 0.000132611
47 *1694:A3 *567:77 0.000103944
48 *1703:A1 *1703:A2 0.000115564
49 *1706:B *567:51 4.1068e-05
50 *1710:A2 *1693:A3 0.00032357
51 *1710:A2 *567:77 0
52 *1710:A2 *567:88 1.31385e-05
53 *1731:A1 *567:20 1.73683e-05
54 *1734:A2 *567:20 8.36919e-05
55 *1751:A1 *1686:A3 0.000294431
56 *1751:A1 *567:77 2.81008e-05
57 *1821:D *567:20 4.18699e-05
58 *134:8 *567:30 3.55118e-05
59 *134:14 *567:20 0.000365445
60 *134:14 *567:30 0.000177559
61 *297:20 *567:51 3.42783e-05
62 *299:20 *567:30 0.000381221
63 *309:31 *1686:A3 1.43546e-05
64 *309:31 *567:77 0.000559764
65 *316:43 *567:20 0.000874824
66 *352:12 *567:20 9.84776e-05
67 *370:6 *1625:A2 7.191e-07
68 *375:12 *567:51 0.000308575
69 *382:6 *1703:A2 3.97987e-05
70 *386:18 *567:51 0.000417707
71 *486:52 *567:30 0
72 *487:72 *567:60 6.69502e-06
73 *487:74 *567:51 0.000140772
74 *487:76 *567:45 0.000101615
75 *487:76 *567:51 3.2559e-05
76 *487:120 *567:60 1.16612e-05
77 *487:120 *567:77 6.03342e-05
78 *516:14 *567:20 0.00035741
79 *517:6 *567:20 1.17853e-05
*RES
1 *1885:Q *567:20 21.78 
2 *567:20 *567:30 19.98 
3 *567:30 *1703:A2 10.98 
4 *567:30 *567:45 5.67 
5 *567:45 *567:51 10.26 
6 *567:51 *1692:A4 9 
7 *567:51 *567:60 1.71 
8 *567:60 *1686:A3 9.81 
9 *567:60 *567:77 7.65 
10 *567:77 *1688:A2 4.5 
11 *567:77 *567:88 1.17 
12 *567:88 *1625:A2 4.95 
13 *567:88 *1693:A3 14.76 
14 *567:45 *1685:A3 4.5 
15 *567:20 *1411:I 4.5 
*END

*D_NET *568 0.00148505
*CONN
*I *1908:I I *D gf180mcu_fd_sc_mcu7t5v0__dlyc_1
*I *1887:Q O *D gf180mcu_fd_sc_mcu7t5v0__dffq_1
*CAP
1 *1908:I 0.000742523
2 *1887:Q 0.000742523
3 *1887:D *1908:I 0
4 *1888:D *1908:I 0
5 *1938:I *1908:I 0
*RES
1 *1887:Q *1908:I 23.58 
*END

*D_NET *569 0.00315765
*CONN
*I *1667:A2 I *D gf180mcu_fd_sc_mcu7t5v0__oai21_1
*I *1599:B2 I *D gf180mcu_fd_sc_mcu7t5v0__oai22_1
*I *1598:A2 I *D gf180mcu_fd_sc_mcu7t5v0__nor2_1
*I *1595:A2 I *D gf180mcu_fd_sc_mcu7t5v0__nand2_1
*I *1836:Q O *D gf180mcu_fd_sc_mcu7t5v0__dffq_1
*CAP
1 *1667:A2 2.02587e-05
2 *1599:B2 8.16165e-05
3 *1598:A2 0
4 *1595:A2 0.000136898
5 *1836:Q 0.000117168
6 *569:21 0.000132125
7 *569:10 0.000303631
8 *569:6 0.000253651
9 *1599:B1 *1599:B2 2.08042e-05
10 *1670:A3 *1667:A2 6.02974e-05
11 *1724:A1 *569:6 0
12 *1724:B *1667:A2 3.01487e-05
13 *1724:B *569:6 0.000286386
14 *1724:B *569:10 1.3026e-05
15 *1763:A1 *1599:B2 0.000382866
16 *1763:A1 *569:10 0.000127778
17 *1763:A1 *569:21 0.000247389
18 *1763:A2 *1595:A2 0
19 *1836:D *1599:B2 2.84807e-05
20 *1836:D *569:21 1.18076e-06
21 *1916:I *1667:A2 8.12023e-06
22 *1916:I *569:6 7.55765e-06
23 *142:33 *569:10 0.000382875
24 *290:10 *1595:A2 3.65186e-05
25 *485:18 *1595:A2 0.000474538
26 *485:18 *569:6 4.34121e-06
*RES
1 *1836:Q *569:6 5.49 
2 *569:6 *569:10 5.85 
3 *569:10 *1595:A2 10.35 
4 *569:10 *569:21 0.63 
5 *569:21 *1598:A2 9 
6 *569:21 *1599:B2 10.17 
7 *569:6 *1667:A2 4.77 
*END

*D_NET *570 0.00177504
*CONN
*I *1909:I I *D gf180mcu_fd_sc_mcu7t5v0__dlyc_1
*I *1889:Q O *D gf180mcu_fd_sc_mcu7t5v0__dffq_1
*CAP
1 *1909:I 0.000646019
2 *1889:Q 0.000646019
3 *1833:D *1909:I 0
4 *1890:D *1909:I 0.000482998
*RES
1 *1889:Q *1909:I 23.22 
*END

*D_NET *571 0.00546512
*CONN
*I *1914:I I *D gf180mcu_fd_sc_mcu7t5v0__dlyc_1
*I *1631:I3 I *D gf180mcu_fd_sc_mcu7t5v0__mux4_1
*I *1863:Q O *D gf180mcu_fd_sc_mcu7t5v0__dffq_1
*CAP
1 *1914:I 0.000375573
2 *1631:I3 0.000247175
3 *1863:Q 0
4 *571:6 0.000622748
5 *1914:I *1417:I 5.97457e-06
6 *1914:I *1504:B2 0.000886664
7 *1506:B *1914:I 2.41785e-05
8 *1511:A1 *1631:I3 1.35084e-05
9 *1512:S *1914:I 0.000162951
10 *1569:A2 *1914:I 0.000359199
11 *1631:S1 *1631:I3 1.86887e-06
12 *1782:B2 *1631:I3 5.91328e-05
13 *1782:B2 *1914:I 7.01302e-05
14 *1785:A2 *1914:I 0.000747647
15 *1788:B2 *1914:I 0.000388023
16 *1846:D *1914:I 2.54542e-05
17 *208:35 *1631:I3 0.000111971
18 *208:35 *1914:I 0.000190974
19 *520:16 *1631:I3 0.000206052
20 *559:37 *1914:I 0.000345038
21 *560:58 *1914:I 0.000620857
*RES
1 *1863:Q *571:6 9 
2 *571:6 *1631:I3 11.16 
3 *571:6 *1914:I 16.02 
*END

*D_NET *572 0.00445344
*CONN
*I *1928:I I *D gf180mcu_fd_sc_mcu7t5v0__dlyc_1
*I *1631:I2 I *D gf180mcu_fd_sc_mcu7t5v0__mux4_1
*I *1864:Q O *D gf180mcu_fd_sc_mcu7t5v0__dffq_1
*CAP
1 *1928:I 0.000451658
2 *1631:I2 0.000134693
3 *1864:Q 0
4 *572:6 0.000586351
5 *1928:I *1631:I1 0.000251128
6 *1506:A1 *1928:I 0.000269102
7 *1507:I0 *1631:I2 0.000135676
8 *1507:I0 *1928:I 0.000381433
9 *1527:B *1928:I 0.000977192
10 *1528:S *1928:I 4.48344e-05
11 *1574:A2 *1928:I 0.00091518
12 *1632:S0 *1631:I2 9.07674e-05
13 *176:80 *1631:I2 0.00015997
14 *492:262 *1631:I2 2.39814e-05
15 *492:262 *1928:I 9.75861e-06
16 *558:42 *1928:I 2.17099e-05
*RES
1 *1864:Q *572:6 9 
2 *572:6 *1631:I2 10.8 
3 *572:6 *1928:I 15.39 
*END

*D_NET *573 0.00586008
*CONN
*I *1923:I I *D gf180mcu_fd_sc_mcu7t5v0__dlyc_1
*I *1631:I1 I *D gf180mcu_fd_sc_mcu7t5v0__mux4_1
*I *1865:Q O *D gf180mcu_fd_sc_mcu7t5v0__dffq_1
*CAP
1 *1923:I 0.000353749
2 *1631:I1 0.000198724
3 *1865:Q 0.00010369
4 *573:8 0.000656162
5 *1506:A1 *1631:I1 0.000628106
6 *1506:B *573:8 0.000398686
7 *1507:I1 *1631:I1 0.000297143
8 *1507:I1 *1923:I 6.05852e-05
9 *1507:I1 *573:8 5.90767e-05
10 *1527:B *1631:I1 1.71215e-05
11 *1527:B *1923:I 0.000175953
12 *1533:I0 *1923:I 0.000109569
13 *1574:A2 *1631:I1 0.000153289
14 *1787:A2 *1923:I 0.000368911
15 *1788:A1 *1923:I 0.000284991
16 *1809:D *573:8 3.60275e-05
17 *1849:D *1923:I 0.00016327
18 *1928:I *1631:I1 0.000251128
19 *558:42 *1631:I1 0.000876715
20 *558:42 *1923:I 0.000510671
21 *559:20 *1923:I 0.00015651
*RES
1 *1865:Q *573:8 10.17 
2 *573:8 *1631:I1 13.14 
3 *573:8 *1923:I 13.68 
*END

*D_NET *574 0.0034309
*CONN
*I *1924:I I *D gf180mcu_fd_sc_mcu7t5v0__dlyc_1
*I *1631:I0 I *D gf180mcu_fd_sc_mcu7t5v0__mux4_1
*I *1866:Q O *D gf180mcu_fd_sc_mcu7t5v0__dffq_1
*CAP
1 *1924:I 7.91107e-05
2 *1631:I0 2.40677e-05
3 *1866:Q 0.000340601
4 *574:14 0.000443779
5 *1506:A1 *574:14 0.000218648
6 *1506:B *1924:I 9.85004e-05
7 *1569:A2 *1631:I0 0.000161479
8 *1783:A2 *1924:I 0.000396949
9 *1783:A2 *574:14 0.000618201
10 *1790:B2 *1924:I 0
11 *1791:A1 *1924:I 0.00017515
12 *1791:A1 *574:14 0.000255104
13 *1846:D *574:14 5.83222e-05
14 *208:43 *574:14 0.000275527
15 *492:247 *574:14 0.000146086
16 *492:258 *574:14 2.65444e-06
17 *559:67 *574:14 7.32331e-05
18 *560:58 *1631:I0 6.34901e-05
*RES
1 *1866:Q *574:14 13.32 
2 *574:14 *1631:I0 9.45 
3 *574:14 *1924:I 10.44 
*END

*D_NET *575 0.00460508
*CONN
*I *1926:I I *D gf180mcu_fd_sc_mcu7t5v0__dlyc_1
*I *1632:I3 I *D gf180mcu_fd_sc_mcu7t5v0__mux4_1
*I *1867:Q O *D gf180mcu_fd_sc_mcu7t5v0__dffq_1
*CAP
1 *1926:I 0.000558981
2 *1632:I3 0.000572322
3 *1867:Q 0
4 *575:6 0.0011313
5 *1632:I3 *582:85 0.00019527
6 *1926:I *1514:B2 7.58723e-05
7 *1926:I *1927:I 7.61255e-05
8 *1926:I *577:8 0
9 *1926:I *582:85 6.81314e-05
10 DAT_O[7] *1926:I 0.000268972
11 *1517:I1 *1632:I3 0.000294431
12 *1527:A1 *1632:I3 0.000170119
13 *1569:A2 *1926:I 0.0010704
14 *1632:S0 *1632:I3 1.07374e-05
15 *1867:D *1632:I3 3.60262e-05
16 *1869:D *1632:I3 4.71232e-05
17 *1966:I *1926:I 2.5344e-05
18 *478:125 *1632:I3 3.92172e-06
19 *563:60 *1632:I3 0
20 *563:60 *1926:I 0
*RES
1 *1867:Q *575:6 9 
2 *575:6 *1632:I3 13.5 
3 *575:6 *1926:I 14.4 
*END

*D_NET *576 0.00350791
*CONN
*I *1632:I2 I *D gf180mcu_fd_sc_mcu7t5v0__mux4_1
*I *1915:I I *D gf180mcu_fd_sc_mcu7t5v0__dlyc_1
*I *1868:Q O *D gf180mcu_fd_sc_mcu7t5v0__dffq_1
*CAP
1 *1632:I2 0.000180233
2 *1915:I 0.000235332
3 *1868:Q 0
4 *576:4 0.000415565
5 *1632:I2 *582:85 0.000109434
6 *1516:B *1915:I 0.000673503
7 *1632:S0 *1915:I 9.72117e-05
8 *1633:A2 *1915:I 0.000464388
9 *1676:S *1632:I2 1.3026e-05
10 *1865:CLK *1632:I2 0.00043778
11 *176:110 *1632:I2 0.000494104
12 *434:40 *1915:I 4.38269e-05
13 *492:296 *1915:I 5.41725e-05
14 *520:16 *1915:I 0.000219086
15 *520:26 *1632:I2 7.02473e-05
*RES
1 *1868:Q *576:4 4.5 
2 *576:4 *1915:I 16.74 
3 *576:4 *1632:I2 16.02 
*END

*D_NET *577 0.00779254
*CONN
*I *1927:I I *D gf180mcu_fd_sc_mcu7t5v0__dlyc_1
*I *1632:I1 I *D gf180mcu_fd_sc_mcu7t5v0__mux4_1
*I *1869:Q O *D gf180mcu_fd_sc_mcu7t5v0__dffq_1
*CAP
1 *1927:I 0.000998339
2 *1632:I1 0.000545984
3 *1869:Q 0.000103389
4 *577:8 0.00164771
5 CYC_O *1927:I 0
6 DAT_O[7] *1632:I1 9.29472e-05
7 DAT_O[7] *577:8 1.86887e-06
8 *1511:A1 *1632:I1 0.000846994
9 *1514:B1 *1632:I1 0.00103712
10 *1514:B1 *1927:I 1.56942e-05
11 *1516:A2 *1927:I 0.000205766
12 *1516:A2 *577:8 0.00027606
13 *1528:I1 *1632:I1 0.000235343
14 *1528:I1 *1927:I 1.97748e-06
15 *1532:A1 *1632:I1 0.000554508
16 *1569:A2 *1927:I 5.63085e-05
17 *1574:A2 *1632:I1 4.57151e-05
18 *1813:D *1927:I 0
19 *1850:D *1927:I 0.000230003
20 *1854:D *1927:I 0.000264763
21 *1854:CLK *1927:I 6.85264e-05
22 *1899:I *1632:I1 0.00017206
23 *1926:I *1927:I 7.61255e-05
24 *1926:I *577:8 0
25 *1966:I *1632:I1 7.49914e-05
26 *141:129 *1632:I1 9.84908e-05
27 *562:39 *1927:I 1.56779e-05
28 *564:16 *1927:I 5.41383e-05
29 *564:44 *1927:I 7.20436e-05
*RES
1 *1869:Q *577:8 5.58 
2 *577:8 *1632:I1 20.88 
3 *577:8 *1927:I 21.6 
*END

*D_NET *578 0.00323964
*CONN
*I *1925:I I *D gf180mcu_fd_sc_mcu7t5v0__dlyc_1
*I *1632:I0 I *D gf180mcu_fd_sc_mcu7t5v0__mux4_1
*I *1870:Q O *D gf180mcu_fd_sc_mcu7t5v0__dffq_1
*CAP
1 *1925:I 6.3712e-05
2 *1632:I0 0.000484678
3 *1870:Q 0.000185276
4 *578:6 0.000733666
5 *1442:A2 *1632:I0 0.000455757
6 *1532:A1 *1632:I0 0
7 *1532:A1 *578:6 0
8 *1533:I0 *1632:I0 0.000308232
9 *1790:B2 *1632:I0 0
10 *1850:D *1632:I0 6.13018e-05
11 *1850:D *578:6 6.35387e-05
12 *1921:I *1632:I0 0.0008099
13 *518:130 *1632:I0 7.35825e-05
*RES
1 *1870:Q *578:6 5.85 
2 *578:6 *1632:I0 18.9 
3 *578:6 *1925:I 4.95 
*END

*D_NET *579 0.00175759
*CONN
*I *1913:I I *D gf180mcu_fd_sc_mcu7t5v0__dlyc_1
*I *1879:Q O *D gf180mcu_fd_sc_mcu7t5v0__dffq_1
*CAP
1 *1913:I 0.000789255
2 *1879:Q 0.000789255
3 *1883:CLK *1913:I 0
4 *1884:CLK *1913:I 0
5 *154:44 *1913:I 8.35196e-05
6 *154:54 *1913:I 3.01487e-05
7 *157:73 *1913:I 6.54075e-05
8 *282:8 *1913:I 0
*RES
1 *1879:Q *1913:I 23.22 
*END

*D_NET *580 0.00147988
*CONN
*I *1911:I I *D gf180mcu_fd_sc_mcu7t5v0__dlyc_1
*I *1880:Q O *D gf180mcu_fd_sc_mcu7t5v0__dffq_1
*CAP
1 *1911:I 0.000179696
2 *1880:Q 0.000179696
3 *1911:I *1431:A2 0.000154199
4 *1431:A1 *1911:I 0
5 *1486:A1 *1911:I 0.000357824
6 *1586:A2 *1911:I 3.1297e-05
7 *129:12 *1911:I 3.55118e-05
8 *142:97 *1911:I 2.51776e-05
9 *144:27 *1911:I 0
10 *245:10 *1911:I 0.000356057
11 *492:133 *1911:I 0.00016042
*RES
1 *1880:Q *1911:I 20.43 
*END

*D_NET *581 0.0222683
*CONN
*I *1436:A2 I *D gf180mcu_fd_sc_mcu7t5v0__nor2_1
*I *1531:A2 I *D gf180mcu_fd_sc_mcu7t5v0__nand4_1
*I *1781:A2 I *D gf180mcu_fd_sc_mcu7t5v0__nor3_1
*I *1515:A2 I *D gf180mcu_fd_sc_mcu7t5v0__nand4_1
*I *1510:A2 I *D gf180mcu_fd_sc_mcu7t5v0__nand4_1
*I *1526:A2 I *D gf180mcu_fd_sc_mcu7t5v0__nand4_1
*I *1521:A2 I *D gf180mcu_fd_sc_mcu7t5v0__and4_1
*I *1500:A2 I *D gf180mcu_fd_sc_mcu7t5v0__nand4_1
*I *1495:A2 I *D gf180mcu_fd_sc_mcu7t5v0__and4_1
*I *1505:A2 I *D gf180mcu_fd_sc_mcu7t5v0__nand4_1
*I *1479:A2 I *D gf180mcu_fd_sc_mcu7t5v0__nand2_1
*I *1593:A3 I *D gf180mcu_fd_sc_mcu7t5v0__nand3_1
*I *1418:I I *D gf180mcu_fd_sc_mcu7t5v0__clkinv_1
*I *1476:B I *D gf180mcu_fd_sc_mcu7t5v0__aoi21_1
*I *1883:Q O *D gf180mcu_fd_sc_mcu7t5v0__dffq_1
*CAP
1 *1436:A2 0.000136742
2 *1531:A2 9.27716e-05
3 *1781:A2 0
4 *1515:A2 0.00019332
5 *1510:A2 0
6 *1526:A2 1.83853e-05
7 *1521:A2 0.000210774
8 *1500:A2 2.85822e-05
9 *1495:A2 0.000355304
10 *1505:A2 0
11 *1479:A2 0.000168802
12 *1593:A3 0.000133907
13 *1418:I 0
14 *1476:B 0
15 *1883:Q 0.000584316
16 *581:131 0.000659998
17 *581:101 0.000383886
18 *581:99 0.000607782
19 *581:93 0.000195714
20 *581:91 0.000350675
21 *581:78 0.000214342
22 *581:52 0.000392654
23 *581:48 0.000169098
24 *581:46 0.000131126
25 *581:42 0.00049994
26 *581:31 0.000478688
27 *581:25 0.000518942
28 *581:16 0.000767265
29 *1436:A2 *1436:A1 0.000183652
30 *1479:A2 *1478:B 7.28823e-05
31 *1479:A2 *1479:A1 0.000177463
32 *1479:A2 *584:16 0.000101624
33 *1479:A2 *584:20 3.38498e-05
34 *1593:A3 *1479:A1 4.96256e-05
35 *1593:A3 *584:16 0.00023968
36 *581:16 *582:14 0.000440557
37 *581:46 *584:8 0.000291749
38 *581:48 *584:8 0.000139375
39 *581:48 *584:12 3.01487e-05
40 *581:52 *584:12 0.000397541
41 *581:52 *584:20 1.39839e-05
42 *581:78 *583:10 0.000508092
43 *581:91 *583:10 3.53802e-05
44 *581:99 *583:73 6.61634e-06
45 *1437:A1 *581:42 3.73774e-06
46 *1437:A2 *581:42 8.12856e-06
47 *1472:A2 *581:16 2.36357e-05
48 *1478:A1 *581:52 9.3226e-06
49 *1478:A2 *1531:A2 0.000146022
50 *1478:A2 *581:78 9.84061e-05
51 *1478:A2 *581:91 3.64412e-05
52 *1495:A1 *581:131 0.00010273
53 *1495:A3 *1495:A2 0.000494048
54 *1495:A3 *1500:A2 5.82191e-05
55 *1496:A2 *581:25 1.7368e-05
56 *1496:C *1495:A2 0.000562321
57 *1496:C *1500:A2 0.000128989
58 *1496:C *581:31 0.000662846
59 *1496:C *581:42 0.000324011
60 *1500:A4 *1495:A2 7.40965e-05
61 *1505:A3 *581:91 0.000227854
62 *1510:A4 *1521:A2 0
63 *1510:A4 *581:99 2.62622e-05
64 *1510:A4 *581:131 0.000131199
65 *1511:B *1531:A2 1.14128e-05
66 *1515:A1 *1515:A2 0.00017207
67 *1515:A4 *581:131 0
68 *1516:B *1515:A2 7.55765e-06
69 *1521:A1 *1521:A2 0.000157911
70 *1521:A1 *1526:A2 1.61174e-05
71 *1521:A4 *1521:A2 3.90035e-05
72 *1522:C *1531:A2 0.000553471
73 *1522:C *581:42 0.00126869
74 *1527:B *1526:A2 2.31089e-05
75 *1527:B *581:131 2.30981e-05
76 *1569:A2 *581:46 2.46661e-05
77 *1569:A2 *581:52 5.22596e-06
78 *1582:A1 *1479:A2 7.77227e-05
79 *1592:B *581:99 2.81341e-05
80 *1594:A2 *581:46 0.000319216
81 *1594:A2 *581:48 0.000142047
82 *1594:A2 *581:52 0.000345298
83 *1799:B *1479:A2 3.55118e-05
84 *1881:D *581:99 0.000137697
85 *1881:D *581:131 3.19452e-05
86 *1882:D *581:91 1.97308e-05
87 *1883:CLK *581:25 9.02246e-06
88 *1892:I *581:42 0
89 *140:12 *581:46 6.39045e-05
90 *140:14 *581:78 1.20708e-05
91 *140:33 *1436:A2 0
92 *140:33 *581:31 0.000871233
93 *140:108 *581:91 0.00014556
94 *140:110 *1515:A2 6.7989e-05
95 *140:110 *581:93 5.30751e-05
96 *140:127 *581:99 0.00037944
97 *140:133 *1521:A2 9.24957e-06
98 *140:142 *1521:A2 3.98088e-05
99 *140:142 *1526:A2 2.93938e-05
100 *140:142 *581:131 0.000175108
101 *141:6 *581:42 9.30128e-05
102 *141:26 *581:25 9.34988e-05
103 *141:26 *581:31 0.000257305
104 *141:26 *581:42 6.96564e-06
105 *175:30 *581:16 0.000174623
106 *176:20 *581:16 9.04462e-05
107 *179:77 *581:16 8.5536e-05
108 *179:104 *581:16 7.69936e-06
109 *186:8 *581:25 2.68703e-05
110 *190:16 *581:25 0.000373285
111 *192:8 *1593:A3 9.43413e-05
112 *193:8 *1593:A3 0
113 *193:137 *1479:A2 0
114 *208:22 *581:25 1.52092e-05
115 *282:8 *581:25 0
116 *282:8 *581:31 0
117 *361:47 *581:16 0
118 *471:64 *581:16 0.00014603
119 *477:89 *1521:A2 4.83522e-05
120 *477:89 *581:131 0.000109129
121 *477:100 *1521:A2 0.000174029
122 *491:45 *1515:A2 3.57578e-05
123 *492:209 *1495:A2 0
124 *492:235 *1495:A2 0
125 *492:235 *1515:A2 0.000478005
126 *492:235 *1531:A2 0.000539413
127 *492:235 *581:42 0.000532202
128 *492:235 *581:93 0.000161479
129 *492:235 *581:99 0.000278772
*RES
1 *1883:Q *581:16 23.13 
2 *581:16 *1476:B 9 
3 *581:16 *581:25 1.89 
4 *581:25 *581:31 8.64 
5 *581:31 *1418:I 4.5 
6 *581:31 *581:42 8.64 
7 *581:42 *581:46 6.03 
8 *581:46 *581:48 0.45 
9 *581:48 *581:52 5.85 
10 *581:52 *1593:A3 10.35 
11 *581:52 *1479:A2 10.89 
12 *581:48 *581:78 5.85 
13 *581:78 *1505:A2 9 
14 *581:78 *581:91 6.66 
15 *581:91 *581:93 0.45 
16 *581:93 *581:99 7.02 
17 *581:99 *581:101 4.5 
18 *581:101 *1495:A2 8.64 
19 *581:101 *1500:A2 4.95 
20 *581:99 *581:131 8.1 
21 *581:131 *1521:A2 15.66 
22 *581:131 *1526:A2 4.77 
23 *581:93 *1510:A2 4.5 
24 *581:91 *1515:A2 6.66 
25 *581:46 *1781:A2 4.5 
26 *581:42 *1531:A2 10.98 
27 *581:25 *1436:A2 10.17 
*END

*D_NET *582 0.0337852
*CONN
*I *1530:B2 I *D gf180mcu_fd_sc_mcu7t5v0__oai22_1
*I *1504:B2 I *D gf180mcu_fd_sc_mcu7t5v0__oai22_1
*I *1509:B2 I *D gf180mcu_fd_sc_mcu7t5v0__oai22_1
*I *1417:I I *D gf180mcu_fd_sc_mcu7t5v0__clkinv_1
*I *1593:A2 I *D gf180mcu_fd_sc_mcu7t5v0__nand3_1
*I *1479:A1 I *D gf180mcu_fd_sc_mcu7t5v0__nand2_1
*I *1436:A1 I *D gf180mcu_fd_sc_mcu7t5v0__nor2_1
*I *1514:B2 I *D gf180mcu_fd_sc_mcu7t5v0__oai22_1
*I *1525:B2 I *D gf180mcu_fd_sc_mcu7t5v0__oai22_1
*I *1499:B2 I *D gf180mcu_fd_sc_mcu7t5v0__oai22_1
*I *1520:A1 I *D gf180mcu_fd_sc_mcu7t5v0__oai221_1
*I *1469:A1 I *D gf180mcu_fd_sc_mcu7t5v0__oai221_1
*I *1884:Q O *D gf180mcu_fd_sc_mcu7t5v0__dffq_1
*CAP
1 *1530:B2 3.65905e-05
2 *1504:B2 0.000117813
3 *1509:B2 0
4 *1417:I 0.000132683
5 *1593:A2 0
6 *1479:A1 0.000250373
7 *1436:A1 0.000284919
8 *1514:B2 0.000635554
9 *1525:B2 0
10 *1499:B2 0.000353612
11 *1520:A1 0.000199689
12 *1469:A1 0
13 *1884:Q 0.000224458
14 *582:167 0.000117813
15 *582:165 0.00012024
16 *582:132 0.000440866
17 *582:128 0.000459373
18 *582:120 0.000625976
19 *582:107 0.000858389
20 *582:85 0.00161447
21 *582:56 0.00142832
22 *582:43 0.00104974
23 *582:22 0.00110994
24 *582:14 0.000747484
25 *1479:A1 *584:20 4.59085e-05
26 *1436:A2 *1436:A1 0.000183652
27 *1469:A2 *582:22 1.61174e-05
28 *1469:A2 *582:43 0.000267065
29 *1470:A1 *582:22 8.15565e-05
30 *1472:A2 *582:14 8.74848e-06
31 *1476:A2 *582:14 0
32 *1479:A2 *1479:A1 0.000177463
33 *1497:A1 *582:120 0.000341172
34 *1497:A2 *582:22 9.91804e-05
35 *1499:B1 *1499:B2 0.000156001
36 *1501:A2 *1520:A1 0
37 *1501:A2 *582:43 0.000324971
38 *1501:B *1499:B2 0.000109332
39 *1502:I0 *582:43 8.68281e-06
40 *1502:S *582:43 0
41 *1506:A2 *1520:A1 5.135e-05
42 *1506:B *1417:I 9.85004e-05
43 *1506:B *582:43 9.04462e-05
44 *1507:I0 *582:43 7.15037e-05
45 *1511:B *1530:B2 0.000355147
46 *1511:B *582:120 0.000802692
47 *1511:B *582:165 0.000257749
48 *1514:A1 *1514:B2 4.94535e-05
49 *1514:B1 *1514:B2 0.000347906
50 *1516:A2 *1514:B2 0.00101965
51 *1516:B *582:43 1.0415e-05
52 *1516:B *582:56 0.00100029
53 *1517:S *582:85 3.10167e-05
54 *1520:B1 *1520:A1 0.00023968
55 *1520:B1 *582:43 1.39839e-05
56 *1520:B1 *582:56 0.000843781
57 *1522:B *582:120 0.00024055
58 *1522:C *1417:I 0.000521737
59 *1522:C *1436:A1 7.49684e-05
60 *1522:C *582:128 0.000154116
61 *1523:A1 *1436:A1 1.13477e-05
62 *1527:A1 *582:85 0.000144947
63 *1527:A2 *582:85 3.76941e-05
64 *1569:A2 *1417:I 1.69023e-06
65 *1569:A2 *1479:A1 0.00048874
66 *1569:A2 *1504:B2 0.000897399
67 *1569:A2 *582:132 0.000829524
68 *1574:A2 *1479:A1 0.000133717
69 *1574:A2 *1514:B2 6.23828e-05
70 *1574:A2 *582:85 0.000104823
71 *1574:A2 *582:128 0.000490017
72 *1574:A2 *582:132 0.00026013
73 *1591:A2 *582:132 0.000209001
74 *1593:A3 *1479:A1 4.96256e-05
75 *1594:A1 *582:132 0.000425761
76 *1632:I2 *582:85 0.000109434
77 *1632:I3 *582:85 0.00019527
78 *1632:S0 *1499:B2 0.00049208
79 *1632:S0 *582:85 0.000991322
80 *1634:A1 *582:43 6.79498e-05
81 *1788:B2 *1530:B2 0.000231561
82 *1799:B *1479:A1 3.22348e-05
83 *1810:CLK *1514:B2 0.000476619
84 *1813:D *1514:B2 4.6613e-06
85 *1847:D *1499:B2 0.00023712
86 *1863:CLK *582:22 4.83522e-05
87 *1863:CLK *582:43 0.000275961
88 *1864:D *1499:B2 5.90767e-05
89 *1864:D *582:43 0.000530071
90 *1867:D *582:85 0.000302812
91 *1869:D *582:85 3.08806e-06
92 *1870:CLK *1514:B2 0.000261204
93 *1883:CLK *582:14 0.000180303
94 *1883:CLK *582:107 9.21855e-05
95 *1883:CLK *582:120 0.000132007
96 *1899:I *1520:A1 4.38724e-05
97 *1900:I *1514:B2 5.52717e-05
98 *1914:I *1417:I 5.97457e-06
99 *1914:I *1504:B2 0.000886664
100 *1926:I *1514:B2 7.58723e-05
101 *1926:I *582:85 6.81314e-05
102 *1966:I *1514:B2 0
103 *140:12 *1417:I 3.01487e-05
104 *141:26 *1436:A1 0.000611671
105 *141:54 *1417:I 3.0177e-06
106 *141:54 *582:120 0.000321182
107 *141:54 *582:128 1.16196e-05
108 *141:54 *582:165 4.49689e-05
109 *141:153 *1417:I 7.25982e-05
110 *141:153 *1530:B2 3.488e-05
111 *141:153 *582:165 4.21678e-05
112 *152:52 *582:22 0.000831097
113 *175:30 *582:14 0.000204414
114 *176:43 *582:120 0.000202951
115 *176:87 *1499:B2 7.19259e-05
116 *176:110 *1499:B2 8.68281e-06
117 *176:110 *582:85 0.000104904
118 *179:77 *582:14 1.53768e-06
119 *179:104 *582:22 5.97457e-06
120 *179:104 *582:43 0.000239685
121 *193:8 *1479:A1 4.50671e-05
122 *193:137 *1479:A1 4.21513e-05
123 *208:22 *1436:A1 0.000166889
124 *208:22 *582:22 0.000108381
125 *208:92 *582:43 6.2021e-05
126 *361:47 *582:14 0
127 *361:47 *582:107 0
128 *434:40 *1520:A1 1.97308e-05
129 *434:40 *582:43 1.79716e-05
130 *478:125 *582:85 0.00037044
131 *479:48 *1514:B2 0.000187852
132 *479:66 *1514:B2 6.50695e-05
133 *492:247 *582:128 0.000126308
134 *492:277 *582:43 0.000152138
135 *492:296 *582:43 4.63487e-05
136 *492:296 *582:56 5.92728e-05
137 *520:26 *1520:A1 8.66027e-05
138 *520:26 *582:56 3.60134e-05
139 *581:16 *582:14 0.000440557
*RES
1 *1884:Q *582:14 11.7418 
2 *582:14 *582:22 8.37 
3 *582:22 *1469:A1 4.5 
4 *582:22 *582:43 21.15 
5 *582:43 *1520:A1 10.89 
6 *582:43 *582:56 7.47 
7 *582:56 *1499:B2 16.92 
8 *582:56 *582:85 13.59 
9 *582:85 *1525:B2 9 
10 *582:85 *1514:B2 16.47 
11 *582:14 *582:107 1.17 
12 *582:107 *1436:A1 12.33 
13 *582:107 *582:120 6.84 
14 *582:120 *582:128 10.8 
15 *582:128 *582:132 7.65 
16 *582:132 *1479:A1 16.65 
17 *582:132 *1593:A2 4.5 
18 *582:128 *1417:I 10.8 
19 *582:120 *582:165 0.81 
20 *582:165 *582:167 4.5 
21 *582:167 *1509:B2 4.5 
22 *582:167 *1504:B2 7.11 
23 *582:165 *1530:B2 9.99 
*END

*D_NET *583 0.0121617
*CONN
*I *1592:A1 I *D gf180mcu_fd_sc_mcu7t5v0__aoi211_1
*I *1798:A2 I *D gf180mcu_fd_sc_mcu7t5v0__oai21_1
*I *1591:B I *D gf180mcu_fd_sc_mcu7t5v0__aoi21_1
*I *1583:A1 I *D gf180mcu_fd_sc_mcu7t5v0__nand3_1
*I *1536:A3 I *D gf180mcu_fd_sc_mcu7t5v0__nor3_1
*I *1487:A2 I *D gf180mcu_fd_sc_mcu7t5v0__nand2_1
*I *1488:A1 I *D gf180mcu_fd_sc_mcu7t5v0__aoi21_1
*I *1881:Q O *D gf180mcu_fd_sc_mcu7t5v0__dffq_1
*CAP
1 *1592:A1 0
2 *1798:A2 0.000459742
3 *1591:B 0
4 *1583:A1 0
5 *1536:A3 0.0002023
6 *1487:A2 0
7 *1488:A1 0.000164899
8 *1881:Q 0.000137
9 *583:73 0.000617369
10 *583:28 0.000184383
11 *583:26 0.000750529
12 *583:16 0.000658144
13 *583:10 0.000496647
14 *583:8 0.000661875
15 *1536:A3 *1482:A1 0.000154519
16 *1798:A2 *1581:A2 0
17 *1478:A1 *583:8 1.58082e-05
18 *1480:A2 *1488:A1 0.000263013
19 *1481:A1 *583:16 2.89427e-06
20 *1481:A1 *583:26 1.56779e-05
21 *1481:A2 *583:26 0.000564859
22 *1482:A2 *1536:A3 8.49143e-05
23 *1482:B *1536:A3 0.000174756
24 *1482:C *1536:A3 1.84368e-05
25 *1482:C *583:26 0.000238712
26 *1487:A1 *583:28 4.83522e-05
27 *1488:B *1488:A1 0.000153256
28 *1489:A2 *583:26 0
29 *1491:B *583:26 9.22066e-05
30 *1493:A2 *1536:A3 3.99224e-05
31 *1493:A2 *583:26 5.56165e-05
32 *1505:A3 *583:10 0.000101615
33 *1505:A3 *583:73 0.000229402
34 *1505:A4 *583:8 0.000190146
35 *1505:A4 *583:73 0.000817278
36 *1536:A1 *1536:A3 1.23558e-05
37 *1582:A1 *1798:A2 0
38 *1582:A1 *583:8 4.35851e-05
39 *1582:A1 *583:73 0
40 *1591:A2 *583:10 2.38669e-05
41 *1592:A2 *1798:A2 2.31089e-05
42 *1592:B *583:10 0.000446646
43 *1592:B *583:73 0.000702875
44 *1594:A1 *583:10 0.000137948
45 *1594:A1 *583:16 8.16691e-05
46 *1799:B *1798:A2 0
47 *1881:D *583:8 3.55118e-05
48 *1883:CLK *583:16 0.000354728
49 *1883:CLK *583:26 0.000169524
50 *140:14 *583:10 7.584e-06
51 *140:27 *583:10 0
52 *140:127 *583:73 3.97987e-05
53 *152:31 *1488:A1 0
54 *156:8 *1488:A1 5.20027e-05
55 *156:23 *1488:A1 8.68398e-06
56 *192:8 *583:10 8.68398e-06
57 *192:10 *583:10 7.12295e-06
58 *192:10 *583:16 1.44365e-05
59 *192:12 *583:16 2.78496e-05
60 *192:12 *583:26 8.59696e-05
61 *193:10 *1488:A1 1.18477e-05
62 *193:10 *583:26 0
63 *193:27 *1536:A3 0.00014885
64 *194:8 *583:26 0.000174506
65 *195:14 *1488:A1 9.84908e-05
66 *195:14 *583:26 2.40933e-06
67 *200:12 *1488:A1 0.00012512
68 *200:12 *583:26 1.68338e-05
69 *204:12 *1536:A3 1.36989e-05
70 *205:8 *1536:A3 0
71 *205:8 *583:28 0
72 *205:22 *1488:A1 1.89803e-05
73 *205:22 *1536:A3 6.93035e-05
74 *205:22 *583:26 0.000160873
75 *241:14 *1536:A3 0.000100105
76 *281:8 *583:16 0.000294431
77 *477:6 *1798:A2 0
78 *492:209 *1798:A2 0.000288483
79 *492:209 *583:73 4.6613e-06
80 *492:235 *583:73 1.10228e-05
81 *504:33 *1798:A2 0.000193724
82 *581:78 *583:10 0.000508092
83 *581:91 *583:10 3.53802e-05
84 *581:99 *583:73 6.61634e-06
*RES
1 *1881:Q *583:8 10.35 
2 *583:8 *583:10 3.87 
3 *583:10 *583:16 6.12 
4 *583:16 *583:26 13.95 
5 *583:26 *583:28 0.27 
6 *583:28 *1488:A1 15.48 
7 *583:28 *1487:A2 4.5 
8 *583:26 *1536:A3 7.02 
9 *583:16 *1583:A1 4.5 
10 *583:10 *1591:B 9 
11 *583:8 *583:73 7.56 
12 *583:73 *1798:A2 17.19 
13 *583:73 *1592:A1 4.5 
*END

*D_NET *584 0.0101683
*CONN
*I *1781:A3 I *D gf180mcu_fd_sc_mcu7t5v0__nor3_1
*I *1478:B I *D gf180mcu_fd_sc_mcu7t5v0__aoi21_1
*I *1593:A1 I *D gf180mcu_fd_sc_mcu7t5v0__nand3_1
*I *1581:A2 I *D gf180mcu_fd_sc_mcu7t5v0__nor2_1
*I *1482:A1 I *D gf180mcu_fd_sc_mcu7t5v0__oai211_1
*I *1882:Q O *D gf180mcu_fd_sc_mcu7t5v0__dffq_1
*CAP
1 *1781:A3 0
2 *1478:B 0.000129073
3 *1593:A1 0
4 *1581:A2 0.000386858
5 *1482:A1 0.000413328
6 *1882:Q 7.80884e-05
7 *584:20 0.000959523
8 *584:16 0.000175726
9 *584:12 0.000202054
10 *584:8 0.000134678
11 *1478:A2 *584:8 0.000234117
12 *1478:A2 *584:12 0.000397541
13 *1479:A1 *584:20 4.59085e-05
14 *1479:A2 *1478:B 7.28823e-05
15 *1479:A2 *584:16 0.000101624
16 *1479:A2 *584:20 3.38498e-05
17 *1482:C *1482:A1 3.33106e-05
18 *1506:B *584:8 1.77835e-05
19 *1536:A3 *1482:A1 0.000154519
20 *1569:A1 *584:20 8.49208e-05
21 *1569:A2 *584:20 0.000565127
22 *1571:B1 *1581:A2 7.0188e-05
23 *1571:B1 *584:20 8.49208e-05
24 *1574:A2 *584:20 1.58782e-05
25 *1582:A1 *584:20 0
26 *1592:B *1478:B 5.96002e-05
27 *1593:A3 *584:16 0.00023968
28 *1798:A2 *1581:A2 0
29 *1799:A1 *1581:A2 0.000756109
30 *1799:B *1478:B 0
31 *1799:B *584:20 1.69023e-06
32 *1853:D *1581:A2 0.000283705
33 *1878:CLK *1581:A2 2.79072e-05
34 *1898:I *1482:A1 0.000108187
35 *1898:I *1581:A2 0.000104229
36 *140:12 *584:8 5.59262e-05
37 *192:8 *1478:B 0.000226832
38 *192:8 *584:16 0.000302284
39 *193:8 *1482:A1 0.000377059
40 *193:8 *1581:A2 0.000161845
41 *193:10 *1482:A1 0.00140746
42 *193:137 *1478:B 0
43 *193:137 *1581:A2 0.000398703
44 *195:14 *1482:A1 0.000287676
45 *204:12 *1482:A1 1.12956e-05
46 *471:82 *1482:A1 9.34006e-05
47 *581:46 *584:8 0.000291749
48 *581:48 *584:8 0.000139375
49 *581:48 *584:12 3.01487e-05
50 *581:52 *584:12 0.000397541
51 *581:52 *584:20 1.39839e-05
*RES
1 *1882:Q *584:8 5.94 
2 *584:8 *584:12 5.67 
3 *584:12 *584:16 5.31 
4 *584:16 *584:20 6.57 
5 *584:20 *1482:A1 14.4 
6 *584:20 *1581:A2 13.68 
7 *584:16 *1593:A1 4.5 
8 *584:12 *1478:B 10.17 
9 *584:8 *1781:A3 4.5 
*END

*D_NET *585 0.00456966
*CONN
*I *1431:A2 I *D gf180mcu_fd_sc_mcu7t5v0__nor2_1
*I *1587:A1 I *D gf180mcu_fd_sc_mcu7t5v0__nand4_1
*I *1484:A2 I *D gf180mcu_fd_sc_mcu7t5v0__nand2_1
*I *1420:I I *D gf180mcu_fd_sc_mcu7t5v0__clkinv_1
*I *1695:I1 I *D gf180mcu_fd_sc_mcu7t5v0__mux2_2
*I *1815:Q O *D gf180mcu_fd_sc_mcu7t5v0__dffq_1
*CAP
1 *1431:A2 0.000268499
2 *1587:A1 0
3 *1484:A2 0
4 *1420:I 0
5 *1695:I1 0.00033458
6 *1815:Q 5.96338e-05
7 *585:45 0.000304364
8 *585:34 6.83803e-05
9 *585:14 0.000562027
10 *585:8 0.000319596
11 *1431:A1 *1431:A2 2.8136e-05
12 *1485:A2 *585:45 8.3187e-05
13 *1486:A1 *1431:A2 8.22041e-06
14 *1549:B2 *1695:I1 2.31089e-05
15 *1549:B2 *585:14 0.000132094
16 *1552:A1 *1695:I1 3.98088e-05
17 *1552:A1 *585:8 8.12023e-06
18 *1552:A1 *585:14 0.000215887
19 *1586:A1 *1431:A2 4.97225e-05
20 *1586:A1 *585:8 0
21 *1587:A3 *1431:A2 1.31271e-05
22 *1588:B2 *585:34 0.000255088
23 *1588:B2 *585:45 0.000307423
24 *1700:A1 *1695:I1 0
25 *1815:CLK *1695:I1 0
26 *1911:I *1431:A2 0.000154199
27 *144:14 *585:8 9.84908e-05
28 *144:14 *585:14 9.39061e-05
29 *144:14 *585:34 0.000434734
30 *144:14 *585:45 6.51736e-05
31 *144:27 *585:45 2.63343e-05
32 *154:16 *1431:A2 5.79792e-06
33 *473:32 *1695:I1 0
34 *492:120 *585:14 6.40664e-06
35 *492:133 *1431:A2 4.53652e-05
36 *492:133 *585:14 2.42085e-05
37 *492:133 *585:34 1.56708e-05
38 *556:25 *1695:I1 0.000518371
39 *556:25 *585:14 0
40 *556:34 *585:14 0
*RES
1 *1815:Q *585:8 9.45 
2 *585:8 *585:14 7.02 
3 *585:14 *1695:I1 16.02 
4 *585:14 *1420:I 4.5 
5 *585:8 *585:34 1.17 
6 *585:34 *1484:A2 9 
7 *585:34 *585:45 5.49 
8 *585:45 *1587:A1 4.5 
9 *585:45 *1431:A2 6.57 
*END
