*SPEF "ieee 1481-1999"
*DESIGN "frequency_counter"
*DATE "19:10:31 Monday August 24, 2026"
*VENDOR "The OpenROAD Project"
*PROGRAM "OpenROAD"
*VERSION "26Q1-1024-gdcf36133a"
*DESIGN_FLOW "NAME_SCOPE LOCAL" "PIN_CAP NONE"
*DIVIDER /
*DELIMITER :
*BUS_DELIMITER []
*T_UNIT 1 NS
*C_UNIT 1 PF
*R_UNIT 1 OHM
*L_UNIT 1 HENRY

*NAME_MAP
*1 ACK_O
*2 ADDR_I[0]
*3 ADDR_I[1]
*4 ADDR_I[2]
*5 ADDR_I[3]
*6 ADDR_I[4]
*7 ADDR_I[5]
*8 ADDR_I[6]
*9 ADDR_I[7]
*10 CLK_I
*11 CYC_I
*12 DAT_I[0]
*13 DAT_I[1]
*14 DAT_I[2]
*15 DAT_I[3]
*16 DAT_I[4]
*17 DAT_I[5]
*18 DAT_I[6]
*19 DAT_I[7]
*20 DAT_O[0]
*21 DAT_O[1]
*22 DAT_O[2]
*23 DAT_O[3]
*24 DAT_O[4]
*25 DAT_O[5]
*26 DAT_O[6]
*27 DAT_O[7]
*28 ERR_O
*29 RST_I
*30 net
*31 STB_I
*34 WE_I
*35 ext_rst_i
*36 signal_input
*37 trigger_signal_out
*38 _0000_
*39 _0001_
*40 _0002_
*41 _0003_
*42 _0004_
*43 _0005_
*44 _0006_
*45 _0007_
*46 _0008_
*47 _0009_
*48 _0010_
*49 _0011_
*50 _0012_
*51 _0013_
*52 _0014_
*53 _0015_
*54 _0016_
*55 _0017_
*56 _0018_
*57 _0019_
*58 _0020_
*59 _0021_
*60 _0022_
*61 _0023_
*62 _0024_
*63 _0025_
*64 _0026_
*65 _0027_
*66 _0028_
*67 _0029_
*68 _0030_
*69 _0031_
*70 _0032_
*71 _0033_
*72 _0034_
*73 _0035_
*74 _0036_
*75 _0037_
*76 _0038_
*77 _0039_
*78 _0040_
*79 _0041_
*80 _0042_
*81 _0043_
*82 _0044_
*83 _0045_
*84 _0046_
*85 _0047_
*86 _0048_
*87 _0049_
*88 _0050_
*89 _0051_
*90 _0052_
*91 _0053_
*92 _0054_
*93 _0055_
*94 _0056_
*95 _0057_
*96 _0058_
*97 _0059_
*98 _0060_
*99 _0061_
*100 _0062_
*101 _0063_
*102 _0064_
*103 _0065_
*104 _0066_
*105 _0067_
*106 _0068_
*107 _0069_
*108 _0070_
*109 _0071_
*110 _0072_
*111 _0073_
*112 _0074_
*113 _0075_
*114 _0076_
*115 _0077_
*116 _0078_
*117 _0079_
*118 _0080_
*119 _0081_
*120 _0082_
*121 _0083_
*122 _0084_
*123 _0085_
*124 _0086_
*125 _0087_
*126 _0088_
*127 _0089_
*128 _0090_
*129 _0091_
*130 _0092_
*131 _0093_
*132 _0094_
*133 _0095_
*134 _0096_
*135 _0097_
*136 _0098_
*137 _0099_
*138 _0100_
*139 _0101_
*140 _0102_
*141 _0103_
*142 _0104_
*143 _0105_
*144 _0106_
*145 _0107_
*146 _0108_
*147 _0109_
*148 _0110_
*149 _0111_
*150 _0112_
*151 _0113_
*152 _0114_
*153 _0115_
*154 _0116_
*155 _0117_
*156 _0118_
*157 _0119_
*158 _0120_
*159 _0121_
*160 _0122_
*161 _0123_
*162 _0124_
*163 _0125_
*164 _0126_
*165 _0127_
*166 _0128_
*167 _0129_
*168 _0130_
*169 _0131_
*170 _0132_
*171 _0133_
*172 _0134_
*173 _0135_
*174 _0136_
*175 _0137_
*176 _0138_
*177 _0139_
*178 _0140_
*179 _0141_
*180 _0142_
*181 _0143_
*182 _0144_
*183 _0145_
*184 _0146_
*185 _0147_
*186 _0148_
*187 _0149_
*188 _0150_
*189 _0151_
*190 _0152_
*191 _0153_
*192 _0154_
*193 _0155_
*194 _0156_
*195 _0157_
*196 _0158_
*197 _0159_
*198 _0160_
*199 _0161_
*200 _0162_
*201 _0163_
*202 _0164_
*203 _0165_
*204 _0166_
*205 _0167_
*206 _0168_
*207 _0169_
*208 _0170_
*209 _0171_
*210 _0172_
*211 _0173_
*212 _0174_
*213 _0175_
*214 _0176_
*215 _0177_
*216 _0178_
*217 _0179_
*218 _0180_
*219 _0181_
*220 _0182_
*221 _0183_
*222 _0184_
*223 _0185_
*224 _0186_
*225 _0187_
*226 _0188_
*227 _0189_
*228 _0190_
*229 _0191_
*230 _0192_
*231 _0193_
*232 _0194_
*233 _0195_
*234 _0196_
*235 _0197_
*236 _0198_
*237 _0199_
*238 _0200_
*239 _0201_
*240 _0202_
*241 _0203_
*242 _0204_
*243 _0205_
*244 _0206_
*245 _0207_
*246 _0208_
*247 _0209_
*248 _0210_
*249 _0211_
*250 _0212_
*251 _0213_
*252 _0214_
*253 _0215_
*254 _0216_
*255 _0217_
*256 _0218_
*257 _0219_
*258 _0220_
*259 _0221_
*260 _0222_
*261 _0223_
*262 _0224_
*263 _0225_
*264 _0226_
*265 _0227_
*266 _0228_
*267 _0229_
*268 _0230_
*269 _0231_
*270 _0232_
*271 _0233_
*272 _0234_
*273 _0235_
*274 _0236_
*275 _0237_
*276 _0238_
*277 _0239_
*278 _0240_
*279 _0241_
*280 _0242_
*281 _0243_
*282 _0244_
*283 _0245_
*284 _0246_
*285 _0247_
*286 _0248_
*287 _0249_
*288 _0250_
*289 _0251_
*290 _0252_
*291 _0253_
*292 _0254_
*293 _0255_
*294 _0256_
*295 _0257_
*296 _0258_
*297 _0259_
*298 _0260_
*299 _0261_
*300 _0262_
*301 _0263_
*302 _0264_
*303 _0265_
*304 _0266_
*305 _0267_
*306 _0268_
*307 _0269_
*308 _0270_
*309 _0271_
*310 _0272_
*311 _0273_
*312 _0274_
*313 _0275_
*314 _0276_
*315 _0277_
*316 _0278_
*317 _0279_
*318 _0280_
*319 _0281_
*320 _0282_
*321 _0283_
*322 _0284_
*323 _0285_
*324 _0286_
*325 _0287_
*326 _0288_
*327 _0289_
*328 _0290_
*329 _0291_
*330 _0292_
*331 _0293_
*332 _0294_
*333 _0295_
*334 _0296_
*335 _0297_
*336 _0298_
*337 _0299_
*338 _0300_
*339 _0301_
*340 _0302_
*341 _0303_
*342 _0304_
*343 _0305_
*344 _0306_
*345 _0307_
*346 _0308_
*347 _0309_
*348 _0310_
*349 _0311_
*350 _0312_
*351 _0313_
*352 _0314_
*353 _0315_
*354 _0316_
*355 _0317_
*356 _0318_
*357 _0319_
*358 _0320_
*359 _0321_
*360 _0322_
*361 _0323_
*362 _0324_
*363 _0325_
*364 _0326_
*365 _0327_
*366 _0328_
*367 _0329_
*368 _0330_
*369 _0331_
*370 _0332_
*371 _0333_
*372 _0334_
*373 _0335_
*374 _0336_
*375 _0337_
*376 _0338_
*377 _0339_
*378 _0340_
*379 _0341_
*380 _0342_
*381 _0343_
*382 _0344_
*383 _0345_
*384 _0346_
*385 _0347_
*386 _0348_
*387 _0349_
*388 _0350_
*389 _0351_
*390 _0352_
*391 _0353_
*392 _0354_
*393 _0355_
*394 _0356_
*395 _0357_
*396 _0358_
*397 _0359_
*398 _0360_
*399 _0361_
*400 _0362_
*401 _0363_
*402 _0364_
*403 _0365_
*404 _0366_
*405 _0367_
*406 _0368_
*407 _0369_
*408 _0370_
*409 _0371_
*410 _0372_
*411 _0373_
*412 _0374_
*413 _0375_
*414 _0376_
*415 _0377_
*416 _0378_
*417 _0379_
*418 _0380_
*419 _0381_
*420 _0382_
*421 _0383_
*422 _0384_
*423 _0385_
*424 _0386_
*425 _0387_
*426 _0388_
*427 _0389_
*428 _0390_
*429 _0391_
*430 _0392_
*431 _0393_
*432 _0394_
*433 _0395_
*434 _0396_
*435 _0397_
*436 _0398_
*437 _0399_
*438 _0400_
*439 _0401_
*440 _0402_
*441 _0403_
*442 _0404_
*443 _0405_
*444 _0406_
*445 _0407_
*446 _0408_
*447 _0409_
*448 _0410_
*449 _0411_
*450 _0412_
*451 _0413_
*452 _0414_
*453 _0415_
*454 _0416_
*455 _0417_
*456 _0418_
*457 _0419_
*458 _0420_
*459 _0421_
*460 _0422_
*461 _0423_
*462 _0424_
*463 _0425_
*464 _0426_
*465 _0427_
*466 _0428_
*467 _0429_
*468 _0430_
*469 _0431_
*470 _0432_
*471 _0433_
*472 _0434_
*473 _0435_
*474 _0436_
*475 _0437_
*476 _0438_
*477 _0439_
*478 _0440_
*479 _0441_
*480 _0442_
*481 _0443_
*482 _0444_
*483 _0445_
*484 _0446_
*485 _0447_
*486 _0448_
*487 _0449_
*488 _0450_
*489 _0451_
*490 _0452_
*491 _0453_
*492 _0454_
*493 _0455_
*494 _0456_
*495 _0457_
*496 _0458_
*497 _0459_
*498 _0460_
*499 _0461_
*500 _0462_
*501 _0463_
*502 _0464_
*503 _0465_
*504 _0466_
*505 _0467_
*506 _0468_
*507 _0469_
*508 _0470_
*509 _0471_
*510 _0472_
*511 _0473_
*512 _0474_
*513 _0475_
*514 _0476_
*515 _0477_
*516 _0478_
*517 _0479_
*518 _0480_
*519 _0481_
*520 _0482_
*521 _0483_
*522 _0484_
*523 _0485_
*524 _0486_
*525 _0487_
*526 _0488_
*527 _0489_
*528 _0490_
*529 _0491_
*530 _0492_
*531 _0493_
*532 _0494_
*533 _0495_
*534 _0496_
*535 _0497_
*536 _0498_
*537 _0499_
*538 _0500_
*539 _0501_
*540 _0502_
*541 _0503_
*542 _0504_
*543 _0505_
*544 _0506_
*545 _0507_
*546 _0508_
*547 _0509_
*548 _0510_
*549 _0511_
*550 _0512_
*551 _0513_
*552 _0514_
*553 _0515_
*554 _0516_
*555 _0517_
*556 _0518_
*557 _0519_
*558 _0520_
*559 _0521_
*560 _0522_
*561 _0523_
*562 _0524_
*563 _0525_
*564 _0526_
*565 _0527_
*566 _0528_
*567 _0529_
*568 _0530_
*569 _0531_
*570 _0532_
*571 _0533_
*572 _0534_
*573 _0535_
*574 _0536_
*575 _0537_
*576 _0538_
*577 _0539_
*578 _0540_
*579 _0541_
*580 _0542_
*581 _0543_
*582 _0544_
*583 _0545_
*584 _0546_
*585 _0547_
*586 _0548_
*587 _0549_
*588 _0550_
*589 _0551_
*590 _0552_
*591 _0553_
*592 _0554_
*593 _0555_
*594 _0556_
*595 _0557_
*596 _0558_
*597 _0559_
*598 _0560_
*599 _0561_
*600 _0562_
*601 _0563_
*602 _0564_
*603 _0565_
*604 _0566_
*605 _0567_
*606 _0568_
*607 _0569_
*608 _0570_
*609 _0571_
*610 _0572_
*611 _0573_
*612 _0574_
*613 _0575_
*614 _0576_
*615 _0577_
*616 _0578_
*617 _0579_
*618 _0580_
*619 _0581_
*620 _0582_
*621 _0583_
*622 _0584_
*623 _0585_
*624 _0586_
*625 _0587_
*626 _0588_
*627 _0589_
*628 _0590_
*629 _0591_
*630 _0592_
*631 _0593_
*632 _0594_
*633 _0595_
*634 _0596_
*635 _0597_
*636 _0598_
*637 _0599_
*638 _0600_
*639 _0601_
*640 _0602_
*641 _0603_
*642 _0604_
*643 _0605_
*644 _0606_
*645 _0607_
*646 _0608_
*647 _0609_
*648 _0610_
*649 _0611_
*650 _0612_
*651 _0613_
*652 _0614_
*653 _0615_
*654 _0616_
*655 _0617_
*656 _0618_
*657 _0619_
*658 _0620_
*659 _0621_
*660 _0622_
*661 _0623_
*662 _0624_
*663 _0625_
*664 _0626_
*665 _0627_
*666 _0628_
*667 _0629_
*668 _0630_
*669 _0631_
*670 _0632_
*671 _0633_
*672 _0634_
*673 _0635_
*674 _0636_
*675 _0637_
*676 _0638_
*677 _0639_
*678 _0640_
*679 _0641_
*680 clknet_0_CLK_I
*681 clknet_4_0_0_CLK_I
*682 clknet_4_10_0_CLK_I
*683 clknet_4_11_0_CLK_I
*684 clknet_4_12_0_CLK_I
*685 clknet_4_13_0_CLK_I
*686 clknet_4_14_0_CLK_I
*687 clknet_4_15_0_CLK_I
*688 clknet_4_1_0_CLK_I
*689 clknet_4_2_0_CLK_I
*690 clknet_4_3_0_CLK_I
*691 clknet_4_4_0_CLK_I
*692 clknet_4_5_0_CLK_I
*693 clknet_4_6_0_CLK_I
*694 clknet_4_7_0_CLK_I
*695 clknet_4_8_0_CLK_I
*696 clknet_4_9_0_CLK_I
*697 counter_control_status_register\[0\]
*698 counter_control_status_register\[1\]
*699 counter_control_status_register\[2\]
*700 counter_control_status_register\[3\]
*701 counter_control_status_register\[4\]
*702 counter_control_status_register\[5\]
*703 counter_control_status_register\[6\]
*704 counter_control_status_register\[7\]
*705 input_previous_state
*706 measurement_pulse_done_internal_flag
*707 measurement_pulse_start_internal_flag
*708 measurement_state_machine\[0\]
*709 measurement_state_machine\[10\]
*710 measurement_state_machine\[11\]
*711 measurement_state_machine\[12\]
*712 measurement_state_machine\[13\]
*713 measurement_state_machine\[14\]
*714 measurement_state_machine\[15\]
*715 measurement_state_machine\[1\]
*716 measurement_state_machine\[2\]
*717 measurement_state_machine\[3\]
*718 measurement_state_machine\[4\]
*719 measurement_state_machine\[5\]
*720 measurement_state_machine\[6\]
*721 measurement_state_machine\[7\]
*722 measurement_state_machine\[8\]
*723 measurement_state_machine\[9\]
*724 net1
*725 net10
*726 net11
*727 net12
*728 net13
*729 net14
*730 net15
*731 net16
*732 net17
*733 net18
*734 net19
*735 net2
*736 net20
*737 net21
*738 net22
*739 net23
*740 net24
*741 net25
*742 net26
*743 net27
*744 net28
*745 net29
*746 net3
*747 net30
*748 net31
*749 net32
*750 net33
*751 net34
*752 net35
*753 net36
*754 net37
*755 net38
*756 net39
*757 net4
*758 net40
*759 net41
*760 net42
*761 net43
*762 net44
*763 net45
*764 net46
*765 net47
*766 net48
*767 net49
*768 net5
*769 net50
*770 net51
*771 net52
*772 net53
*773 net54
*774 net55
*775 net56
*776 net57
*777 net58
*778 net59
*779 net6
*780 net60
*781 net61
*782 net62
*783 net63
*784 net64
*785 net65
*786 net66
*787 net67
*788 net68
*789 net69
*790 net7
*791 net70
*792 net71
*793 net72
*794 net73
*795 net74
*796 net75
*797 net76
*798 net77
*799 net78
*800 net79
*801 net8
*802 net80
*803 net81
*804 net82
*805 net83
*806 net84
*807 net9
*808 pulse_count_threshold_register\[0\]
*809 pulse_count_threshold_register\[10\]
*810 pulse_count_threshold_register\[11\]
*811 pulse_count_threshold_register\[12\]
*812 pulse_count_threshold_register\[13\]
*813 pulse_count_threshold_register\[14\]
*814 pulse_count_threshold_register\[15\]
*815 pulse_count_threshold_register\[1\]
*816 pulse_count_threshold_register\[2\]
*817 pulse_count_threshold_register\[3\]
*818 pulse_count_threshold_register\[4\]
*819 pulse_count_threshold_register\[5\]
*820 pulse_count_threshold_register\[6\]
*821 pulse_count_threshold_register\[7\]
*822 pulse_count_threshold_register\[8\]
*823 pulse_count_threshold_register\[9\]
*824 pulse_timing_internal\[0\]
*825 pulse_timing_internal\[10\]
*826 pulse_timing_internal\[11\]
*827 pulse_timing_internal\[12\]
*828 pulse_timing_internal\[13\]
*829 pulse_timing_internal\[14\]
*830 pulse_timing_internal\[15\]
*831 pulse_timing_internal\[16\]
*832 pulse_timing_internal\[17\]
*833 pulse_timing_internal\[18\]
*834 pulse_timing_internal\[19\]
*835 pulse_timing_internal\[1\]
*836 pulse_timing_internal\[20\]
*837 pulse_timing_internal\[21\]
*838 pulse_timing_internal\[22\]
*839 pulse_timing_internal\[23\]
*840 pulse_timing_internal\[2\]
*841 pulse_timing_internal\[3\]
*842 pulse_timing_internal\[4\]
*843 pulse_timing_internal\[5\]
*844 pulse_timing_internal\[6\]
*845 pulse_timing_internal\[7\]
*846 pulse_timing_internal\[8\]
*847 pulse_timing_internal\[9\]
*848 pulse_timing_register\[0\]
*849 pulse_timing_register\[10\]
*850 pulse_timing_register\[11\]
*851 pulse_timing_register\[12\]
*852 pulse_timing_register\[13\]
*853 pulse_timing_register\[14\]
*854 pulse_timing_register\[15\]
*855 pulse_timing_register\[16\]
*856 pulse_timing_register\[17\]
*857 pulse_timing_register\[18\]
*858 pulse_timing_register\[19\]
*859 pulse_timing_register\[1\]
*860 pulse_timing_register\[20\]
*861 pulse_timing_register\[21\]
*862 pulse_timing_register\[22\]
*863 pulse_timing_register\[23\]
*864 pulse_timing_register\[2\]
*865 pulse_timing_register\[3\]
*866 pulse_timing_register\[4\]
*867 pulse_timing_register\[5\]
*868 pulse_timing_register\[6\]
*869 pulse_timing_register\[7\]
*870 pulse_timing_register\[8\]
*871 pulse_timing_register\[9\]
*872 range_finished_internal_flag
*873 range_timing_internal\[0\]
*874 range_timing_internal\[10\]
*875 range_timing_internal\[11\]
*876 range_timing_internal\[12\]
*877 range_timing_internal\[13\]
*878 range_timing_internal\[14\]
*879 range_timing_internal\[15\]
*880 range_timing_internal\[16\]
*881 range_timing_internal\[17\]
*882 range_timing_internal\[18\]
*883 range_timing_internal\[19\]
*884 range_timing_internal\[1\]
*885 range_timing_internal\[20\]
*886 range_timing_internal\[21\]
*887 range_timing_internal\[22\]
*888 range_timing_internal\[23\]
*889 range_timing_internal\[2\]
*890 range_timing_internal\[3\]
*891 range_timing_internal\[4\]
*892 range_timing_internal\[5\]
*893 range_timing_internal\[6\]
*894 range_timing_internal\[7\]
*895 range_timing_internal\[8\]
*896 range_timing_internal\[9\]
*897 range_timing_register\[0\]
*898 range_timing_register\[10\]
*899 range_timing_register\[11\]
*900 range_timing_register\[12\]
*901 range_timing_register\[13\]
*902 range_timing_register\[14\]
*903 range_timing_register\[15\]
*904 range_timing_register\[16\]
*905 range_timing_register\[17\]
*906 range_timing_register\[18\]
*907 range_timing_register\[19\]
*908 range_timing_register\[1\]
*909 range_timing_register\[20\]
*910 range_timing_register\[21\]
*911 range_timing_register\[22\]
*912 range_timing_register\[23\]
*913 range_timing_register\[2\]
*914 range_timing_register\[3\]
*915 range_timing_register\[4\]
*916 range_timing_register\[5\]
*917 range_timing_register\[6\]
*918 range_timing_register\[7\]
*919 range_timing_register\[8\]
*920 range_timing_register\[9\]
*921 trigger_timer_internal\[0\]
*922 trigger_timer_internal\[1\]
*923 trigger_timer_internal\[2\]
*924 trigger_timer_internal\[3\]
*925 trigger_timer_internal\[4\]
*926 trigger_timer_internal\[5\]
*927 trigger_timer_internal\[6\]
*928 FILLER_0_120
*929 FILLER_0_138
*930 FILLER_0_172
*931 FILLER_0_2
*932 FILLER_0_206
*933 FILLER_0_210
*934 FILLER_0_212
*935 FILLER_0_229
*936 FILLER_0_237
*937 FILLER_0_240
*938 FILLER_0_249
*939 FILLER_0_265
*940 FILLER_0_269
*941 FILLER_0_271
*942 FILLER_0_274
*943 FILLER_0_308
*944 FILLER_0_312
*945 FILLER_0_320
*946 FILLER_0_336
*947 FILLER_0_342
*948 FILLER_0_358
*949 FILLER_0_36
*950 FILLER_0_70
*951 FILLER_10_113
*952 FILLER_10_159
*953 FILLER_10_163
*954 FILLER_10_165
*955 FILLER_10_174
*956 FILLER_10_177
*957 FILLER_10_2
*958 FILLER_10_200
*959 FILLER_10_208
*960 FILLER_10_212
*961 FILLER_10_243
*962 FILLER_10_247
*963 FILLER_10_259
*964 FILLER_10_283
*965 FILLER_10_287
*966 FILLER_10_312
*967 FILLER_10_314
*968 FILLER_10_317
*969 FILLER_10_319
*970 FILLER_10_359
*971 FILLER_10_45
*972 FILLER_10_77
*973 FILLER_10_81
*974 FILLER_10_91
*975 FILLER_10_95
*976 FILLER_11_148
*977 FILLER_11_152
*978 FILLER_11_154
*979 FILLER_11_184
*980 FILLER_11_200
*981 FILLER_11_208
*982 FILLER_11_263
*983 FILLER_11_265
*984 FILLER_11_278
*985 FILLER_11_282
*986 FILLER_11_31
*987 FILLER_11_33
*988 FILLER_11_43
*989 FILLER_11_57
*990 FILLER_11_65
*991 FILLER_11_69
*992 FILLER_11_72
*993 FILLER_11_80
*994 FILLER_12_10
*995 FILLER_12_107
*996 FILLER_12_147
*997 FILLER_12_151
*998 FILLER_12_161
*999 FILLER_12_171
*1000 FILLER_12_177
*1001 FILLER_12_2
*1002 FILLER_12_209
*1003 FILLER_12_243
*1004 FILLER_12_247
*1005 FILLER_12_275
*1006 FILLER_12_279
*1007 FILLER_12_31
*1008 FILLER_12_327
*1009 FILLER_12_357
*1010 FILLER_12_359
*1011 FILLER_12_37
*1012 FILLER_12_45
*1013 FILLER_12_52
*1014 FILLER_13_114
*1015 FILLER_13_122
*1016 FILLER_13_168
*1017 FILLER_13_172
*1018 FILLER_13_18
*1019 FILLER_13_2
*1020 FILLER_13_202
*1021 FILLER_13_212
*1022 FILLER_13_244
*1023 FILLER_13_252
*1024 FILLER_13_265
*1025 FILLER_13_282
*1026 FILLER_13_290
*1027 FILLER_13_294
*1028 FILLER_13_30
*1029 FILLER_13_307
*1030 FILLER_13_311
*1031 FILLER_13_332
*1032 FILLER_13_352
*1033 FILLER_13_38
*1034 FILLER_13_40
*1035 FILLER_13_84
*1036 FILLER_13_98
*1037 FILLER_14_104
*1038 FILLER_14_107
*1039 FILLER_14_115
*1040 FILLER_14_140
*1041 FILLER_14_170
*1042 FILLER_14_174
*1043 FILLER_14_177
*1044 FILLER_14_185
*1045 FILLER_14_193
*1046 FILLER_14_195
*1047 FILLER_14_2
*1048 FILLER_14_225
*1049 FILLER_14_241
*1050 FILLER_14_247
*1051 FILLER_14_311
*1052 FILLER_14_317
*1053 FILLER_14_350
*1054 FILLER_14_358
*1055 FILLER_14_37
*1056 FILLER_14_45
*1057 FILLER_14_52
*1058 FILLER_14_56
*1059 FILLER_14_58
*1060 FILLER_14_96
*1061 FILLER_15_104
*1062 FILLER_15_108
*1063 FILLER_15_110
*1064 FILLER_15_142
*1065 FILLER_15_150
*1066 FILLER_15_157
*1067 FILLER_15_173
*1068 FILLER_15_2
*1069 FILLER_15_227
*1070 FILLER_15_229
*1071 FILLER_15_267
*1072 FILLER_15_275
*1073 FILLER_15_279
*1074 FILLER_15_282
*1075 FILLER_15_327
*1076 FILLER_15_329
*1077 FILLER_15_352
*1078 FILLER_15_41
*1079 FILLER_15_43
*1080 FILLER_16_113
*1081 FILLER_16_137
*1082 FILLER_16_169
*1083 FILLER_16_173
*1084 FILLER_16_177
*1085 FILLER_16_181
*1086 FILLER_16_183
*1087 FILLER_16_2
*1088 FILLER_16_228
*1089 FILLER_16_235
*1090 FILLER_16_305
*1091 FILLER_16_32
*1092 FILLER_16_34
*1093 FILLER_16_356
*1094 FILLER_16_37
*1095 FILLER_17_10
*1096 FILLER_17_118
*1097 FILLER_17_12
*1098 FILLER_17_134
*1099 FILLER_17_138
*1100 FILLER_17_142
*1101 FILLER_17_150
*1102 FILLER_17_154
*1103 FILLER_17_171
*1104 FILLER_17_187
*1105 FILLER_17_191
*1106 FILLER_17_2
*1107 FILLER_17_201
*1108 FILLER_17_209
*1109 FILLER_17_212
*1110 FILLER_17_223
*1111 FILLER_17_225
*1112 FILLER_17_263
*1113 FILLER_17_270
*1114 FILLER_17_288
*1115 FILLER_17_292
*1116 FILLER_17_300
*1117 FILLER_17_335
*1118 FILLER_17_348
*1119 FILLER_17_35
*1120 FILLER_17_358
*1121 FILLER_17_51
*1122 FILLER_17_59
*1123 FILLER_17_68
*1124 FILLER_17_72
*1125 FILLER_17_88
*1126 FILLER_18_100
*1127 FILLER_18_104
*1128 FILLER_18_107
*1129 FILLER_18_115
*1130 FILLER_18_130
*1131 FILLER_18_177
*1132 FILLER_18_185
*1133 FILLER_18_189
*1134 FILLER_18_191
*1135 FILLER_18_197
*1136 FILLER_18_2
*1137 FILLER_18_213
*1138 FILLER_18_215
*1139 FILLER_18_221
*1140 FILLER_18_228
*1141 FILLER_18_236
*1142 FILLER_18_238
*1143 FILLER_18_255
*1144 FILLER_18_259
*1145 FILLER_18_267
*1146 FILLER_18_275
*1147 FILLER_18_282
*1148 FILLER_18_294
*1149 FILLER_18_302
*1150 FILLER_18_306
*1151 FILLER_18_37
*1152 FILLER_18_45
*1153 FILLER_18_53
*1154 FILLER_19_112
*1155 FILLER_19_116
*1156 FILLER_19_125
*1157 FILLER_19_133
*1158 FILLER_19_137
*1159 FILLER_19_139
*1160 FILLER_19_142
*1161 FILLER_19_144
*1162 FILLER_19_180
*1163 FILLER_19_196
*1164 FILLER_19_2
*1165 FILLER_19_204
*1166 FILLER_19_208
*1167 FILLER_19_223
*1168 FILLER_19_229
*1169 FILLER_19_262
*1170 FILLER_19_278
*1171 FILLER_19_311
*1172 FILLER_19_352
*1173 FILLER_19_42
*1174 FILLER_19_50
*1175 FILLER_19_6
*1176 FILLER_19_72
*1177 FILLER_19_82
*1178 FILLER_19_90
*1179 FILLER_19_94
*1180 FILLER_1_120
*1181 FILLER_1_136
*1182 FILLER_1_142
*1183 FILLER_1_150
*1184 FILLER_1_159
*1185 FILLER_1_161
*1186 FILLER_1_168
*1187 FILLER_1_176
*1188 FILLER_1_180
*1189 FILLER_1_2
*1190 FILLER_1_205
*1191 FILLER_1_209
*1192 FILLER_1_212
*1193 FILLER_1_214
*1194 FILLER_1_276
*1195 FILLER_1_282
*1196 FILLER_1_298
*1197 FILLER_1_300
*1198 FILLER_1_330
*1199 FILLER_1_346
*1200 FILLER_1_352
*1201 FILLER_1_66
*1202 FILLER_1_72
*1203 FILLER_1_88
*1204 FILLER_1_90
*1205 FILLER_20_10
*1206 FILLER_20_100
*1207 FILLER_20_104
*1208 FILLER_20_107
*1209 FILLER_20_115
*1210 FILLER_20_124
*1211 FILLER_20_128
*1212 FILLER_20_135
*1213 FILLER_20_143
*1214 FILLER_20_147
*1215 FILLER_20_173
*1216 FILLER_20_177
*1217 FILLER_20_185
*1218 FILLER_20_189
*1219 FILLER_20_2
*1220 FILLER_20_241
*1221 FILLER_20_263
*1222 FILLER_20_271
*1223 FILLER_20_304
*1224 FILLER_20_306
*1225 FILLER_20_317
*1226 FILLER_20_330
*1227 FILLER_20_37
*1228 FILLER_20_53
*1229 FILLER_20_84
*1230 FILLER_21_101
*1231 FILLER_21_137
*1232 FILLER_21_139
*1233 FILLER_21_142
*1234 FILLER_21_150
*1235 FILLER_21_18
*1236 FILLER_21_186
*1237 FILLER_21_194
*1238 FILLER_21_198
*1239 FILLER_21_2
*1240 FILLER_21_22
*1241 FILLER_21_244
*1242 FILLER_21_258
*1243 FILLER_21_262
*1244 FILLER_21_264
*1245 FILLER_21_269
*1246 FILLER_21_273
*1247 FILLER_21_296
*1248 FILLER_21_31
*1249 FILLER_21_332
*1250 FILLER_21_35
*1251 FILLER_21_358
*1252 FILLER_21_37
*1253 FILLER_21_42
*1254 FILLER_21_46
*1255 FILLER_22_10
*1256 FILLER_22_14
*1257 FILLER_22_144
*1258 FILLER_22_152
*1259 FILLER_22_156
*1260 FILLER_22_173
*1261 FILLER_22_182
*1262 FILLER_22_189
*1263 FILLER_22_197
*1264 FILLER_22_2
*1265 FILLER_22_228
*1266 FILLER_22_232
*1267 FILLER_22_276
*1268 FILLER_22_280
*1269 FILLER_22_295
*1270 FILLER_22_31
*1271 FILLER_22_355
*1272 FILLER_22_359
*1273 FILLER_22_47
*1274 FILLER_22_98
*1275 FILLER_23_102
*1276 FILLER_23_106
*1277 FILLER_23_137
*1278 FILLER_23_139
*1279 FILLER_23_142
*1280 FILLER_23_144
*1281 FILLER_23_180
*1282 FILLER_23_191
*1283 FILLER_23_199
*1284 FILLER_23_2
*1285 FILLER_23_203
*1286 FILLER_23_209
*1287 FILLER_23_212
*1288 FILLER_23_226
*1289 FILLER_23_230
*1290 FILLER_23_276
*1291 FILLER_23_282
*1292 FILLER_23_286
*1293 FILLER_23_288
*1294 FILLER_23_323
*1295 FILLER_23_358
*1296 FILLER_23_4
*1297 FILLER_23_52
*1298 FILLER_23_72
*1299 FILLER_23_76
*1300 FILLER_23_94
*1301 FILLER_24_101
*1302 FILLER_24_107
*1303 FILLER_24_133
*1304 FILLER_24_170
*1305 FILLER_24_174
*1306 FILLER_24_177
*1307 FILLER_24_190
*1308 FILLER_24_221
*1309 FILLER_24_237
*1310 FILLER_24_261
*1311 FILLER_24_263
*1312 FILLER_24_270
*1313 FILLER_24_286
*1314 FILLER_24_31
*1315 FILLER_24_45
*1316 FILLER_24_53
*1317 FILLER_24_55
*1318 FILLER_24_85
*1319 FILLER_25_100
*1320 FILLER_25_108
*1321 FILLER_25_123
*1322 FILLER_25_139
*1323 FILLER_25_176
*1324 FILLER_25_180
*1325 FILLER_25_187
*1326 FILLER_25_189
*1327 FILLER_25_194
*1328 FILLER_25_212
*1329 FILLER_25_22
*1330 FILLER_25_24
*1331 FILLER_25_244
*1332 FILLER_25_246
*1333 FILLER_25_259
*1334 FILLER_25_267
*1335 FILLER_25_276
*1336 FILLER_25_282
*1337 FILLER_25_298
*1338 FILLER_25_349
*1339 FILLER_25_352
*1340 FILLER_25_54
*1341 FILLER_25_68
*1342 FILLER_25_84
*1343 FILLER_26_101
*1344 FILLER_26_107
*1345 FILLER_26_131
*1346 FILLER_26_139
*1347 FILLER_26_169
*1348 FILLER_26_173
*1349 FILLER_26_177
*1350 FILLER_26_18
*1351 FILLER_26_231
*1352 FILLER_26_239
*1353 FILLER_26_261
*1354 FILLER_26_263
*1355 FILLER_26_27
*1356 FILLER_26_37
*1357 FILLER_27_116
*1358 FILLER_27_118
*1359 FILLER_27_138
*1360 FILLER_27_148
*1361 FILLER_27_171
*1362 FILLER_27_179
*1363 FILLER_27_233
*1364 FILLER_27_247
*1365 FILLER_27_279
*1366 FILLER_27_305
*1367 FILLER_27_307
*1368 FILLER_27_31
*1369 FILLER_27_337
*1370 FILLER_27_339
*1371 FILLER_27_349
*1372 FILLER_27_358
*1373 FILLER_27_47
*1374 FILLER_27_55
*1375 FILLER_27_59
*1376 FILLER_27_61
*1377 FILLER_27_68
*1378 FILLER_27_72
*1379 FILLER_27_80
*1380 FILLER_28_104
*1381 FILLER_28_128
*1382 FILLER_28_140
*1383 FILLER_28_142
*1384 FILLER_28_173
*1385 FILLER_28_177
*1386 FILLER_28_185
*1387 FILLER_28_189
*1388 FILLER_28_191
*1389 FILLER_28_226
*1390 FILLER_28_234
*1391 FILLER_28_300
*1392 FILLER_28_302
*1393 FILLER_28_34
*1394 FILLER_28_37
*1395 FILLER_29_121
*1396 FILLER_29_142
*1397 FILLER_29_173
*1398 FILLER_29_189
*1399 FILLER_29_193
*1400 FILLER_29_208
*1401 FILLER_29_218
*1402 FILLER_29_226
*1403 FILLER_29_230
*1404 FILLER_29_260
*1405 FILLER_29_297
*1406 FILLER_29_301
*1407 FILLER_29_303
*1408 FILLER_29_333
*1409 FILLER_29_358
*1410 FILLER_29_38
*1411 FILLER_29_46
*1412 FILLER_29_82
*1413 FILLER_2_173
*1414 FILLER_2_2
*1415 FILLER_2_206
*1416 FILLER_2_210
*1417 FILLER_2_212
*1418 FILLER_2_292
*1419 FILLER_2_314
*1420 FILLER_2_333
*1421 FILLER_2_34
*1422 FILLER_2_349
*1423 FILLER_2_357
*1424 FILLER_2_359
*1425 FILLER_2_37
*1426 FILLER_2_69
*1427 FILLER_2_85
*1428 FILLER_30_107
*1429 FILLER_30_130
*1430 FILLER_30_159
*1431 FILLER_30_164
*1432 FILLER_30_172
*1433 FILLER_30_174
*1434 FILLER_30_177
*1435 FILLER_30_193
*1436 FILLER_30_201
*1437 FILLER_30_205
*1438 FILLER_30_212
*1439 FILLER_30_228
*1440 FILLER_30_236
*1441 FILLER_30_254
*1442 FILLER_30_262
*1443 FILLER_30_264
*1444 FILLER_30_273
*1445 FILLER_30_305
*1446 FILLER_30_309
*1447 FILLER_30_32
*1448 FILLER_30_325
*1449 FILLER_30_327
*1450 FILLER_30_34
*1451 FILLER_30_37
*1452 FILLER_30_45
*1453 FILLER_30_49
*1454 FILLER_30_79
*1455 FILLER_31_112
*1456 FILLER_31_116
*1457 FILLER_31_137
*1458 FILLER_31_139
*1459 FILLER_31_142
*1460 FILLER_31_164
*1461 FILLER_31_196
*1462 FILLER_31_204
*1463 FILLER_31_208
*1464 FILLER_31_212
*1465 FILLER_31_244
*1466 FILLER_31_248
*1467 FILLER_31_262
*1468 FILLER_31_27
*1469 FILLER_31_278
*1470 FILLER_31_282
*1471 FILLER_31_314
*1472 FILLER_31_35
*1473 FILLER_31_357
*1474 FILLER_31_359
*1475 FILLER_31_37
*1476 FILLER_31_72
*1477 FILLER_31_88
*1478 FILLER_32_10
*1479 FILLER_32_102
*1480 FILLER_32_104
*1481 FILLER_32_115
*1482 FILLER_32_117
*1483 FILLER_32_144
*1484 FILLER_32_152
*1485 FILLER_32_167
*1486 FILLER_32_177
*1487 FILLER_32_19
*1488 FILLER_32_2
*1489 FILLER_32_211
*1490 FILLER_32_243
*1491 FILLER_32_252
*1492 FILLER_32_260
*1493 FILLER_32_264
*1494 FILLER_32_27
*1495 FILLER_32_271
*1496 FILLER_32_279
*1497 FILLER_32_29
*1498 FILLER_32_295
*1499 FILLER_32_306
*1500 FILLER_32_312
*1501 FILLER_32_314
*1502 FILLER_32_327
*1503 FILLER_32_37
*1504 FILLER_32_48
*1505 FILLER_32_82
*1506 FILLER_32_94
*1507 FILLER_33_129
*1508 FILLER_33_137
*1509 FILLER_33_139
*1510 FILLER_33_177
*1511 FILLER_33_18
*1512 FILLER_33_2
*1513 FILLER_33_207
*1514 FILLER_33_209
*1515 FILLER_33_218
*1516 FILLER_33_22
*1517 FILLER_33_261
*1518 FILLER_33_29
*1519 FILLER_33_298
*1520 FILLER_33_316
*1521 FILLER_33_358
*1522 FILLER_33_55
*1523 FILLER_33_63
*1524 FILLER_33_67
*1525 FILLER_33_69
*1526 FILLER_33_72
*1527 FILLER_33_80
*1528 FILLER_33_82
*1529 FILLER_33_99
*1530 FILLER_34_136
*1531 FILLER_34_172
*1532 FILLER_34_174
*1533 FILLER_34_177
*1534 FILLER_34_2
*1535 FILLER_34_220
*1536 FILLER_34_265
*1537 FILLER_34_314
*1538 FILLER_34_346
*1539 FILLER_34_354
*1540 FILLER_34_358
*1541 FILLER_34_37
*1542 FILLER_34_64
*1543 FILLER_34_68
*1544 FILLER_35_117
*1545 FILLER_35_125
*1546 FILLER_35_158
*1547 FILLER_35_174
*1548 FILLER_35_178
*1549 FILLER_35_180
*1550 FILLER_35_2
*1551 FILLER_35_220
*1552 FILLER_35_228
*1553 FILLER_35_250
*1554 FILLER_35_282
*1555 FILLER_35_323
*1556 FILLER_35_331
*1557 FILLER_35_333
*1558 FILLER_35_352
*1559 FILLER_35_68
*1560 FILLER_36_133
*1561 FILLER_36_165
*1562 FILLER_36_173
*1563 FILLER_36_177
*1564 FILLER_36_18
*1565 FILLER_36_193
*1566 FILLER_36_2
*1567 FILLER_36_219
*1568 FILLER_36_235
*1569 FILLER_36_237
*1570 FILLER_36_242
*1571 FILLER_36_244
*1572 FILLER_36_247
*1573 FILLER_36_264
*1574 FILLER_36_272
*1575 FILLER_36_277
*1576 FILLER_36_293
*1577 FILLER_36_295
*1578 FILLER_36_304
*1579 FILLER_36_312
*1580 FILLER_36_314
*1581 FILLER_36_317
*1582 FILLER_36_325
*1583 FILLER_36_329
*1584 FILLER_36_359
*1585 FILLER_36_37
*1586 FILLER_36_56
*1587 FILLER_36_64
*1588 FILLER_36_68
*1589 FILLER_36_77
*1590 FILLER_36_84
*1591 FILLER_36_92
*1592 FILLER_36_94
*1593 FILLER_37_127
*1594 FILLER_37_135
*1595 FILLER_37_139
*1596 FILLER_37_142
*1597 FILLER_37_158
*1598 FILLER_37_160
*1599 FILLER_37_175
*1600 FILLER_37_179
*1601 FILLER_37_18
*1602 FILLER_37_187
*1603 FILLER_37_195
*1604 FILLER_37_199
*1605 FILLER_37_2
*1606 FILLER_37_201
*1607 FILLER_37_212
*1608 FILLER_37_248
*1609 FILLER_37_26
*1610 FILLER_37_260
*1611 FILLER_37_276
*1612 FILLER_37_282
*1613 FILLER_37_286
*1614 FILLER_37_288
*1615 FILLER_37_30
*1616 FILLER_37_315
*1617 FILLER_37_319
*1618 FILLER_37_32
*1619 FILLER_37_349
*1620 FILLER_37_352
*1621 FILLER_37_42
*1622 FILLER_37_52
*1623 FILLER_37_68
*1624 FILLER_37_72
*1625 FILLER_37_88
*1626 FILLER_37_96
*1627 FILLER_38_101
*1628 FILLER_38_121
*1629 FILLER_38_133
*1630 FILLER_38_141
*1631 FILLER_38_159
*1632 FILLER_38_191
*1633 FILLER_38_195
*1634 FILLER_38_2
*1635 FILLER_38_226
*1636 FILLER_38_234
*1637 FILLER_38_238
*1638 FILLER_38_247
*1639 FILLER_38_263
*1640 FILLER_38_265
*1641 FILLER_38_272
*1642 FILLER_38_303
*1643 FILLER_38_311
*1644 FILLER_38_317
*1645 FILLER_38_319
*1646 FILLER_38_34
*1647 FILLER_38_355
*1648 FILLER_38_359
*1649 FILLER_38_37
*1650 FILLER_38_53
*1651 FILLER_38_61
*1652 FILLER_38_91
*1653 FILLER_39_142
*1654 FILLER_39_144
*1655 FILLER_39_155
*1656 FILLER_39_163
*1657 FILLER_39_2
*1658 FILLER_39_212
*1659 FILLER_39_220
*1660 FILLER_39_224
*1661 FILLER_39_226
*1662 FILLER_39_262
*1663 FILLER_39_34
*1664 FILLER_39_38
*1665 FILLER_39_45
*1666 FILLER_39_53
*1667 FILLER_39_57
*1668 FILLER_39_59
*1669 FILLER_39_72
*1670 FILLER_3_131
*1671 FILLER_3_158
*1672 FILLER_3_160
*1673 FILLER_3_2
*1674 FILLER_3_206
*1675 FILLER_3_212
*1676 FILLER_3_248
*1677 FILLER_3_250
*1678 FILLER_3_296
*1679 FILLER_3_298
*1680 FILLER_3_307
*1681 FILLER_3_337
*1682 FILLER_3_345
*1683 FILLER_3_349
*1684 FILLER_3_352
*1685 FILLER_3_66
*1686 FILLER_3_72
*1687 FILLER_3_82
*1688 FILLER_3_90
*1689 FILLER_40_113
*1690 FILLER_40_135
*1691 FILLER_40_166
*1692 FILLER_40_174
*1693 FILLER_40_2
*1694 FILLER_40_206
*1695 FILLER_40_214
*1696 FILLER_40_241
*1697 FILLER_40_263
*1698 FILLER_40_265
*1699 FILLER_40_295
*1700 FILLER_40_303
*1701 FILLER_40_307
*1702 FILLER_40_46
*1703 FILLER_40_48
*1704 FILLER_40_61
*1705 FILLER_40_74
*1706 FILLER_40_90
*1707 FILLER_40_94
*1708 FILLER_40_96
*1709 FILLER_41_110
*1710 FILLER_41_118
*1711 FILLER_41_120
*1712 FILLER_41_133
*1713 FILLER_41_137
*1714 FILLER_41_139
*1715 FILLER_41_142
*1716 FILLER_41_158
*1717 FILLER_41_174
*1718 FILLER_41_178
*1719 FILLER_41_18
*1720 FILLER_41_191
*1721 FILLER_41_2
*1722 FILLER_41_207
*1723 FILLER_41_209
*1724 FILLER_41_218
*1725 FILLER_41_230
*1726 FILLER_41_267
*1727 FILLER_41_277
*1728 FILLER_41_279
*1729 FILLER_41_296
*1730 FILLER_41_304
*1731 FILLER_41_308
*1732 FILLER_41_310
*1733 FILLER_41_349
*1734 FILLER_41_352
*1735 FILLER_41_72
*1736 FILLER_41_80
*1737 FILLER_41_96
*1738 FILLER_42_107
*1739 FILLER_42_112
*1740 FILLER_42_144
*1741 FILLER_42_156
*1742 FILLER_42_172
*1743 FILLER_42_174
*1744 FILLER_42_177
*1745 FILLER_42_181
*1746 FILLER_42_183
*1747 FILLER_42_2
*1748 FILLER_42_200
*1749 FILLER_42_208
*1750 FILLER_42_212
*1751 FILLER_42_214
*1752 FILLER_42_228
*1753 FILLER_42_240
*1754 FILLER_42_244
*1755 FILLER_42_247
*1756 FILLER_42_251
*1757 FILLER_42_293
*1758 FILLER_42_301
*1759 FILLER_42_305
*1760 FILLER_42_313
*1761 FILLER_42_323
*1762 FILLER_42_34
*1763 FILLER_42_346
*1764 FILLER_42_354
*1765 FILLER_42_358
*1766 FILLER_42_37
*1767 FILLER_42_73
*1768 FILLER_42_81
*1769 FILLER_42_93
*1770 FILLER_43_124
*1771 FILLER_43_142
*1772 FILLER_43_146
*1773 FILLER_43_163
*1774 FILLER_43_172
*1775 FILLER_43_174
*1776 FILLER_43_184
*1777 FILLER_43_192
*1778 FILLER_43_2
*1779 FILLER_43_207
*1780 FILLER_43_209
*1781 FILLER_43_220
*1782 FILLER_43_224
*1783 FILLER_43_226
*1784 FILLER_43_253
*1785 FILLER_43_279
*1786 FILLER_43_282
*1787 FILLER_43_298
*1788 FILLER_43_337
*1789 FILLER_43_34
*1790 FILLER_43_345
*1791 FILLER_43_349
*1792 FILLER_43_352
*1793 FILLER_43_38
*1794 FILLER_43_40
*1795 FILLER_43_63
*1796 FILLER_43_67
*1797 FILLER_43_69
*1798 FILLER_43_72
*1799 FILLER_43_88
*1800 FILLER_43_92
*1801 FILLER_43_94
*1802 FILLER_44_103
*1803 FILLER_44_117
*1804 FILLER_44_133
*1805 FILLER_44_137
*1806 FILLER_44_173
*1807 FILLER_44_177
*1808 FILLER_44_185
*1809 FILLER_44_2
*1810 FILLER_44_220
*1811 FILLER_44_228
*1812 FILLER_44_235
*1813 FILLER_44_263
*1814 FILLER_44_295
*1815 FILLER_44_34
*1816 FILLER_44_346
*1817 FILLER_44_354
*1818 FILLER_44_358
*1819 FILLER_44_37
*1820 FILLER_44_41
*1821 FILLER_44_71
*1822 FILLER_44_83
*1823 FILLER_44_99
*1824 FILLER_45_100
*1825 FILLER_45_126
*1826 FILLER_45_136
*1827 FILLER_45_142
*1828 FILLER_45_170
*1829 FILLER_45_178
*1830 FILLER_45_190
*1831 FILLER_45_2
*1832 FILLER_45_202
*1833 FILLER_45_208
*1834 FILLER_45_212
*1835 FILLER_45_220
*1836 FILLER_45_222
*1837 FILLER_45_230
*1838 FILLER_45_261
*1839 FILLER_45_273
*1840 FILLER_45_277
*1841 FILLER_45_279
*1842 FILLER_45_282
*1843 FILLER_45_298
*1844 FILLER_45_337
*1845 FILLER_45_34
*1846 FILLER_45_345
*1847 FILLER_45_349
*1848 FILLER_45_352
*1849 FILLER_45_56
*1850 FILLER_45_60
*1851 FILLER_45_72
*1852 FILLER_45_74
*1853 FILLER_45_84
*1854 FILLER_46_107
*1855 FILLER_46_109
*1856 FILLER_46_163
*1857 FILLER_46_171
*1858 FILLER_46_177
*1859 FILLER_46_196
*1860 FILLER_46_2
*1861 FILLER_46_209
*1862 FILLER_46_213
*1863 FILLER_46_227
*1864 FILLER_46_257
*1865 FILLER_46_259
*1866 FILLER_46_289
*1867 FILLER_46_297
*1868 FILLER_46_301
*1869 FILLER_46_303
*1870 FILLER_46_330
*1871 FILLER_46_34
*1872 FILLER_46_346
*1873 FILLER_46_354
*1874 FILLER_46_358
*1875 FILLER_46_37
*1876 FILLER_46_53
*1877 FILLER_47_138
*1878 FILLER_47_164
*1879 FILLER_47_166
*1880 FILLER_47_2
*1881 FILLER_47_206
*1882 FILLER_47_272
*1883 FILLER_47_282
*1884 FILLER_47_298
*1885 FILLER_47_328
*1886 FILLER_47_344
*1887 FILLER_47_348
*1888 FILLER_47_352
*1889 FILLER_47_66
*1890 FILLER_47_87
*1891 FILLER_48_113
*1892 FILLER_48_121
*1893 FILLER_48_125
*1894 FILLER_48_164
*1895 FILLER_48_168
*1896 FILLER_48_2
*1897 FILLER_48_206
*1898 FILLER_48_242
*1899 FILLER_48_244
*1900 FILLER_48_247
*1901 FILLER_48_251
*1902 FILLER_48_291
*1903 FILLER_48_307
*1904 FILLER_48_309
*1905 FILLER_48_323
*1906 FILLER_48_34
*1907 FILLER_48_37
*1908 FILLER_48_53
*1909 FILLER_48_94
*1910 FILLER_48_96
*1911 FILLER_49_104
*1912 FILLER_49_136
*1913 FILLER_49_150
*1914 FILLER_49_166
*1915 FILLER_49_174
*1916 FILLER_49_176
*1917 FILLER_49_193
*1918 FILLER_49_2
*1919 FILLER_49_209
*1920 FILLER_49_212
*1921 FILLER_49_229
*1922 FILLER_49_246
*1923 FILLER_49_250
*1924 FILLER_49_282
*1925 FILLER_49_290
*1926 FILLER_49_294
*1927 FILLER_49_325
*1928 FILLER_49_341
*1929 FILLER_49_349
*1930 FILLER_49_352
*1931 FILLER_49_66
*1932 FILLER_49_72
*1933 FILLER_49_74
*1934 FILLER_49_81
*1935 FILLER_49_97
*1936 FILLER_4_102
*1937 FILLER_4_104
*1938 FILLER_4_123
*1939 FILLER_4_127
*1940 FILLER_4_129
*1941 FILLER_4_163
*1942 FILLER_4_199
*1943 FILLER_4_2
*1944 FILLER_4_215
*1945 FILLER_4_258
*1946 FILLER_4_294
*1947 FILLER_4_314
*1948 FILLER_4_317
*1949 FILLER_4_34
*1950 FILLER_4_356
*1951 FILLER_4_37
*1952 FILLER_4_53
*1953 FILLER_4_61
*1954 FILLER_4_94
*1955 FILLER_50_104
*1956 FILLER_50_138
*1957 FILLER_50_172
*1958 FILLER_50_2
*1959 FILLER_50_206
*1960 FILLER_50_210
*1961 FILLER_50_227
*1962 FILLER_50_235
*1963 FILLER_50_237
*1964 FILLER_50_240
*1965 FILLER_50_256
*1966 FILLER_50_260
*1967 FILLER_50_274
*1968 FILLER_50_308
*1969 FILLER_50_342
*1970 FILLER_50_36
*1971 FILLER_50_70
*1972 FILLER_5_142
*1973 FILLER_5_158
*1974 FILLER_5_189
*1975 FILLER_5_2
*1976 FILLER_5_205
*1977 FILLER_5_209
*1978 FILLER_5_212
*1979 FILLER_5_220
*1980 FILLER_5_246
*1981 FILLER_5_254
*1982 FILLER_5_258
*1983 FILLER_5_260
*1984 FILLER_5_288
*1985 FILLER_5_318
*1986 FILLER_5_320
*1987 FILLER_5_34
*1988 FILLER_5_352
*1989 FILLER_5_50
*1990 FILLER_5_58
*1991 FILLER_5_72
*1992 FILLER_5_90
*1993 FILLER_6_107
*1994 FILLER_6_115
*1995 FILLER_6_119
*1996 FILLER_6_128
*1997 FILLER_6_160
*1998 FILLER_6_164
*1999 FILLER_6_183
*2000 FILLER_6_191
*2001 FILLER_6_195
*2002 FILLER_6_2
*2003 FILLER_6_225
*2004 FILLER_6_229
*2005 FILLER_6_247
*2006 FILLER_6_263
*2007 FILLER_6_283
*2008 FILLER_6_291
*2009 FILLER_6_295
*2010 FILLER_6_297
*2011 FILLER_6_304
*2012 FILLER_6_312
*2013 FILLER_6_314
*2014 FILLER_6_317
*2015 FILLER_6_321
*2016 FILLER_6_34
*2017 FILLER_6_348
*2018 FILLER_6_356
*2019 FILLER_6_37
*2020 FILLER_6_53
*2021 FILLER_6_89
*2022 FILLER_7_107
*2023 FILLER_7_117
*2024 FILLER_7_125
*2025 FILLER_7_127
*2026 FILLER_7_142
*2027 FILLER_7_158
*2028 FILLER_7_162
*2029 FILLER_7_178
*2030 FILLER_7_18
*2031 FILLER_7_194
*2032 FILLER_7_2
*2033 FILLER_7_202
*2034 FILLER_7_228
*2035 FILLER_7_244
*2036 FILLER_7_26
*2037 FILLER_7_276
*2038 FILLER_7_282
*2039 FILLER_7_314
*2040 FILLER_7_322
*2041 FILLER_7_35
*2042 FILLER_7_352
*2043 FILLER_7_39
*2044 FILLER_7_83
*2045 FILLER_7_99
*2046 FILLER_8_104
*2047 FILLER_8_107
*2048 FILLER_8_119
*2049 FILLER_8_135
*2050 FILLER_8_139
*2051 FILLER_8_170
*2052 FILLER_8_174
*2053 FILLER_8_177
*2054 FILLER_8_18
*2055 FILLER_8_192
*2056 FILLER_8_2
*2057 FILLER_8_20
*2058 FILLER_8_226
*2059 FILLER_8_244
*2060 FILLER_8_263
*2061 FILLER_8_275
*2062 FILLER_8_291
*2063 FILLER_8_293
*2064 FILLER_8_304
*2065 FILLER_8_312
*2066 FILLER_8_314
*2067 FILLER_8_317
*2068 FILLER_8_321
*2069 FILLER_8_341
*2070 FILLER_8_343
*2071 FILLER_8_43
*2072 FILLER_8_51
*2073 FILLER_8_53
*2074 FILLER_8_62
*2075 FILLER_8_71
*2076 FILLER_8_79
*2077 FILLER_8_81
*2078 FILLER_8_88
*2079 FILLER_8_96
*2080 FILLER_9_10
*2081 FILLER_9_101
*2082 FILLER_9_142
*2083 FILLER_9_144
*2084 FILLER_9_159
*2085 FILLER_9_161
*2086 FILLER_9_168
*2087 FILLER_9_199
*2088 FILLER_9_2
*2089 FILLER_9_203
*2090 FILLER_9_228
*2091 FILLER_9_230
*2092 FILLER_9_260
*2093 FILLER_9_264
*2094 FILLER_9_266
*2095 FILLER_9_277
*2096 FILLER_9_279
*2097 FILLER_9_290
*2098 FILLER_9_292
*2099 FILLER_9_305
*2100 FILLER_9_49
*2101 FILLER_9_57
*2102 FILLER_9_61
*2103 FILLER_9_69
*2104 FILLER_9_72
*2105 FILLER_9_74
*2106 FILLER_9_81
*2107 FILLER_9_97
*2108 PHY_EDGE_ROW_0_Left_51
*2109 PHY_EDGE_ROW_0_Right_0
*2110 PHY_EDGE_ROW_10_Left_61
*2111 PHY_EDGE_ROW_10_Right_10
*2112 PHY_EDGE_ROW_11_Left_62
*2113 PHY_EDGE_ROW_11_Right_11
*2114 PHY_EDGE_ROW_12_Left_63
*2115 PHY_EDGE_ROW_12_Right_12
*2116 PHY_EDGE_ROW_13_Left_64
*2117 PHY_EDGE_ROW_13_Right_13
*2118 PHY_EDGE_ROW_14_Left_65
*2119 PHY_EDGE_ROW_14_Right_14
*2120 PHY_EDGE_ROW_15_Left_66
*2121 PHY_EDGE_ROW_15_Right_15
*2122 PHY_EDGE_ROW_16_Left_67
*2123 PHY_EDGE_ROW_16_Right_16
*2124 PHY_EDGE_ROW_17_Left_68
*2125 PHY_EDGE_ROW_17_Right_17
*2126 PHY_EDGE_ROW_18_Left_69
*2127 PHY_EDGE_ROW_18_Right_18
*2128 PHY_EDGE_ROW_19_Left_70
*2129 PHY_EDGE_ROW_19_Right_19
*2130 PHY_EDGE_ROW_1_Left_52
*2131 PHY_EDGE_ROW_1_Right_1
*2132 PHY_EDGE_ROW_20_Left_71
*2133 PHY_EDGE_ROW_20_Right_20
*2134 PHY_EDGE_ROW_21_Left_72
*2135 PHY_EDGE_ROW_21_Right_21
*2136 PHY_EDGE_ROW_22_Left_73
*2137 PHY_EDGE_ROW_22_Right_22
*2138 PHY_EDGE_ROW_23_Left_74
*2139 PHY_EDGE_ROW_23_Right_23
*2140 PHY_EDGE_ROW_24_Left_75
*2141 PHY_EDGE_ROW_24_Right_24
*2142 PHY_EDGE_ROW_25_Left_76
*2143 PHY_EDGE_ROW_25_Right_25
*2144 PHY_EDGE_ROW_26_Left_77
*2145 PHY_EDGE_ROW_26_Right_26
*2146 PHY_EDGE_ROW_27_Left_78
*2147 PHY_EDGE_ROW_27_Right_27
*2148 PHY_EDGE_ROW_28_Left_79
*2149 PHY_EDGE_ROW_28_Right_28
*2150 PHY_EDGE_ROW_29_Left_80
*2151 PHY_EDGE_ROW_29_Right_29
*2152 PHY_EDGE_ROW_2_Left_53
*2153 PHY_EDGE_ROW_2_Right_2
*2154 PHY_EDGE_ROW_30_Left_81
*2155 PHY_EDGE_ROW_30_Right_30
*2156 PHY_EDGE_ROW_31_Left_82
*2157 PHY_EDGE_ROW_31_Right_31
*2158 PHY_EDGE_ROW_32_Left_83
*2159 PHY_EDGE_ROW_32_Right_32
*2160 PHY_EDGE_ROW_33_Left_84
*2161 PHY_EDGE_ROW_33_Right_33
*2162 PHY_EDGE_ROW_34_Left_85
*2163 PHY_EDGE_ROW_34_Right_34
*2164 PHY_EDGE_ROW_35_Left_86
*2165 PHY_EDGE_ROW_35_Right_35
*2166 PHY_EDGE_ROW_36_Left_87
*2167 PHY_EDGE_ROW_36_Right_36
*2168 PHY_EDGE_ROW_37_Left_88
*2169 PHY_EDGE_ROW_37_Right_37
*2170 PHY_EDGE_ROW_38_Left_89
*2171 PHY_EDGE_ROW_38_Right_38
*2172 PHY_EDGE_ROW_39_Left_90
*2173 PHY_EDGE_ROW_39_Right_39
*2174 PHY_EDGE_ROW_3_Left_54
*2175 PHY_EDGE_ROW_3_Right_3
*2176 PHY_EDGE_ROW_40_Left_91
*2177 PHY_EDGE_ROW_40_Right_40
*2178 PHY_EDGE_ROW_41_Left_92
*2179 PHY_EDGE_ROW_41_Right_41
*2180 PHY_EDGE_ROW_42_Left_93
*2181 PHY_EDGE_ROW_42_Right_42
*2182 PHY_EDGE_ROW_43_Left_94
*2183 PHY_EDGE_ROW_43_Right_43
*2184 PHY_EDGE_ROW_44_Left_95
*2185 PHY_EDGE_ROW_44_Right_44
*2186 PHY_EDGE_ROW_45_Left_96
*2187 PHY_EDGE_ROW_45_Right_45
*2188 PHY_EDGE_ROW_46_Left_97
*2189 PHY_EDGE_ROW_46_Right_46
*2190 PHY_EDGE_ROW_47_Left_98
*2191 PHY_EDGE_ROW_47_Right_47
*2192 PHY_EDGE_ROW_48_Left_99
*2193 PHY_EDGE_ROW_48_Right_48
*2194 PHY_EDGE_ROW_49_Left_100
*2195 PHY_EDGE_ROW_49_Right_49
*2196 PHY_EDGE_ROW_4_Left_55
*2197 PHY_EDGE_ROW_4_Right_4
*2198 PHY_EDGE_ROW_50_Left_101
*2199 PHY_EDGE_ROW_50_Right_50
*2200 PHY_EDGE_ROW_5_Left_56
*2201 PHY_EDGE_ROW_5_Right_5
*2202 PHY_EDGE_ROW_6_Left_57
*2203 PHY_EDGE_ROW_6_Right_6
*2204 PHY_EDGE_ROW_7_Left_58
*2205 PHY_EDGE_ROW_7_Right_7
*2206 PHY_EDGE_ROW_8_Left_59
*2207 PHY_EDGE_ROW_8_Right_8
*2208 PHY_EDGE_ROW_9_Left_60
*2209 PHY_EDGE_ROW_9_Right_9
*2210 TAP_TAPCELL_ROW_0_102
*2211 TAP_TAPCELL_ROW_0_103
*2212 TAP_TAPCELL_ROW_0_104
*2213 TAP_TAPCELL_ROW_0_105
*2214 TAP_TAPCELL_ROW_0_106
*2215 TAP_TAPCELL_ROW_0_107
*2216 TAP_TAPCELL_ROW_0_108
*2217 TAP_TAPCELL_ROW_0_109
*2218 TAP_TAPCELL_ROW_0_110
*2219 TAP_TAPCELL_ROW_0_111
*2220 TAP_TAPCELL_ROW_10_157
*2221 TAP_TAPCELL_ROW_10_158
*2222 TAP_TAPCELL_ROW_10_159
*2223 TAP_TAPCELL_ROW_10_160
*2224 TAP_TAPCELL_ROW_10_161
*2225 TAP_TAPCELL_ROW_11_162
*2226 TAP_TAPCELL_ROW_11_163
*2227 TAP_TAPCELL_ROW_11_164
*2228 TAP_TAPCELL_ROW_11_165
*2229 TAP_TAPCELL_ROW_11_166
*2230 TAP_TAPCELL_ROW_12_167
*2231 TAP_TAPCELL_ROW_12_168
*2232 TAP_TAPCELL_ROW_12_169
*2233 TAP_TAPCELL_ROW_12_170
*2234 TAP_TAPCELL_ROW_12_171
*2235 TAP_TAPCELL_ROW_13_172
*2236 TAP_TAPCELL_ROW_13_173
*2237 TAP_TAPCELL_ROW_13_174
*2238 TAP_TAPCELL_ROW_13_175
*2239 TAP_TAPCELL_ROW_13_176
*2240 TAP_TAPCELL_ROW_14_177
*2241 TAP_TAPCELL_ROW_14_178
*2242 TAP_TAPCELL_ROW_14_179
*2243 TAP_TAPCELL_ROW_14_180
*2244 TAP_TAPCELL_ROW_14_181
*2245 TAP_TAPCELL_ROW_15_182
*2246 TAP_TAPCELL_ROW_15_183
*2247 TAP_TAPCELL_ROW_15_184
*2248 TAP_TAPCELL_ROW_15_185
*2249 TAP_TAPCELL_ROW_15_186
*2250 TAP_TAPCELL_ROW_16_187
*2251 TAP_TAPCELL_ROW_16_188
*2252 TAP_TAPCELL_ROW_16_189
*2253 TAP_TAPCELL_ROW_16_190
*2254 TAP_TAPCELL_ROW_16_191
*2255 TAP_TAPCELL_ROW_17_192
*2256 TAP_TAPCELL_ROW_17_193
*2257 TAP_TAPCELL_ROW_17_194
*2258 TAP_TAPCELL_ROW_17_195
*2259 TAP_TAPCELL_ROW_17_196
*2260 TAP_TAPCELL_ROW_18_197
*2261 TAP_TAPCELL_ROW_18_198
*2262 TAP_TAPCELL_ROW_18_199
*2263 TAP_TAPCELL_ROW_18_200
*2264 TAP_TAPCELL_ROW_18_201
*2265 TAP_TAPCELL_ROW_19_202
*2266 TAP_TAPCELL_ROW_19_203
*2267 TAP_TAPCELL_ROW_19_204
*2268 TAP_TAPCELL_ROW_19_205
*2269 TAP_TAPCELL_ROW_19_206
*2270 TAP_TAPCELL_ROW_1_112
*2271 TAP_TAPCELL_ROW_1_113
*2272 TAP_TAPCELL_ROW_1_114
*2273 TAP_TAPCELL_ROW_1_115
*2274 TAP_TAPCELL_ROW_1_116
*2275 TAP_TAPCELL_ROW_20_207
*2276 TAP_TAPCELL_ROW_20_208
*2277 TAP_TAPCELL_ROW_20_209
*2278 TAP_TAPCELL_ROW_20_210
*2279 TAP_TAPCELL_ROW_20_211
*2280 TAP_TAPCELL_ROW_21_212
*2281 TAP_TAPCELL_ROW_21_213
*2282 TAP_TAPCELL_ROW_21_214
*2283 TAP_TAPCELL_ROW_21_215
*2284 TAP_TAPCELL_ROW_21_216
*2285 TAP_TAPCELL_ROW_22_217
*2286 TAP_TAPCELL_ROW_22_218
*2287 TAP_TAPCELL_ROW_22_219
*2288 TAP_TAPCELL_ROW_22_220
*2289 TAP_TAPCELL_ROW_22_221
*2290 TAP_TAPCELL_ROW_23_222
*2291 TAP_TAPCELL_ROW_23_223
*2292 TAP_TAPCELL_ROW_23_224
*2293 TAP_TAPCELL_ROW_23_225
*2294 TAP_TAPCELL_ROW_23_226
*2295 TAP_TAPCELL_ROW_24_227
*2296 TAP_TAPCELL_ROW_24_228
*2297 TAP_TAPCELL_ROW_24_229
*2298 TAP_TAPCELL_ROW_24_230
*2299 TAP_TAPCELL_ROW_24_231
*2300 TAP_TAPCELL_ROW_25_232
*2301 TAP_TAPCELL_ROW_25_233
*2302 TAP_TAPCELL_ROW_25_234
*2303 TAP_TAPCELL_ROW_25_235
*2304 TAP_TAPCELL_ROW_25_236
*2305 TAP_TAPCELL_ROW_26_237
*2306 TAP_TAPCELL_ROW_26_238
*2307 TAP_TAPCELL_ROW_26_239
*2308 TAP_TAPCELL_ROW_26_240
*2309 TAP_TAPCELL_ROW_26_241
*2310 TAP_TAPCELL_ROW_27_242
*2311 TAP_TAPCELL_ROW_27_243
*2312 TAP_TAPCELL_ROW_27_244
*2313 TAP_TAPCELL_ROW_27_245
*2314 TAP_TAPCELL_ROW_27_246
*2315 TAP_TAPCELL_ROW_28_247
*2316 TAP_TAPCELL_ROW_28_248
*2317 TAP_TAPCELL_ROW_28_249
*2318 TAP_TAPCELL_ROW_28_250
*2319 TAP_TAPCELL_ROW_28_251
*2320 TAP_TAPCELL_ROW_29_252
*2321 TAP_TAPCELL_ROW_29_253
*2322 TAP_TAPCELL_ROW_29_254
*2323 TAP_TAPCELL_ROW_29_255
*2324 TAP_TAPCELL_ROW_29_256
*2325 TAP_TAPCELL_ROW_2_117
*2326 TAP_TAPCELL_ROW_2_118
*2327 TAP_TAPCELL_ROW_2_119
*2328 TAP_TAPCELL_ROW_2_120
*2329 TAP_TAPCELL_ROW_2_121
*2330 TAP_TAPCELL_ROW_30_257
*2331 TAP_TAPCELL_ROW_30_258
*2332 TAP_TAPCELL_ROW_30_259
*2333 TAP_TAPCELL_ROW_30_260
*2334 TAP_TAPCELL_ROW_30_261
*2335 TAP_TAPCELL_ROW_31_262
*2336 TAP_TAPCELL_ROW_31_263
*2337 TAP_TAPCELL_ROW_31_264
*2338 TAP_TAPCELL_ROW_31_265
*2339 TAP_TAPCELL_ROW_31_266
*2340 TAP_TAPCELL_ROW_32_267
*2341 TAP_TAPCELL_ROW_32_268
*2342 TAP_TAPCELL_ROW_32_269
*2343 TAP_TAPCELL_ROW_32_270
*2344 TAP_TAPCELL_ROW_32_271
*2345 TAP_TAPCELL_ROW_33_272
*2346 TAP_TAPCELL_ROW_33_273
*2347 TAP_TAPCELL_ROW_33_274
*2348 TAP_TAPCELL_ROW_33_275
*2349 TAP_TAPCELL_ROW_33_276
*2350 TAP_TAPCELL_ROW_34_277
*2351 TAP_TAPCELL_ROW_34_278
*2352 TAP_TAPCELL_ROW_34_279
*2353 TAP_TAPCELL_ROW_34_280
*2354 TAP_TAPCELL_ROW_34_281
*2355 TAP_TAPCELL_ROW_35_282
*2356 TAP_TAPCELL_ROW_35_283
*2357 TAP_TAPCELL_ROW_35_284
*2358 TAP_TAPCELL_ROW_35_285
*2359 TAP_TAPCELL_ROW_35_286
*2360 TAP_TAPCELL_ROW_36_287
*2361 TAP_TAPCELL_ROW_36_288
*2362 TAP_TAPCELL_ROW_36_289
*2363 TAP_TAPCELL_ROW_36_290
*2364 TAP_TAPCELL_ROW_36_291
*2365 TAP_TAPCELL_ROW_37_292
*2366 TAP_TAPCELL_ROW_37_293
*2367 TAP_TAPCELL_ROW_37_294
*2368 TAP_TAPCELL_ROW_37_295
*2369 TAP_TAPCELL_ROW_37_296
*2370 TAP_TAPCELL_ROW_38_297
*2371 TAP_TAPCELL_ROW_38_298
*2372 TAP_TAPCELL_ROW_38_299
*2373 TAP_TAPCELL_ROW_38_300
*2374 TAP_TAPCELL_ROW_38_301
*2375 TAP_TAPCELL_ROW_39_302
*2376 TAP_TAPCELL_ROW_39_303
*2377 TAP_TAPCELL_ROW_39_304
*2378 TAP_TAPCELL_ROW_39_305
*2379 TAP_TAPCELL_ROW_39_306
*2380 TAP_TAPCELL_ROW_3_122
*2381 TAP_TAPCELL_ROW_3_123
*2382 TAP_TAPCELL_ROW_3_124
*2383 TAP_TAPCELL_ROW_3_125
*2384 TAP_TAPCELL_ROW_3_126
*2385 TAP_TAPCELL_ROW_40_307
*2386 TAP_TAPCELL_ROW_40_308
*2387 TAP_TAPCELL_ROW_40_309
*2388 TAP_TAPCELL_ROW_40_310
*2389 TAP_TAPCELL_ROW_40_311
*2390 TAP_TAPCELL_ROW_41_312
*2391 TAP_TAPCELL_ROW_41_313
*2392 TAP_TAPCELL_ROW_41_314
*2393 TAP_TAPCELL_ROW_41_315
*2394 TAP_TAPCELL_ROW_41_316
*2395 TAP_TAPCELL_ROW_42_317
*2396 TAP_TAPCELL_ROW_42_318
*2397 TAP_TAPCELL_ROW_42_319
*2398 TAP_TAPCELL_ROW_42_320
*2399 TAP_TAPCELL_ROW_42_321
*2400 TAP_TAPCELL_ROW_43_322
*2401 TAP_TAPCELL_ROW_43_323
*2402 TAP_TAPCELL_ROW_43_324
*2403 TAP_TAPCELL_ROW_43_325
*2404 TAP_TAPCELL_ROW_43_326
*2405 TAP_TAPCELL_ROW_44_327
*2406 TAP_TAPCELL_ROW_44_328
*2407 TAP_TAPCELL_ROW_44_329
*2408 TAP_TAPCELL_ROW_44_330
*2409 TAP_TAPCELL_ROW_44_331
*2410 TAP_TAPCELL_ROW_45_332
*2411 TAP_TAPCELL_ROW_45_333
*2412 TAP_TAPCELL_ROW_45_334
*2413 TAP_TAPCELL_ROW_45_335
*2414 TAP_TAPCELL_ROW_45_336
*2415 TAP_TAPCELL_ROW_46_337
*2416 TAP_TAPCELL_ROW_46_338
*2417 TAP_TAPCELL_ROW_46_339
*2418 TAP_TAPCELL_ROW_46_340
*2419 TAP_TAPCELL_ROW_46_341
*2420 TAP_TAPCELL_ROW_47_342
*2421 TAP_TAPCELL_ROW_47_343
*2422 TAP_TAPCELL_ROW_47_344
*2423 TAP_TAPCELL_ROW_47_345
*2424 TAP_TAPCELL_ROW_47_346
*2425 TAP_TAPCELL_ROW_48_347
*2426 TAP_TAPCELL_ROW_48_348
*2427 TAP_TAPCELL_ROW_48_349
*2428 TAP_TAPCELL_ROW_48_350
*2429 TAP_TAPCELL_ROW_48_351
*2430 TAP_TAPCELL_ROW_49_352
*2431 TAP_TAPCELL_ROW_49_353
*2432 TAP_TAPCELL_ROW_49_354
*2433 TAP_TAPCELL_ROW_49_355
*2434 TAP_TAPCELL_ROW_49_356
*2435 TAP_TAPCELL_ROW_4_127
*2436 TAP_TAPCELL_ROW_4_128
*2437 TAP_TAPCELL_ROW_4_129
*2438 TAP_TAPCELL_ROW_4_130
*2439 TAP_TAPCELL_ROW_4_131
*2440 TAP_TAPCELL_ROW_50_357
*2441 TAP_TAPCELL_ROW_50_358
*2442 TAP_TAPCELL_ROW_50_359
*2443 TAP_TAPCELL_ROW_50_360
*2444 TAP_TAPCELL_ROW_50_361
*2445 TAP_TAPCELL_ROW_50_362
*2446 TAP_TAPCELL_ROW_50_363
*2447 TAP_TAPCELL_ROW_50_364
*2448 TAP_TAPCELL_ROW_50_365
*2449 TAP_TAPCELL_ROW_50_366
*2450 TAP_TAPCELL_ROW_5_132
*2451 TAP_TAPCELL_ROW_5_133
*2452 TAP_TAPCELL_ROW_5_134
*2453 TAP_TAPCELL_ROW_5_135
*2454 TAP_TAPCELL_ROW_5_136
*2455 TAP_TAPCELL_ROW_6_137
*2456 TAP_TAPCELL_ROW_6_138
*2457 TAP_TAPCELL_ROW_6_139
*2458 TAP_TAPCELL_ROW_6_140
*2459 TAP_TAPCELL_ROW_6_141
*2460 TAP_TAPCELL_ROW_7_142
*2461 TAP_TAPCELL_ROW_7_143
*2462 TAP_TAPCELL_ROW_7_144
*2463 TAP_TAPCELL_ROW_7_145
*2464 TAP_TAPCELL_ROW_7_146
*2465 TAP_TAPCELL_ROW_8_147
*2466 TAP_TAPCELL_ROW_8_148
*2467 TAP_TAPCELL_ROW_8_149
*2468 TAP_TAPCELL_ROW_8_150
*2469 TAP_TAPCELL_ROW_8_151
*2470 TAP_TAPCELL_ROW_9_152
*2471 TAP_TAPCELL_ROW_9_153
*2472 TAP_TAPCELL_ROW_9_154
*2473 TAP_TAPCELL_ROW_9_155
*2474 TAP_TAPCELL_ROW_9_156
*2475 _0642_
*2476 _0643_
*2477 _0644_
*2478 _0645_
*2479 _0646_
*2480 _0647_
*2481 _0648_
*2482 _0649_
*2483 _0650_
*2484 _0651_
*2485 _0652_
*2486 _0653_
*2487 _0654_
*2488 _0655_
*2489 _0656_
*2490 _0657_
*2491 _0658_
*2492 _0659_
*2493 _0660_
*2494 _0661_
*2495 _0662_
*2496 _0663_
*2497 _0664_
*2498 _0665_
*2499 _0666_
*2500 _0667_
*2501 _0668_
*2502 _0669_
*2503 _0670_
*2504 _0671_
*2505 _0672_
*2506 _0673_
*2507 _0674_
*2508 _0675_
*2509 _0676_
*2510 _0677_
*2511 _0678_
*2512 _0679_
*2513 _0680_
*2514 _0681_
*2515 _0682_
*2516 _0683_
*2517 _0684_
*2518 _0685_
*2519 _0686_
*2520 _0687_
*2521 _0688_
*2522 _0689_
*2523 _0690_
*2524 _0691_
*2525 _0692_
*2526 _0693_
*2527 _0694_
*2528 _0695_
*2529 _0696_
*2530 _0697_
*2531 _0698_
*2532 _0699_
*2533 _0700_
*2534 _0701_
*2535 _0702_
*2536 _0703_
*2537 _0704_
*2538 _0705_
*2539 _0706_
*2540 _0707_
*2541 _0708_
*2542 _0709_
*2543 _0710_
*2544 _0711_
*2545 _0712_
*2546 _0713_
*2547 _0714_
*2548 _0715_
*2549 _0716_
*2550 _0717_
*2551 _0718_
*2552 _0719_
*2553 _0720_
*2554 _0721_
*2555 _0722_
*2556 _0723_
*2557 _0724_
*2558 _0725_
*2559 _0726_
*2560 _0727_
*2561 _0728_
*2562 _0729_
*2563 _0730_
*2564 _0731_
*2565 _0732_
*2566 _0733_
*2567 _0734_
*2568 _0735_
*2569 _0736_
*2570 _0737_
*2571 _0738_
*2572 _0739_
*2573 _0740_
*2574 _0741_
*2575 _0742_
*2576 _0743_
*2577 _0744_
*2578 _0745_
*2579 _0746_
*2580 _0747_
*2581 _0748_
*2582 _0749_
*2583 _0750_
*2584 _0751_
*2585 _0752_
*2586 _0753_
*2587 _0754_
*2588 _0755_
*2589 _0756_
*2590 _0757_
*2591 _0758_
*2592 _0759_
*2593 _0760_
*2594 _0761_
*2595 _0762_
*2596 _0763_
*2597 _0764_
*2598 _0765_
*2599 _0766_
*2600 _0767_
*2601 _0768_
*2602 _0769_
*2603 _0770_
*2604 _0771_
*2605 _0772_
*2606 _0773_
*2607 _0774_
*2608 _0775_
*2609 _0776_
*2610 _0777_
*2611 _0778_
*2612 _0779_
*2613 _0780_
*2614 _0781_
*2615 _0782_
*2616 _0783_
*2617 _0784_
*2618 _0785_
*2619 _0786_
*2620 _0787_
*2621 _0788_
*2622 _0789_
*2623 _0790_
*2624 _0791_
*2625 _0792_
*2626 _0793_
*2627 _0794_
*2628 _0795_
*2629 _0796_
*2630 _0797_
*2631 _0798_
*2632 _0799_
*2633 _0800_
*2634 _0801_
*2635 _0802_
*2636 _0803_
*2637 _0804_
*2638 _0805_
*2639 _0806_
*2640 _0807_
*2641 _0808_
*2642 _0809_
*2643 _0810_
*2644 _0811_
*2645 _0812_
*2646 _0813_
*2647 _0814_
*2648 _0815_
*2649 _0816_
*2650 _0817_
*2651 _0818_
*2652 _0819_
*2653 _0820_
*2654 _0821_
*2655 _0822_
*2656 _0823_
*2657 _0824_
*2658 _0825_
*2659 _0826_
*2660 _0827_
*2661 _0828_
*2662 _0829_
*2663 _0830_
*2664 _0831_
*2665 _0832_
*2666 _0833_
*2667 _0834_
*2668 _0835_
*2669 _0836_
*2670 _0837_
*2671 _0838_
*2672 _0839_
*2673 _0840_
*2674 _0841_
*2675 _0842_
*2676 _0843_
*2677 _0844_
*2678 _0845_
*2679 _0846_
*2680 _0847_
*2681 _0848_
*2682 _0849_
*2683 _0850_
*2684 _0851_
*2685 _0852_
*2686 _0853_
*2687 _0854_
*2688 _0855_
*2689 _0856_
*2690 _0857_
*2691 _0858_
*2692 _0859_
*2693 _0860_
*2694 _0861_
*2695 _0862_
*2696 _0863_
*2697 _0864_
*2698 _0865_
*2699 _0866_
*2700 _0867_
*2701 _0868_
*2702 _0869_
*2703 _0870_
*2704 _0871_
*2705 _0872_
*2706 _0873_
*2707 _0874_
*2708 _0875_
*2709 _0876_
*2710 _0877_
*2711 _0878_
*2712 _0879_
*2713 _0880_
*2714 _0881_
*2715 _0882_
*2716 _0883_
*2717 _0884_
*2718 _0885_
*2719 _0886_
*2720 _0887_
*2721 _0888_
*2722 _0889_
*2723 _0890_
*2724 _0891_
*2725 _0892_
*2726 _0893_
*2727 _0894_
*2728 _0895_
*2729 _0896_
*2730 _0897_
*2731 _0898_
*2732 _0899_
*2733 _0900_
*2734 _0901_
*2735 _0902_
*2736 _0903_
*2737 _0904_
*2738 _0905_
*2739 _0906_
*2740 _0907_
*2741 _0908_
*2742 _0909_
*2743 _0910_
*2744 _0911_
*2745 _0912_
*2746 _0913_
*2747 _0914_
*2748 _0915_
*2749 _0916_
*2750 _0917_
*2751 _0918_
*2752 _0919_
*2753 _0920_
*2754 _0921_
*2755 _0922_
*2756 _0923_
*2757 _0924_
*2758 _0925_
*2759 _0926_
*2760 _0927_
*2761 _0928_
*2762 _0929_
*2763 _0930_
*2764 _0931_
*2765 _0932_
*2766 _0933_
*2767 _0934_
*2768 _0935_
*2769 _0936_
*2770 _0937_
*2771 _0938_
*2772 _0939_
*2773 _0940_
*2774 _0941_
*2775 _0942_
*2776 _0943_
*2777 _0944_
*2778 _0945_
*2779 _0946_
*2780 _0947_
*2781 _0948_
*2782 _0949_
*2783 _0950_
*2784 _0951_
*2785 _0952_
*2786 _0953_
*2787 _0954_
*2788 _0955_
*2789 _0956_
*2790 _0957_
*2791 _0958_
*2792 _0959_
*2793 _0960_
*2794 _0961_
*2795 _0962_
*2796 _0963_
*2797 _0964_
*2798 _0965_
*2799 _0966_
*2800 _0967_
*2801 _0968_
*2802 _0969_
*2803 _0970_
*2804 _0971_
*2805 _0972_
*2806 _0973_
*2807 _0974_
*2808 _0975_
*2809 _0976_
*2810 _0977_
*2811 _0978_
*2812 _0979_
*2813 _0980_
*2814 _0981_
*2815 _0982_
*2816 _0983_
*2817 _0984_
*2818 _0985_
*2819 _0986_
*2820 _0987_
*2821 _0988_
*2822 _0989_
*2823 _0990_
*2824 _0991_
*2825 _0992_
*2826 _0993_
*2827 _0994_
*2828 _0995_
*2829 _0996_
*2830 _0997_
*2831 _0998_
*2832 _0999_
*2833 _1000_
*2834 _1001_
*2835 _1002_
*2836 _1003_
*2837 _1004_
*2838 _1005_
*2839 _1006_
*2840 _1007_
*2841 _1008_
*2842 _1009_
*2843 _1010_
*2844 _1011_
*2845 _1012_
*2846 _1013_
*2847 _1014_
*2848 _1015_
*2849 _1016_
*2850 _1017_
*2851 _1018_
*2852 _1019_
*2853 _1020_
*2854 _1021_
*2855 _1022_
*2856 _1023_
*2857 _1024_
*2858 _1025_
*2859 _1026_
*2860 _1027_
*2861 _1028_
*2862 _1029_
*2863 _1030_
*2864 _1031_
*2865 _1032_
*2866 _1033_
*2867 _1034_
*2868 _1035_
*2869 _1036_
*2870 _1037_
*2871 _1038_
*2872 _1039_
*2873 _1040_
*2874 _1041_
*2875 _1042_
*2876 _1043_
*2877 _1044_
*2878 _1045_
*2879 _1046_
*2880 _1047_
*2881 _1048_
*2882 _1049_
*2883 _1050_
*2884 _1051_
*2885 _1052_
*2886 _1053_
*2887 _1054_
*2888 _1055_
*2889 _1056_
*2890 _1057_
*2891 _1058_
*2892 _1059_
*2893 _1060_
*2894 _1061_
*2895 _1062_
*2896 _1063_
*2897 _1064_
*2898 _1065_
*2899 _1066_
*2900 _1067_
*2901 _1068_
*2902 _1069_
*2903 _1070_
*2904 _1071_
*2905 _1072_
*2906 _1073_
*2907 _1074_
*2908 _1075_
*2909 _1076_
*2910 _1077_
*2911 _1078_
*2912 _1079_
*2913 _1080_
*2914 _1081_
*2915 _1082_
*2916 _1083_
*2917 _1084_
*2918 _1085_
*2919 _1086_
*2920 _1087_
*2921 _1088_
*2922 _1089_
*2923 _1090_
*2924 _1091_
*2925 _1092_
*2926 _1093_
*2927 _1094_
*2928 _1095_
*2929 _1096_
*2930 _1097_
*2931 _1098_
*2932 _1099_
*2933 _1100_
*2934 _1101_
*2935 _1102_
*2936 _1103_
*2937 _1104_
*2938 _1105_
*2939 _1106_
*2940 _1107_
*2941 _1108_
*2942 _1109_
*2943 _1110_
*2944 _1111_
*2945 _1112_
*2946 _1113_
*2947 _1114_
*2948 _1115_
*2949 _1116_
*2950 _1117_
*2951 _1118_
*2952 _1119_
*2953 _1120_
*2954 _1121_
*2955 _1122_
*2956 _1123_
*2957 _1124_
*2958 _1125_
*2959 _1126_
*2960 _1127_
*2961 _1128_
*2962 _1129_
*2963 _1130_
*2964 _1131_
*2965 _1132_
*2966 _1133_
*2967 _1134_
*2968 _1135_
*2969 _1136_
*2970 _1137_
*2971 _1138_
*2972 _1139_
*2973 _1140_
*2974 _1141_
*2975 _1142_
*2976 _1143_
*2977 _1144_
*2978 _1145_
*2979 _1146_
*2980 _1147_
*2981 _1148_
*2982 _1149_
*2983 _1150_
*2984 _1151_
*2985 _1152_
*2986 _1153_
*2987 _1154_
*2988 _1155_
*2989 _1156_
*2990 _1157_
*2991 _1158_
*2992 _1159_
*2993 _1160_
*2994 _1161_
*2995 _1162_
*2996 _1163_
*2997 _1164_
*2998 _1165_
*2999 _1166_
*3000 _1167_
*3001 _1168_
*3002 _1169_
*3003 _1170_
*3004 _1171_
*3005 _1172_
*3006 _1173_
*3007 _1174_
*3008 _1175_
*3009 _1176_
*3010 _1177_
*3011 _1178_
*3012 _1179_
*3013 _1180_
*3014 _1181_
*3015 _1182_
*3016 _1183_
*3017 _1184_
*3018 _1185_
*3019 _1186_
*3020 _1187_
*3021 _1188_
*3022 _1189_
*3023 _1190_
*3024 _1191_
*3025 _1192_
*3026 _1193_
*3027 _1194_
*3028 _1195_
*3029 _1196_
*3030 _1197_
*3031 _1198_
*3032 _1199_
*3033 _1200_
*3034 _1201_
*3035 _1202_
*3036 _1203_
*3037 _1204_
*3038 _1205_
*3039 _1206_
*3040 _1207_
*3041 _1208_
*3042 _1209_
*3043 _1210_
*3044 _1211_
*3045 _1212_
*3046 _1213_
*3047 _1214_
*3048 _1215_
*3049 _1216_
*3050 _1217_
*3051 _1218_
*3052 _1219_
*3053 _1220_
*3054 _1221_
*3055 _1222_
*3056 _1223_
*3057 _1224_
*3058 _1225_
*3059 _1226_
*3060 _1227_
*3061 _1228_
*3062 _1229_
*3063 _1230_
*3064 _1231_
*3065 _1232_
*3066 _1233_
*3067 _1234_
*3068 _1235_
*3069 _1236_
*3070 _1237_
*3071 _1238_
*3072 _1239_
*3073 _1240_
*3074 _1241_
*3075 _1242_
*3076 _1243_
*3077 _1244_
*3078 _1245_
*3079 _1246_
*3080 _1247_
*3081 _1248_
*3082 _1249_
*3083 _1250_
*3084 _1251_
*3085 _1252_
*3086 _1253_
*3087 _1254_
*3088 _1255_
*3089 _1256_
*3090 _1257_
*3091 _1258_
*3092 _1259_
*3093 _1260_
*3094 _1261_
*3095 _1262_
*3096 _1263_
*3097 _1264_
*3098 _1265_
*3099 _1266_
*3100 _1267_
*3101 _1268_
*3102 _1269_
*3103 _1270_
*3104 _1271_
*3105 _1272_
*3106 _1273_
*3107 _1274_
*3108 _1275_
*3109 _1276_
*3110 _1277_
*3111 _1278_
*3112 _1279_
*3113 _1280_
*3114 _1281_
*3115 _1282_
*3116 _1283_
*3117 _1284_
*3118 _1285_
*3119 _1286_
*3120 _1287_
*3121 _1288_
*3122 _1289_
*3123 _1290_
*3124 _1291_
*3125 _1292_
*3126 _1293_
*3127 _1294_
*3128 _1295_
*3129 _1296_
*3130 _1297_
*3131 _1298_
*3132 _1299_
*3133 _1300_
*3134 _1301_
*3135 _1302_
*3136 _1303_
*3137 _1304_
*3138 _1305_
*3139 _1306_
*3140 _1307_
*3141 _1308_
*3142 _1309_
*3143 _1310_
*3144 _1311_
*3145 _1312_
*3146 _1313_
*3147 _1314_
*3148 _1315_
*3149 _1316_
*3150 _1317_
*3151 _1318_
*3152 _1319_
*3153 _1320_
*3154 _1321_
*3155 _1322_
*3156 _1323_
*3157 _1324_
*3158 _1325_
*3159 _1326_
*3160 _1327_
*3161 _1328_
*3162 _1329_
*3163 _1330_
*3164 _1331_
*3165 _1332_
*3166 _1333_
*3167 _1334_
*3168 _1335_
*3169 _1336_
*3170 _1337_
*3171 _1338_
*3172 _1339_
*3173 _1340_
*3174 _1341_
*3175 _1342_
*3176 _1343_
*3177 _1344_
*3178 _1345_
*3179 _1346_
*3180 _1347_
*3181 _1348_
*3182 _1349_
*3183 _1350_
*3184 _1351_
*3185 _1352_
*3186 _1353_
*3187 _1354_
*3188 _1355_
*3189 _1356_
*3190 _1357_
*3191 _1358_
*3192 _1359_
*3193 _1360_
*3194 _1361_
*3195 _1362_
*3196 _1363_
*3197 _1364_
*3198 _1365_
*3199 _1366_
*3200 _1367_
*3201 _1368_
*3202 _1369_
*3203 _1370_
*3204 _1371_
*3205 _1372_
*3206 _1373_
*3207 _1374_
*3208 _1375_
*3209 _1376_
*3210 _1377_
*3211 _1378_
*3212 _1379_
*3213 _1380_
*3214 _1381_
*3215 _1382_
*3216 _1383_
*3217 _1384_
*3218 _1385_
*3219 _1386_
*3220 _1387_
*3221 _1388_
*3222 _1389_
*3223 _1390_
*3224 _1391_
*3225 _1392_
*3226 _1393_
*3227 _1394_
*3228 _1395_
*3229 _1396_
*3230 _1397_
*3231 _1398_
*3232 _1399_
*3233 _1400_
*3234 _1401_
*3235 _1402_
*3236 _1403_
*3237 _1404_
*3238 _1405_
*3239 _1406_
*3240 _1407_
*3241 _1408_
*3242 _1409_
*3243 _1410_
*3244 _1411_
*3245 _1412_
*3246 _1413_
*3247 _1414_
*3248 _1415_
*3249 _1416_
*3250 _1417_
*3251 _1418_
*3252 _1419_
*3253 _1420_
*3254 _1421_
*3255 _1422_
*3256 _1423_
*3257 _1424_
*3258 _1425_
*3259 _1426_
*3260 _1427_
*3261 _1428_
*3262 _1429_
*3263 _1430_
*3264 _1431_
*3265 _1432_
*3266 _1433_
*3267 _1434_
*3268 _1435_
*3269 _1436_
*3270 _1437_
*3271 _1438_
*3272 _1439_
*3273 _1440_
*3274 _1441_
*3275 clkbuf_0_CLK_I
*3276 clkbuf_4_0_0_CLK_I
*3277 clkbuf_4_10_0_CLK_I
*3278 clkbuf_4_11_0_CLK_I
*3279 clkbuf_4_12_0_CLK_I
*3280 clkbuf_4_13_0_CLK_I
*3281 clkbuf_4_14_0_CLK_I
*3282 clkbuf_4_15_0_CLK_I
*3283 clkbuf_4_1_0_CLK_I
*3284 clkbuf_4_2_0_CLK_I
*3285 clkbuf_4_3_0_CLK_I
*3286 clkbuf_4_4_0_CLK_I
*3287 clkbuf_4_5_0_CLK_I
*3288 clkbuf_4_6_0_CLK_I
*3289 clkbuf_4_7_0_CLK_I
*3290 clkbuf_4_8_0_CLK_I
*3291 clkbuf_4_9_0_CLK_I
*3292 clkload0
*3293 clkload1
*3294 clkload2
*3295 fanout33
*3296 fanout34
*3297 fanout35
*3298 fanout36
*3299 fanout37
*3300 fanout38
*3301 fanout39
*3302 fanout40
*3303 fanout41
*3304 fanout42
*3305 fanout43
*3306 fanout44
*3307 fanout45
*3308 fanout46
*3309 fanout47
*3310 fanout48
*3311 fanout49
*3312 fanout50
*3313 fanout64
*3314 fanout65
*3315 fanout66
*3316 fanout68
*3317 fanout69
*3318 fanout70
*3319 fanout71
*3320 fanout72
*3321 fanout73
*3322 fanout74
*3323 fanout75
*3324 fanout76
*3325 fanout77
*3326 fanout78
*3327 fanout79
*3328 fanout80
*3329 fanout81
*3330 fanout82
*3331 fanout83
*3332 fanout84
*3333 frequency_counter
*3334 input1
*3335 input10
*3336 input11
*3337 input12
*3338 input13
*3339 input14
*3340 input15
*3341 input16
*3342 input17
*3343 input18
*3344 input19
*3345 input2
*3346 input20
*3347 input21
*3348 input3
*3349 input4
*3350 input5
*3351 input6
*3352 input7
*3353 input8
*3354 input9
*3355 max_cap51
*3356 max_cap52
*3357 max_cap54
*3358 max_cap55
*3359 max_cap57
*3360 max_cap58
*3361 max_cap59
*3362 max_cap61
*3363 max_cap63
*3364 max_cap67
*3365 output22
*3366 output23
*3367 output24
*3368 output25
*3369 output26
*3370 output27
*3371 output28
*3372 output29
*3373 output30
*3374 output31
*3375 output32
*3376 wire53
*3377 wire56
*3378 wire60
*3379 wire62

*PORTS
ACK_O O
ADDR_I[0] I
ADDR_I[1] I
ADDR_I[2] I
ADDR_I[3] I
ADDR_I[4] I
ADDR_I[5] I
ADDR_I[6] I
ADDR_I[7] I
CLK_I I
CYC_I I
DAT_I[0] I
DAT_I[1] I
DAT_I[2] I
DAT_I[3] I
DAT_I[4] I
DAT_I[5] I
DAT_I[6] I
DAT_I[7] I
DAT_O[0] O
DAT_O[1] O
DAT_O[2] O
DAT_O[3] O
DAT_O[4] O
DAT_O[5] O
DAT_O[6] O
DAT_O[7] O
ERR_O O
RST_I I
RTY_O O
STB_I I
WE_I I
ext_rst_i I
signal_input I
trigger_signal_out O

*D_NET *1 0.00250148
*CONN
*P ACK_O O
*I *3365:Z O *D gf180mcu_fd_sc_mcu7t5v0__dlyb_1
*CAP
1 ACK_O 0.000727174
2 *3365:Z 0.000727174
3 ACK_O ERR_O 0.000942648
4 ACK_O *2922:A2 1.5015e-05
5 ACK_O *3374:I 8.94741e-05
*RES
1 *3365:Z ACK_O 11.7458 
*END

*D_NET *2 0.00226385
*CONN
*P ADDR_I[0] I
*I *3334:I I *D gf180mcu_fd_sc_mcu7t5v0__dlyb_1
*CAP
1 ADDR_I[0] 0.000330412
2 *3334:I 0.000330412
3 *3334:I *2507:A4 0.000142209
4 *3334:I *3345:I 0.000549504
5 *3334:I *3346:I 0.00053396
6 *3334:I *3348:I 0.000175994
7 *3334:I *768:12 5.91499e-05
8 *3334:I *768:19 0.000142209
*RES
1 ADDR_I[0] *3334:I 14.282 
*END

*D_NET *3 0.00237878
*CONN
*P ADDR_I[1] I
*I *3345:I I *D gf180mcu_fd_sc_mcu7t5v0__dlyb_1
*CAP
1 ADDR_I[1] 0.000297118
2 *3345:I 0.000297118
3 *3345:I *3346:I 0.000626396
4 *3345:I *3348:I 0.000556338
5 *3345:I *3350:I 4.24164e-05
6 *3345:I *3352:I 9.88736e-06
7 *3334:I *3345:I 0.000549504
*RES
1 ADDR_I[1] *3345:I 13.978 
*END

*D_NET *4 0.00289246
*CONN
*P ADDR_I[2] I
*I *3348:I I *D gf180mcu_fd_sc_mcu7t5v0__dlyb_1
*CAP
1 ADDR_I[2] 0.000389338
2 *3348:I 0.000389338
3 *3348:I *2507:A4 0.000441063
4 *3348:I *2970:A3 6.17803e-05
5 *3348:I *3350:I 0.000479651
6 *3348:I *3352:I 8.59272e-06
7 *3348:I *3353:I 1.10835e-05
8 *3348:I *768:19 0.000379283
9 *3334:I *3348:I 0.000175994
10 *3345:I *3348:I 0.000556338
*RES
1 ADDR_I[2] *3348:I 15.042 
*END

*D_NET *5 0.00161378
*CONN
*P ADDR_I[3] I
*I *3349:I I *D gf180mcu_fd_sc_mcu7t5v0__dlyb_1
*CAP
1 ADDR_I[3] 0.000471943
2 *3349:I 0.000471943
3 *3349:I *2506:A3 0
4 *3349:I *3351:I 0.000511573
5 *3349:I *3353:I 0.000158315
*RES
1 ADDR_I[3] *3349:I 13.37 
*END

*D_NET *6 0.00180208
*CONN
*P ADDR_I[4] I
*I *3350:I I *D gf180mcu_fd_sc_mcu7t5v0__dlyb_1
*CAP
1 ADDR_I[4] 0.000261927
2 *3350:I 0.000261927
3 *3350:I *3346:I 3.73535e-05
4 *3350:I *3352:I 0.000718806
5 *3345:I *3350:I 4.24164e-05
6 *3348:I *3350:I 0.000479651
*RES
1 ADDR_I[4] *3350:I 12.99 
*END

*D_NET *7 0.0011485
*CONN
*P ADDR_I[5] I
*I *3351:I I *D gf180mcu_fd_sc_mcu7t5v0__dlyb_1
*CAP
1 ADDR_I[5] 4.04188e-05
2 *3351:I 4.04188e-05
3 *3351:I *3353:I 0.000556084
4 *3349:I *3351:I 0.000511573
*RES
1 ADDR_I[5] *3351:I 11.698 
*END

*D_NET *8 0.0016067
*CONN
*P ADDR_I[6] I
*I *3352:I I *D gf180mcu_fd_sc_mcu7t5v0__dlyb_1
*CAP
1 ADDR_I[6] 0.00017892
2 *3352:I 0.00017892
3 *3352:I *2506:A3 0
4 *3352:I *3353:I 0.000511573
5 *3345:I *3352:I 9.88736e-06
6 *3348:I *3352:I 8.59272e-06
7 *3350:I *3352:I 0.000718806
*RES
1 ADDR_I[6] *3352:I 12.458 
*END

*D_NET *9 0.0016173
*CONN
*P ADDR_I[7] I
*I *3353:I I *D gf180mcu_fd_sc_mcu7t5v0__dlyb_1
*CAP
1 ADDR_I[7] 0.000177251
2 *3353:I 0.000177251
3 *3353:I *2506:A3 2.57365e-05
4 *3348:I *3353:I 1.10835e-05
5 *3349:I *3353:I 0.000158315
6 *3351:I *3353:I 0.000556084
7 *3352:I *3353:I 0.000511573
*RES
1 ADDR_I[7] *3353:I 12.762 
*END

*D_NET *10 0.0204563
*CONN
*P CLK_I I
*I *3275:I I *D gf180mcu_fd_sc_mcu7t5v0__clkbuf_16
*CAP
1 CLK_I 0.00425042
2 *3275:I 0.00285391
3 *10:16 0.00710434
4 *3275:I *2546:A2 1.52691e-05
5 *3275:I *2637:A1 0.000415258
6 *3275:I *2639:A2 0.000141778
7 *3275:I *2640:A1 0.000239276
8 *3275:I *2641:A1 0.000646145
9 *3275:I *2641:A2 1.53727e-05
10 *3275:I *2641:B 1.67041e-05
11 *3275:I *2641:C 2.25184e-05
12 *3275:I *2644:A3 6.1992e-06
13 *3275:I *2831:A3 0
14 *3275:I *2907:B2 0.000124491
15 *3275:I *2913:A1 3.5531e-06
16 *3275:I *2913:A2 0.000100299
17 *3275:I *2913:B 0
18 *3275:I *2984:A1 2.23385e-05
19 *3275:I *2988:A1 2.57505e-05
20 *3275:I *3007:C2 3.05262e-05
21 *3275:I *3042:A1 0.000214683
22 *3275:I *3221:CLK 1.95187e-05
23 *3275:I *3247:CLK 0
24 *3275:I *221:59 0.000189147
25 *3275:I *758:8 0
26 *3275:I *766:22 0.000141897
27 *3275:I *766:28 4.72461e-05
28 *3275:I *799:27 0.000468261
29 *3275:I *799:38 6.10581e-05
30 *3275:I *879:27 1.76272e-05
31 *3275:I *879:37 9.48587e-05
32 *3275:I *904:8 1.21002e-05
33 *3275:I *905:8 5.14849e-05
34 *10:16 *2876:B2 0
35 *10:16 *2878:A1 3.2964e-05
36 *10:16 *2878:A2 3.64733e-05
37 *10:16 *2880:A2 0
38 *10:16 *2881:B 0.000399453
39 *10:16 *2882:A1 0
40 *10:16 *2882:A2 0.000284188
41 *10:16 *2895:A2 0
42 *10:16 *2896:A2 0.000193533
43 *10:16 *2905:A1 0.000307597
44 *10:16 *2907:B2 6.69811e-05
45 *10:16 *2908:A1 5.97012e-05
46 *10:16 *2908:A2 2.62421e-05
47 *10:16 *2910:A4 7.12079e-05
48 *10:16 *3214:D 0
49 *10:16 *3297:I 6.10752e-05
50 *10:16 *495:21 0.00018365
51 *10:16 *506:10 0
52 *10:16 *506:21 0
53 *10:16 *513:32 1.12495e-05
54 *10:16 *516:10 8.83672e-06
55 *10:16 *750:106 0
56 *10:16 *751:75 3.73535e-05
57 *10:16 *751:83 7.21887e-05
58 *10:16 *753:43 0.000116842
59 *10:16 *789:18 2.34796e-05
60 *10:16 *789:22 2.65777e-05
61 *10:16 *789:24 0.000542287
62 *10:16 *789:26 0.000281631
63 *10:16 *879:10 0.000228407
64 *10:16 *879:25 3.23343e-05
65 *10:16 *896:14 0
*RES
1 CLK_I *10:16 47.282 
2 *10:16 *3275:I 35.92 
*END

*D_NET *11 0.00322537
*CONN
*P CYC_I I
*I *3354:I I *D gf180mcu_fd_sc_mcu7t5v0__dlyb_1
*CAP
1 CYC_I 0.000725521
2 *3354:I 0.000725521
3 *3354:I *3326:I 3.26422e-05
4 *3354:I *3340:I 0
5 *3354:I *3344:I 0.00172075
6 *3354:I *702:10 1.66395e-05
7 *3354:I *769:43 4.29636e-06
8 *3354:I *804:28 0
9 *3354:I *805:22 0
*RES
1 CYC_I *3354:I 16.4738 
*END

*D_NET *12 0.00180457
*CONN
*P DAT_I[0] I
*I *3335:I I *D gf180mcu_fd_sc_mcu7t5v0__dlyb_1
*CAP
1 DAT_I[0] 0.000765175
2 *3335:I 0.000765175
3 *3335:I *3330:I 0
4 *3335:I *3340:I 0.000152104
5 *3335:I *769:43 0.000116355
6 *3335:I *804:28 0
7 *3335:I *805:22 5.76373e-06
*RES
1 DAT_I[0] *3335:I 14.9538 
*END

*D_NET *13 0.00639722
*CONN
*P DAT_I[1] I
*I *3336:I I *D gf180mcu_fd_sc_mcu7t5v0__dlyb_1
*CAP
1 DAT_I[1] 0.00141786
2 *3336:I 0.00141786
3 *3336:I DAT_O[4] 0.000375593
4 *3336:I *3022:A2 1.31444e-05
5 *3336:I *3035:B2 1.53748e-05
6 *3336:I *3036:A1 0.000174655
7 *3336:I *3037:A1 0.00029934
8 *3336:I *3037:A2 0.00143977
9 *3336:I *3085:A2 0.000202887
10 *3336:I *3255:D 2.53641e-05
11 *3336:I *3337:I 0.000109993
12 *3336:I *3338:I 2.68922e-05
13 *3336:I *3372:I 0.000387765
14 *3336:I *562:78 6.33531e-06
15 *3336:I *682:12 0.000160159
16 *3336:I *726:14 0.000324233
*RES
1 DAT_I[1] *3336:I 31.7818 
*END

*D_NET *14 0.00548304
*CONN
*P DAT_I[2] I
*I *3337:I I *D gf180mcu_fd_sc_mcu7t5v0__dlyb_1
*CAP
1 DAT_I[2] 0.00116139
2 *3337:I 0.00116139
3 *3337:I DAT_O[6] 0.000537549
4 *3337:I *2744:A1 3.30251e-05
5 *3337:I *3037:B2 2.20475e-05
6 *3337:I *3038:A1 0
7 *3337:I *3108:A1 9.26628e-05
8 *3337:I *3108:A2 0.000379274
9 *3337:I *3332:I 0.0019155
10 *3337:I *802:8 7.01996e-05
11 *3336:I *3337:I 0.000109993
*RES
1 DAT_I[2] *3337:I 20.4258 
*END

*D_NET *15 0.00667935
*CONN
*P DAT_I[3] I
*I *3338:I I *D gf180mcu_fd_sc_mcu7t5v0__dlyb_1
*CAP
1 DAT_I[3] 0.00105292
2 *3338:I 0.00105292
3 *3338:I *2479:I 0.00112593
4 *3338:I *2750:A1 0.00138245
5 *3338:I *3107:A1 0.00146705
6 *3338:I *3107:A2 2.97126e-05
7 *3338:I *682:97 4.43636e-05
8 *3338:I *682:112 8.38532e-05
9 *3338:I *727:10 0.000402474
10 *3338:I *769:43 1.07713e-05
11 *3336:I *3338:I 2.68922e-05
*RES
1 DAT_I[3] *3338:I 22.0734 
*END

*D_NET *16 0.00194375
*CONN
*P DAT_I[4] I
*I *3339:I I *D gf180mcu_fd_sc_mcu7t5v0__dlyb_1
*CAP
1 DAT_I[4] 0.000328095
2 *3339:I 0.000328095
3 *3339:I DAT_O[0] 0.000857048
4 *3339:I DAT_O[5] 7.46669e-05
5 *3339:I *2990:A2 3.63334e-05
6 *3339:I *3029:A2 6.04444e-06
7 *3339:I *3341:I 0.000313466
*RES
1 DAT_I[4] *3339:I 13.7378 
*END

*D_NET *17 0.00235099
*CONN
*P DAT_I[5] I
*I *3340:I I *D gf180mcu_fd_sc_mcu7t5v0__dlyb_1
*CAP
1 DAT_I[5] 0.000535853
2 *3340:I 0.000535853
3 *3340:I *2526:A1 0
4 *3340:I *3330:I 2.6126e-05
5 *3340:I *230:14 2.17248e-05
6 *3340:I *804:8 0
7 *3340:I *804:28 0.000517091
8 *3340:I *805:22 0.000562242
9 *3335:I *3340:I 0.000152104
10 *3354:I *3340:I 0
*RES
1 DAT_I[5] *3340:I 14.4978 
*END

*D_NET *18 0.00503621
*CONN
*P DAT_I[6] I
*I *3341:I I *D gf180mcu_fd_sc_mcu7t5v0__dlyb_1
*CAP
1 DAT_I[6] 0.000849445
2 *3341:I 0.000849445
3 *3341:I DAT_O[5] 0.00068083
4 *3341:I DAT_O[6] 1.91917e-06
5 *3341:I *2990:A2 0.000317381
6 *3341:I *3029:A1 1.11891e-05
7 *3341:I *3029:A2 0.000187262
8 *3341:I *3029:B1 0.000131143
9 *3341:I *3030:A2 3.54426e-05
10 *3341:I *3035:B2 0.000246965
11 *3341:I *3037:B2 0.000123951
12 *3341:I *3371:I 6.46704e-05
13 *3341:I *745:14 0.00089474
14 *3341:I *769:43 0
15 *3341:I *813:10 0.000328367
16 *3339:I *3341:I 0.000313466
*RES
1 DAT_I[6] *3341:I 19.0578 
*END

*D_NET *19 0.00455663
*CONN
*P DAT_I[7] I
*I *3342:I I *D gf180mcu_fd_sc_mcu7t5v0__dlyb_1
*CAP
1 DAT_I[7] 0.00117339
2 *3342:I 0.00117339
3 *3342:I DAT_O[0] 0.000178552
4 *3342:I DAT_O[6] 0
5 *3342:I *3037:B1 0
6 *3342:I *3100:B 1.48976e-05
7 *3342:I *3278:I 0.000102007
8 *3342:I *729:10 0.00138671
9 *3342:I *731:10 8.59687e-05
10 *3342:I *731:12 0.000113507
11 *3342:I *745:14 0.000328204
*RES
1 DAT_I[7] *3342:I 19.2098 
*END

*D_NET *20 0.00482738
*CONN
*P DAT_O[0] O
*I *3366:Z O *D gf180mcu_fd_sc_mcu7t5v0__dlyb_1
*CAP
1 DAT_O[0] 0.000916703
2 *3366:Z 0.000916703
3 DAT_O[0] *2756:A1 0
4 DAT_O[0] *3029:A2 2.43497e-05
5 DAT_O[0] *3029:B1 0.000313342
6 DAT_O[0] *3096:A2 0.000131801
7 DAT_O[0] *3097:A2 7.45328e-07
8 DAT_O[0] *3366:I 7.79823e-05
9 DAT_O[0] *731:10 0.000651592
10 DAT_O[0] *731:12 0.000758565
11 DAT_O[0] *819:24 0
12 *3339:I DAT_O[0] 0.000857048
13 *3342:I DAT_O[0] 0.000178552
*RES
1 *3366:Z DAT_O[0] 19.3618 
*END

*D_NET *21 0.00162919
*CONN
*P DAT_O[1] O
*I *3367:Z O *D gf180mcu_fd_sc_mcu7t5v0__dlyb_1
*CAP
1 DAT_O[1] 0.000563689
2 *3367:Z 0.000563689
3 DAT_O[1] DAT_O[7] 0.000501816
4 DAT_O[1] *3367:I 0
*RES
1 *3367:Z DAT_O[1] 9.63 
*END

*D_NET *22 0.00246006
*CONN
*P DAT_O[2] O
*I *3368:Z O *D gf180mcu_fd_sc_mcu7t5v0__dlyb_1
*CAP
1 DAT_O[2] 0.000281146
2 *3368:Z 0.000281146
3 DAT_O[2] DAT_O[3] 0.00134188
4 DAT_O[2] *3347:I 0.000555888
*RES
1 *3368:Z DAT_O[2] 10.162 
*END

*D_NET *23 0.00289689
*CONN
*P DAT_O[3] O
*I *3369:Z O *D gf180mcu_fd_sc_mcu7t5v0__dlyb_1
*CAP
1 DAT_O[3] 0.000777503
2 *3369:Z 0.000777503
3 DAT_O[3] *2785:A2 0
4 DAT_O[3] *3368:I 0
5 DAT_O[3] *3369:I 0
6 DAT_O[2] DAT_O[3] 0.00134188
*RES
1 *3369:Z DAT_O[3] 12.062 
*END

*D_NET *24 0.00445571
*CONN
*P DAT_O[4] O
*I *3370:Z O *D gf180mcu_fd_sc_mcu7t5v0__dlyb_1
*CAP
1 DAT_O[4] 0.000899266
2 *3370:Z 0.000899266
3 DAT_O[4] DAT_O[6] 0.000119048
4 DAT_O[4] *2750:A1 0.000727579
5 DAT_O[4] *3035:B2 0.000301655
6 DAT_O[4] *3037:A1 9.51353e-05
7 DAT_O[4] *3037:B1 3.96688e-05
8 DAT_O[4] *3372:I 0.000109817
9 DAT_O[4] *698:6 5.76373e-06
10 DAT_O[4] *731:10 0.000286609
11 DAT_O[4] *743:10 0.000431543
12 DAT_O[4] *806:8 1.02578e-05
13 DAT_O[4] *806:45 0.000154507
14 *3336:I DAT_O[4] 0.000375593
*RES
1 *3370:Z DAT_O[4] 19.2858 
*END

*D_NET *25 0.00351966
*CONN
*P DAT_O[5] O
*I *3371:Z O *D gf180mcu_fd_sc_mcu7t5v0__dlyb_1
*CAP
1 DAT_O[5] 0.000835828
2 *3371:Z 0.000835828
3 DAT_O[5] DAT_O[6] 2.74753e-05
4 DAT_O[5] *2990:A2 6.5393e-05
5 DAT_O[5] *3029:A2 0.000122898
6 DAT_O[5] *3030:A2 0.000333388
7 DAT_O[5] *3037:B1 0.000147305
8 DAT_O[5] *3239:D 1.76797e-05
9 DAT_O[5] *3245:D 1.56182e-05
10 DAT_O[5] *3245:CLK 0
11 DAT_O[5] *683:87 0.000110986
12 DAT_O[5] *683:89 0
13 DAT_O[5] *745:14 0.000251762
14 *3339:I DAT_O[5] 7.46669e-05
15 *3341:I DAT_O[5] 0.00068083
*RES
1 *3371:Z DAT_O[5] 17.5378 
*END

*D_NET *26 0.00617433
*CONN
*P DAT_O[6] O
*I *3372:Z O *D gf180mcu_fd_sc_mcu7t5v0__dlyb_1
*CAP
1 DAT_O[6] 0.00146603
2 *3372:Z 0.00146603
3 DAT_O[6] *2744:A1 0
4 DAT_O[6] *3022:A1 0.000151876
5 DAT_O[6] *3037:B1 0.000486949
6 DAT_O[6] *3037:B2 0.000203286
7 DAT_O[6] *3038:A1 2.68958e-05
8 DAT_O[6] *3038:A2 6.85937e-05
9 DAT_O[6] *3108:A1 0.000255722
10 DAT_O[6] *3108:A2 0.000107848
11 DAT_O[6] *3108:C 0.000116995
12 DAT_O[6] *3243:D 0.000138695
13 DAT_O[6] *3245:D 2.9378e-06
14 DAT_O[6] *3266:D 0.000901098
15 DAT_O[6] *802:8 9.53792e-05
16 DAT_O[4] DAT_O[6] 0.000119048
17 DAT_O[5] DAT_O[6] 2.74753e-05
18 *3337:I DAT_O[6] 0.000537549
19 *3341:I DAT_O[6] 1.91917e-06
20 *3342:I DAT_O[6] 0
*RES
1 *3372:Z DAT_O[6] 22.8578 
*END

*D_NET *27 0.00194365
*CONN
*P DAT_O[7] O
*I *3373:Z O *D gf180mcu_fd_sc_mcu7t5v0__dlyb_1
*CAP
1 DAT_O[7] 0.000720918
2 *3373:Z 0.000720918
3 DAT_O[1] DAT_O[7] 0.000501816
*RES
1 *3373:Z DAT_O[7] 10.618 
*END

*D_NET *28 0.00203816
*CONN
*P ERR_O O
*I *3374:Z O *D gf180mcu_fd_sc_mcu7t5v0__dlyb_1
*CAP
1 ERR_O 0.000547755
2 *3374:Z 0.000547755
3 ACK_O ERR_O 0.000942648
*RES
1 *3374:Z ERR_O 10.3018 
*END

*D_NET *29 0.00149154
*CONN
*P RST_I I
*I *3343:I I *D gf180mcu_fd_sc_mcu7t5v0__dlyb_1
*CAP
1 RST_I 0.000493678
2 *3343:I 0.000493678
3 *3343:I *421:23 0.000502835
4 *3343:I *712:10 0
5 *3343:I *714:10 1.34641e-06
*RES
1 RST_I *3343:I 12.8258 
*END

*D_NET *30 0.00306407
*CONN
*P RTY_O O
*I *3333:ZN O *D gf180mcu_fd_sc_mcu7t5v0__tiel
*CAP
1 RTY_O 0.00062344
2 *3333:ZN 0.00062344
3 RTY_O trigger_signal_out 0.00170533
4 RTY_O *3375:I 0.000111858
*RES
1 *3333:ZN RTY_O 15.7898 
*END

*D_NET *31 0.00398684
*CONN
*P STB_I I
*I *3344:I I *D gf180mcu_fd_sc_mcu7t5v0__dlyb_1
*CAP
1 STB_I 0.000886387
2 *3344:I 0.000886387
3 *3344:I *2526:A1 6.06919e-05
4 *3344:I *3035:C1 0
5 *3344:I *3272:D 9.54409e-05
6 *3344:I *3272:CLK 1.53727e-05
7 *3344:I *702:10 0
8 *3344:I *703:12 1.44988e-05
9 *3344:I *703:56 3.52735e-05
10 *3344:I *769:43 5.13352e-06
11 *3344:I *805:22 0.000151303
12 *3344:I *805:43 0.000115603
13 *3354:I *3344:I 0.00172075
*RES
1 STB_I *3344:I 18.4498 
*END

*D_NET *34 0.00216627
*CONN
*P WE_I I
*I *3346:I I *D gf180mcu_fd_sc_mcu7t5v0__dlyb_1
*CAP
1 WE_I 0.000484279
2 *3346:I 0.000484279
3 *3334:I *3346:I 0.00053396
4 *3345:I *3346:I 0.000626396
5 *3350:I *3346:I 3.73535e-05
*RES
1 WE_I *3346:I 13.978 
*END

*D_NET *36 0.00168882
*CONN
*P signal_input I
*I *3347:I I *D gf180mcu_fd_sc_mcu7t5v0__dlyb_1
*CAP
1 signal_input 0.000566467
2 *3347:I 0.000566467
3 DAT_O[2] *3347:I 0.000555888
*RES
1 signal_input *3347:I 9.858 
*END

*D_NET *37 0.00260437
*CONN
*P trigger_signal_out O
*I *3375:Z O *D gf180mcu_fd_sc_mcu7t5v0__dlyb_1
*CAP
1 trigger_signal_out 0.000449521
2 *3375:Z 0.000449521
3 RTY_O trigger_signal_out 0.00170533
*RES
1 *3375:Z trigger_signal_out 14.4978 
*END

*D_NET *38 0.00221783
*CONN
*I *3272:D I *D gf180mcu_fd_sc_mcu7t5v0__dffq_1
*I *2526:ZN O *D gf180mcu_fd_sc_mcu7t5v0__nor2_1
*CAP
1 *3272:D 0.000130714
2 *2526:ZN 0.000130714
3 *3272:D *2510:A1 0.000123951
4 *3272:D *2526:A1 0.000307974
5 *3272:D *703:12 0.000959469
6 *3272:D *805:22 0.000469567
7 *3344:I *3272:D 9.54409e-05
*RES
1 *2526:ZN *3272:D 21.192 
*END

*D_NET *39 0.000839237
*CONN
*I *3273:D I *D gf180mcu_fd_sc_mcu7t5v0__dffq_1
*I *2529:ZN O *D gf180mcu_fd_sc_mcu7t5v0__aoi21_1
*CAP
1 *3273:D 0.000334522
2 *2529:ZN 0.000334522
3 *3273:D *2529:A1 3.38043e-05
4 *3273:D *686:46 0
5 *3273:D *704:29 0.00010635
6 *3273:D *704:65 4.58601e-06
7 *3273:D *804:54 1.16944e-05
8 *3273:D *804:67 1.3758e-05
*RES
1 *2529:ZN *3273:D 11.128 
*END

*D_NET *40 0.0014543
*CONN
*I *3274:D I *D gf180mcu_fd_sc_mcu7t5v0__dffq_1
*I *2532:ZN O *D gf180mcu_fd_sc_mcu7t5v0__nor3_1
*CAP
1 *3274:D 0.000631982
2 *2532:ZN 0.000631982
3 *3274:D *2991:B2 4.6818e-05
4 *3274:D *2993:A2 9.67063e-05
5 *3274:D *3017:A1 3.5621e-05
6 *3274:D *3017:A2 0
7 *3274:D *736:22 1.11891e-05
*RES
1 *2532:ZN *3274:D 21.8 
*END

*D_NET *41 0.00169064
*CONN
*I *3117:D I *D gf180mcu_fd_sc_mcu7t5v0__dffq_1
*I *2535:ZN O *D gf180mcu_fd_sc_mcu7t5v0__nor3_1
*CAP
1 *3117:D 0.000379295
2 *2535:ZN 0.000379295
3 *3117:D *2535:A1 4.10312e-05
4 *3117:D *2535:A3 0.000345016
5 *3117:D *2538:A2 1.5015e-05
6 *3117:D *3016:A1 8.84331e-05
7 *3117:D *3016:B2 0.000248979
8 *3117:D *3017:A2 0
9 *3117:D *3118:D 6.63909e-05
10 *3117:D *762:14 0
11 *3117:D *776:42 0.000104132
12 *3117:D *777:48 2.30549e-05
*RES
1 *2535:ZN *3117:D 21.8 
*END

*D_NET *42 0.00108243
*CONN
*I *3118:D I *D gf180mcu_fd_sc_mcu7t5v0__dffq_1
*I *2538:ZN O *D gf180mcu_fd_sc_mcu7t5v0__nor3_1
*CAP
1 *3118:D 0.000171577
2 *2538:ZN 0.000171577
3 *3118:D *2535:A1 0.000368152
4 *3118:D *776:42 0.00030473
5 *3117:D *3118:D 6.63909e-05
*RES
1 *2538:ZN *3118:D 11.128 
*END

*D_NET *43 0.00116218
*CONN
*I *3119:D I *D gf180mcu_fd_sc_mcu7t5v0__dffq_1
*I *2541:ZN O *D gf180mcu_fd_sc_mcu7t5v0__nor3_1
*CAP
1 *3119:D 0.000161801
2 *2541:ZN 0.000161801
3 *3119:D *2991:B2 0.00065471
4 *3119:D *786:20 0.000183873
*RES
1 *2541:ZN *3119:D 11.128 
*END

*D_NET *44 0.000472458
*CONN
*I *3120:D I *D gf180mcu_fd_sc_mcu7t5v0__dffq_1
*I *2544:ZN O *D gf180mcu_fd_sc_mcu7t5v0__nor3_1
*CAP
1 *3120:D 0.000131374
2 *2544:ZN 0.000131374
3 *3120:D *2544:A1 7.71175e-06
4 *3120:D *3024:B2 0.000110823
5 *3120:D *341:25 9.11742e-05
*RES
1 *2544:ZN *3120:D 10.216 
*END

*D_NET *45 0.000689713
*CONN
*I *3121:D I *D gf180mcu_fd_sc_mcu7t5v0__dffq_1
*I *2547:ZN O *D gf180mcu_fd_sc_mcu7t5v0__nor3_1
*CAP
1 *3121:D 0.000216995
2 *2547:ZN 0.000216995
3 *3121:D *2547:A1 0.000255722
*RES
1 *2547:ZN *3121:D 10.672 
*END

*D_NET *46 0.000498832
*CONN
*I *3122:D I *D gf180mcu_fd_sc_mcu7t5v0__dffq_1
*I *2549:ZN O *D gf180mcu_fd_sc_mcu7t5v0__aoi211_1
*CAP
1 *3122:D 0.000193758
2 *2549:ZN 0.000193758
3 *3122:D *2549:B 5.3266e-05
4 *3122:D *3126:CLK 5.29084e-05
5 *3122:D *795:14 5.14116e-06
*RES
1 *2549:ZN *3122:D 10.52 
*END

*D_NET *47 0.000657283
*CONN
*I *3123:D I *D gf180mcu_fd_sc_mcu7t5v0__dffq_1
*I *2551:ZN O *D gf180mcu_fd_sc_mcu7t5v0__aoi211_1
*CAP
1 *3123:D 0.000180412
2 *2551:ZN 0.000180412
3 *3123:D *2551:B 1.76898e-05
4 *3123:D *2982:B2 0
5 *3123:D *3041:A2 5.12234e-05
6 *3123:D *3041:B2 7.45328e-07
7 *3123:D *3126:CLK 0.00018402
8 *3123:D *795:8 4.27813e-05
*RES
1 *2551:ZN *3123:D 10.824 
*END

*D_NET *48 0.000463178
*CONN
*I *3124:D I *D gf180mcu_fd_sc_mcu7t5v0__dffq_1
*I *2554:ZN O *D gf180mcu_fd_sc_mcu7t5v0__nor3_1
*CAP
1 *3124:D 0.000100159
2 *2554:ZN 0.000100159
3 *3124:D *2554:A1 0.00026286
*RES
1 *2554:ZN *3124:D 9.912 
*END

*D_NET *49 0.00054442
*CONN
*I *3125:D I *D gf180mcu_fd_sc_mcu7t5v0__dffq_1
*I *2557:ZN O *D gf180mcu_fd_sc_mcu7t5v0__nor3_1
*CAP
1 *3125:D 0.000224565
2 *2557:ZN 0.000224565
3 *3125:D *2556:A2 2.17248e-05
4 *3125:D *2560:A1 2.22758e-05
5 *3125:D *689:43 0
6 *3125:D *797:72 5.1289e-05
*RES
1 *2557:ZN *3125:D 10.52 
*END

*D_NET *50 0.000381271
*CONN
*I *3126:D I *D gf180mcu_fd_sc_mcu7t5v0__dffq_1
*I *2560:ZN O *D gf180mcu_fd_sc_mcu7t5v0__nor3_1
*CAP
1 *3126:D 9.21999e-05
2 *2560:ZN 9.21999e-05
3 *3126:D *2560:A3 0.000126873
4 *3126:D *689:43 4.38725e-05
5 *3126:D *761:52 2.6126e-05
*RES
1 *2560:ZN *3126:D 9.912 
*END

*D_NET *51 0.000738218
*CONN
*I *3127:D I *D gf180mcu_fd_sc_mcu7t5v0__dffq_1
*I *2563:ZN O *D gf180mcu_fd_sc_mcu7t5v0__nor3_1
*CAP
1 *3127:D 0.00024794
2 *2563:ZN 0.00024794
3 *3127:D *2566:A2 7.15735e-05
4 *3127:D *2569:A3 0.000105042
5 *3127:D *3129:D 0
6 *3127:D *795:33 6.57222e-05
7 *3127:D *795:46 0
*RES
1 *2563:ZN *3127:D 19.976 
*END

*D_NET *52 0.000519331
*CONN
*I *3128:D I *D gf180mcu_fd_sc_mcu7t5v0__dffq_1
*I *2566:ZN O *D gf180mcu_fd_sc_mcu7t5v0__nor3_1
*CAP
1 *3128:D 0.000172893
2 *2566:ZN 0.000172893
3 *3128:D *2566:A2 3.89091e-05
4 *3128:D *915:8 0.000134636
*RES
1 *2566:ZN *3128:D 10.216 
*END

*D_NET *53 0.00165431
*CONN
*I *3129:D I *D gf180mcu_fd_sc_mcu7t5v0__dffq_1
*I *2569:ZN O *D gf180mcu_fd_sc_mcu7t5v0__nor3_1
*CAP
1 *3129:D 0.000415388
2 *2569:ZN 0.000415388
3 *3129:D *2569:A3 2.57835e-05
4 *3129:D *681:6 0.000386421
5 *3129:D *681:12 0.000258197
6 *3129:D *755:55 0
7 *3129:D *760:20 0
8 *3129:D *795:46 0
9 *3129:D *795:50 0.000153137
10 *3127:D *3129:D 0
*RES
1 *2569:ZN *3129:D 21.648 
*END

*D_NET *54 0.00106078
*CONN
*I *3130:D I *D gf180mcu_fd_sc_mcu7t5v0__dffq_1
*I *2572:ZN O *D gf180mcu_fd_sc_mcu7t5v0__nor3_1
*CAP
1 *3130:D 0.000299296
2 *2572:ZN 0.000299296
3 *3130:D *2572:A1 4.50449e-05
4 *3130:D *2572:A2 3.08902e-05
5 *3130:D *2572:A3 5.05417e-05
6 *3130:D *2593:A1 0.00019344
7 *3130:D *2593:A3 7.71175e-06
8 *3130:D *3130:CLK 1.82069e-05
9 *3130:D *854:10 0.000116355
*RES
1 *2572:ZN *3130:D 11.812 
*END

*D_NET *55 0.000824952
*CONN
*I *3131:D I *D gf180mcu_fd_sc_mcu7t5v0__dffq_1
*I *2575:ZN O *D gf180mcu_fd_sc_mcu7t5v0__nor3_1
*CAP
1 *3131:D 0.000143761
2 *2575:ZN 0.000143761
3 *3131:D *2578:A2 0.000274571
4 *3131:D *755:30 0.00026286
*RES
1 *2575:ZN *3131:D 10.672 
*END

*D_NET *56 0.00151638
*CONN
*I *3132:D I *D gf180mcu_fd_sc_mcu7t5v0__dffq_1
*I *2578:ZN O *D gf180mcu_fd_sc_mcu7t5v0__nor3_1
*CAP
1 *3132:D 0.000243815
2 *2578:ZN 0.000243815
3 *3132:D *2577:A1 0.000197186
4 *3132:D *2577:A2 3.73627e-05
5 *3132:D *2578:A1 0.000149637
6 *3132:D *2578:A3 2.75799e-05
7 *3132:D *2594:A2 5.08971e-06
8 *3132:D *3132:CLK 0.000372371
9 *3132:D *796:40 0.000187268
10 *3132:D *796:51 5.22519e-05
*RES
1 *2578:ZN *3132:D 20.584 
*END

*D_NET *57 0.000616288
*CONN
*I *3133:D I *D gf180mcu_fd_sc_mcu7t5v0__dffq_1
*I *2580:ZN O *D gf180mcu_fd_sc_mcu7t5v0__aoi211_1
*CAP
1 *3133:D 0.000150506
2 *2580:ZN 0.000150506
3 *3133:D *2580:A2 3.551e-05
4 *3133:D *2580:C 4.10312e-05
5 *3133:D *2582:B 0.000130607
6 *3133:D *2992:C2 3.08902e-05
7 *3133:D *691:12 2.57058e-06
8 *3133:D *760:95 7.46669e-05
*RES
1 *2580:ZN *3133:D 10.52 
*END

*D_NET *58 0.000889941
*CONN
*I *3134:D I *D gf180mcu_fd_sc_mcu7t5v0__dffq_1
*I *2582:ZN O *D gf180mcu_fd_sc_mcu7t5v0__aoi211_1
*CAP
1 *3134:D 0.000153808
2 *2582:ZN 0.000153808
3 *3134:D *3136:CLK 5.02064e-05
4 *3134:D *680:171 0.00025281
5 *3134:D *691:12 1.72912e-05
6 *3134:D *691:14 0.000262017
*RES
1 *2582:ZN *3134:D 11.204 
*END

*D_NET *59 0.00053976
*CONN
*I *3135:D I *D gf180mcu_fd_sc_mcu7t5v0__dffq_1
*I *2584:ZN O *D gf180mcu_fd_sc_mcu7t5v0__aoi211_1
*CAP
1 *3135:D 0.000240528
2 *2584:ZN 0.000240528
3 *3135:D *2584:A1 2.96621e-05
4 *3135:D *3132:CLK 2.90426e-05
5 *3135:D *680:171 0
*RES
1 *2584:ZN *3135:D 10.52 
*END

*D_NET *60 0.0021845
*CONN
*I *3136:D I *D gf180mcu_fd_sc_mcu7t5v0__dffq_1
*I *2587:ZN O *D gf180mcu_fd_sc_mcu7t5v0__nor3_1
*CAP
1 *3136:D 0.000250836
2 *2587:ZN 0.000250836
3 *3136:D *2587:A3 8.53993e-05
4 *3136:D *3136:CLK 2.05953e-05
5 *3136:D *3300:I 0.00121129
6 *3136:D *762:35 4.09047e-05
7 *3136:D *796:51 0.00032464
*RES
1 *2587:ZN *3136:D 21.8 
*END

*D_NET *61 0.000295875
*CONN
*I *3137:D I *D gf180mcu_fd_sc_mcu7t5v0__dffq_1
*I *2590:ZN O *D gf180mcu_fd_sc_mcu7t5v0__nor3_1
*CAP
1 *3137:D 6.87648e-05
2 *2590:ZN 6.87648e-05
3 *3137:D *2566:A2 4.7522e-05
4 *3137:D *760:14 0.000110823
*RES
1 *2590:ZN *3137:D 9.684 
*END

*D_NET *62 0.000958971
*CONN
*I *3138:D I *D gf180mcu_fd_sc_mcu7t5v0__dffq_1
*I *2593:ZN O *D gf180mcu_fd_sc_mcu7t5v0__nor3_1
*CAP
1 *3138:D 0.000204359
2 *2593:ZN 0.000204359
3 *3138:D *2578:A2 1.76797e-05
4 *3138:D *2590:A2 0
5 *3138:D *2593:A2 0.000181264
6 *3138:D *2594:A2 0.000292033
7 *3138:D *755:20 5.92756e-05
*RES
1 *2593:ZN *3138:D 19.976 
*END

*D_NET *63 0.000975874
*CONN
*I *3139:D I *D gf180mcu_fd_sc_mcu7t5v0__dffq_1
*I *2596:ZN O *D gf180mcu_fd_sc_mcu7t5v0__nor3_1
*CAP
1 *3139:D 0.000355544
2 *2596:ZN 0.000355544
3 *3139:D *2592:A1 0
4 *3139:D *2596:A3 3.69419e-06
5 *3139:D *3137:CLK 0.000105993
6 *3139:D *681:6 8.18778e-05
7 *3139:D *760:16 0
8 *3139:D *853:8 7.32209e-05
*RES
1 *2596:ZN *3139:D 11.736 
*END

*D_NET *64 0.000406077
*CONN
*I *3140:D I *D gf180mcu_fd_sc_mcu7t5v0__dffq_1
*I *2598:ZN O *D gf180mcu_fd_sc_mcu7t5v0__aoi211_1
*CAP
1 *3140:D 6.74501e-05
2 *2598:ZN 6.74501e-05
3 *3140:D *2566:A1 2.6126e-05
4 *3140:D *3140:CLK 1.54542e-05
5 *3140:D *798:63 0.000229596
*RES
1 *2598:ZN *3140:D 9.684 
*END

*D_NET *65 0.000400611
*CONN
*I *3141:D I *D gf180mcu_fd_sc_mcu7t5v0__dffq_1
*I *2601:ZN O *D gf180mcu_fd_sc_mcu7t5v0__nor3_1
*CAP
1 *3141:D 0.000200305
2 *2601:ZN 0.000200305
3 *3141:D *2601:A3 0
*RES
1 *2601:ZN *3141:D 10.216 
*END

*D_NET *66 0.000385222
*CONN
*I *3142:D I *D gf180mcu_fd_sc_mcu7t5v0__dffq_1
*I *2604:ZN O *D gf180mcu_fd_sc_mcu7t5v0__nor3_1
*CAP
1 *3142:D 0.000115076
2 *2604:ZN 0.000115076
3 *3142:D *2601:A2 4.97153e-05
4 *3142:D *2604:A2 0.000105354
*RES
1 *2604:ZN *3142:D 10.14 
*END

*D_NET *67 0.000979706
*CONN
*I *3143:D I *D gf180mcu_fd_sc_mcu7t5v0__dffq_1
*I *2607:ZN O *D gf180mcu_fd_sc_mcu7t5v0__nor3_1
*CAP
1 *3143:D 0.000117187
2 *2607:ZN 0.000117187
3 *3143:D *2606:A1 0.000255714
4 *3143:D *2607:A3 0.000142176
5 *3143:D *3143:CLK 7.18327e-05
6 *3143:D *763:50 0.000255714
7 *3143:D *798:14 1.98965e-05
*RES
1 *2607:ZN *3143:D 19.672 
*END

*D_NET *68 0.000379581
*CONN
*I *3144:D I *D gf180mcu_fd_sc_mcu7t5v0__dffq_1
*I *2609:ZN O *D gf180mcu_fd_sc_mcu7t5v0__aoi211_1
*CAP
1 *3144:D 0.000115417
2 *2609:ZN 0.000115417
3 *3144:D *3000:C2 9.58397e-05
4 *3144:D *691:6 5.29084e-05
*RES
1 *2609:ZN *3144:D 10.064 
*END

*D_NET *69 0.000505309
*CONN
*I *3145:D I *D gf180mcu_fd_sc_mcu7t5v0__dffq_1
*I *2611:ZN O *D gf180mcu_fd_sc_mcu7t5v0__aoi211_1
*CAP
1 *3145:D 0.00015814
2 *2611:ZN 0.00015814
3 *3145:D *2609:A1 4.71416e-05
4 *3145:D *2611:A1 0
5 *3145:D *3145:CLK 0.000141888
*RES
1 *2611:ZN *3145:D 10.368 
*END

*D_NET *70 0.000668013
*CONN
*I *3146:D I *D gf180mcu_fd_sc_mcu7t5v0__dffq_1
*I *2614:ZN O *D gf180mcu_fd_sc_mcu7t5v0__nor3_1
*CAP
1 *3146:D 0.000100324
2 *2614:ZN 0.000100324
3 *3146:D *2611:A2 0.000136491
4 *3146:D *2614:A2 8.22983e-05
5 *3146:D *2617:A1 0.000248576
*RES
1 *2614:ZN *3146:D 19.368 
*END

*D_NET *71 0.00128432
*CONN
*I *3147:D I *D gf180mcu_fd_sc_mcu7t5v0__dffq_1
*I *2617:ZN O *D gf180mcu_fd_sc_mcu7t5v0__nor3_1
*CAP
1 *3147:D 0.000467879
2 *2617:ZN 0.000467879
3 *3147:D *2613:A1 9.4764e-05
4 *3147:D *2614:A3 1.42418e-05
5 *3147:D *2843:B 7.08883e-05
6 *3147:D *3031:B2 3.07734e-05
7 *3147:D *3151:CLK 1.8346e-05
8 *3147:D *3292:I 0.00011955
*RES
1 *2617:ZN *3147:D 12.496 
*END

*D_NET *72 0.000590182
*CONN
*I *3148:D I *D gf180mcu_fd_sc_mcu7t5v0__dffq_1
*I *2620:ZN O *D gf180mcu_fd_sc_mcu7t5v0__nor3_1
*CAP
1 *3148:D 0.000194048
2 *2620:ZN 0.000194048
3 *3148:D *2598:A1 0
4 *3148:D *2620:A2 4.50449e-05
5 *3148:D *3148:CLK 0
6 *3148:D *3289:I 0.000111867
7 *3148:D *3325:I 4.51731e-05
*RES
1 *2620:ZN *3148:D 10.52 
*END

*D_NET *73 0.00171456
*CONN
*I *3149:D I *D gf180mcu_fd_sc_mcu7t5v0__dffq_1
*I *2623:ZN O *D gf180mcu_fd_sc_mcu7t5v0__nor3_1
*CAP
1 *3149:D 0.000532333
2 *2623:ZN 0.000532333
3 *3149:D *2631:A3 0.000102021
4 *3149:D *3007:B1 8.62813e-05
5 *3149:D *3007:C2 0
6 *3149:D *3025:A1 3.91981e-05
7 *3149:D *765:62 3.91981e-05
8 *3149:D *774:26 0.000317948
9 *3149:D *778:16 1.5961e-05
10 *3149:D *799:85 4.92886e-05
*RES
1 *2623:ZN *3149:D 21.952 
*END

*D_NET *74 0.0019752
*CONN
*I *3150:D I *D gf180mcu_fd_sc_mcu7t5v0__dffq_1
*I *2625:ZN O *D gf180mcu_fd_sc_mcu7t5v0__aoi211_1
*CAP
1 *3150:D 0.000250948
2 *2625:ZN 0.000250948
3 *3150:D *2620:A2 0.00069909
4 *3150:D *2844:A2 0.000298074
5 *3150:D *3143:CLK 0.00013198
6 *3150:D *764:54 0.000344165
*RES
1 *2625:ZN *3150:D 21.8 
*END

*D_NET *75 0.00101907
*CONN
*I *3151:D I *D gf180mcu_fd_sc_mcu7t5v0__dffq_1
*I *2628:ZN O *D gf180mcu_fd_sc_mcu7t5v0__nor3_1
*CAP
1 *3151:D 0.000188683
2 *2628:ZN 0.000188683
3 *3151:D *2627:A2 0
4 *3151:D *2628:A2 0.000162502
5 *3151:D *3031:B2 0.00045128
6 *3151:D *694:39 2.7925e-05
*RES
1 *2628:ZN *3151:D 19.824 
*END

*D_NET *76 0.000290698
*CONN
*I *3152:D I *D gf180mcu_fd_sc_mcu7t5v0__dffq_1
*I *2631:ZN O *D gf180mcu_fd_sc_mcu7t5v0__nor3_1
*CAP
1 *3152:D 0.000104393
2 *2631:ZN 0.000104393
3 *3152:D *2623:A3 0
4 *3152:D *2631:A3 5.09719e-06
5 *3152:D *774:26 5.18759e-05
6 *3152:D *774:41 2.49387e-05
*RES
1 *2631:ZN *3152:D 9.684 
*END

*D_NET *77 0.000326555
*CONN
*I *3153:D I *D gf180mcu_fd_sc_mcu7t5v0__dffq_1
*I *2633:ZN O *D gf180mcu_fd_sc_mcu7t5v0__aoi211_1
*CAP
1 *3153:D 0.000125616
2 *2633:ZN 0.000125616
3 *3153:D *2633:B 7.53241e-05
*RES
1 *2633:ZN *3153:D 9.912 
*END

*D_NET *78 0.00173066
*CONN
*I *3154:D I *D gf180mcu_fd_sc_mcu7t5v0__dffq_1
*I *2636:ZN O *D gf180mcu_fd_sc_mcu7t5v0__nor3_1
*CAP
1 *3154:D 0.000625619
2 *2636:ZN 0.000625619
3 *3154:D *2636:A3 0.000164576
4 *3154:D *2641:A1 0.000255722
5 *3154:D *3154:CLK 1.54542e-05
6 *3154:D *3155:D 0
7 *3154:D *766:12 0
8 *3154:D *799:38 4.36692e-05
*RES
1 *2636:ZN *3154:D 22.56 
*END

*D_NET *79 0.000983272
*CONN
*I *3155:D I *D gf180mcu_fd_sc_mcu7t5v0__dffq_1
*I *2639:ZN O *D gf180mcu_fd_sc_mcu7t5v0__nor3_1
*CAP
1 *3155:D 0.000166462
2 *2639:ZN 0.000166462
3 *3155:D *2641:A1 0.000255722
4 *3155:D *2649:A1 0
5 *3155:D *684:25 0
6 *3155:D *766:12 0.000394625
7 *3154:D *3155:D 0
*RES
1 *2639:ZN *3155:D 19.672 
*END

*D_NET *80 0.00111302
*CONN
*I *3156:D I *D gf180mcu_fd_sc_mcu7t5v0__dffq_1
*I *2641:ZN O *D gf180mcu_fd_sc_mcu7t5v0__aoi211_1
*CAP
1 *3156:D 0.00010187
2 *2641:ZN 0.00010187
3 *3156:D *2641:A1 0.00031512
4 *3156:D *2999:C2 0.000131642
5 *3156:D *3149:CLK 0.000396912
6 *3156:D *680:35 1.18942e-05
7 *3156:D *799:12 5.37083e-05
*RES
1 *2641:ZN *3156:D 19.824 
*END

*D_NET *81 0.000307263
*CONN
*I *3157:D I *D gf180mcu_fd_sc_mcu7t5v0__dffq_1
*I *2644:ZN O *D gf180mcu_fd_sc_mcu7t5v0__nor3_1
*CAP
1 *3157:D 0.000114412
2 *2644:ZN 0.000114412
3 *3157:D *2644:A3 4.52224e-05
4 *3157:D *3007:C2 9.88736e-06
5 *3157:D *803:58 2.333e-05
*RES
1 *2644:ZN *3157:D 9.836 
*END

*D_NET *82 0.000427111
*CONN
*I *3158:D I *D gf180mcu_fd_sc_mcu7t5v0__dffq_1
*I *2647:ZN O *D gf180mcu_fd_sc_mcu7t5v0__nor3_1
*CAP
1 *3158:D 0.000131761
2 *2647:ZN 0.000131761
3 *3158:D *2647:A3 6.77492e-05
4 *3158:D *684:49 9.58397e-05
*RES
1 *2647:ZN *3158:D 10.216 
*END

*D_NET *83 0.00141227
*CONN
*I *3159:D I *D gf180mcu_fd_sc_mcu7t5v0__dffq_1
*I *2650:ZN O *D gf180mcu_fd_sc_mcu7t5v0__nor3_1
*CAP
1 *3159:D 0.000129494
2 *2650:ZN 0.000129494
3 *3159:D *2647:A2 0.000299179
4 *3159:D *3031:C2 0.000164302
5 *3159:D *3040:C2 0.000566901
6 *3159:D *3374:I 0.000122898
*RES
1 *2650:ZN *3159:D 20.28 
*END

*D_NET *84 0.000603196
*CONN
*I *3160:D I *D gf180mcu_fd_sc_mcu7t5v0__dffq_1
*I *2653:ZN O *D gf180mcu_fd_sc_mcu7t5v0__nor3_1
*CAP
1 *3160:D 0.000167979
2 *2653:ZN 0.000167979
3 *3160:D *2653:A2 1.15244e-05
4 *3160:D *469:22 0.000255714
*RES
1 *2653:ZN *3160:D 10.368 
*END

*D_NET *85 0.000745061
*CONN
*I *3161:D I *D gf180mcu_fd_sc_mcu7t5v0__dffq_1
*I *2656:ZN O *D gf180mcu_fd_sc_mcu7t5v0__nor3_1
*CAP
1 *3161:D 0.000297236
2 *2656:ZN 0.000297236
3 *3161:D *2656:A1 8.55242e-05
4 *3161:D *2656:A2 6.50663e-05
5 *3161:D *2659:A1 0
6 *3161:D *804:101 0
*RES
1 *2656:ZN *3161:D 11.128 
*END

*D_NET *86 0.00233476
*CONN
*I *3162:D I *D gf180mcu_fd_sc_mcu7t5v0__dffq_1
*I *2659:ZN O *D gf180mcu_fd_sc_mcu7t5v0__nor3_1
*CAP
1 *3162:D 0.000323369
2 *2659:ZN 0.000323369
3 *3162:D *2659:A1 0.000595303
4 *3162:D *3161:CLK 6.63626e-05
5 *3162:D *3281:I 3.07734e-05
6 *3162:D *687:10 0.000279537
7 *3162:D *804:101 0.000716048
*RES
1 *2659:ZN *3162:D 13.636 
*END

*D_NET *87 0.00132207
*CONN
*I *3163:D I *D gf180mcu_fd_sc_mcu7t5v0__dffq_1
*I *2662:ZN O *D gf180mcu_fd_sc_mcu7t5v0__nor3_1
*CAP
1 *3163:D 0.000266576
2 *2662:ZN 0.000266576
3 *3163:D *2652:A1 0.000256004
4 *3163:D *2662:A3 0.00022273
5 *3163:D *471:20 0.000246194
6 *3163:D *753:21 6.39906e-05
7 *3163:D *759:64 0
*RES
1 *2662:ZN *3163:D 20.888 
*END

*D_NET *88 0.00194213
*CONN
*I *3164:D I *D gf180mcu_fd_sc_mcu7t5v0__dffq_1
*I *2668:ZN O *D gf180mcu_fd_sc_mcu7t5v0__nor3_1
*CAP
1 *3164:D 0.000183192
2 *2668:ZN 0.000183192
3 *3164:D *3003:C 0
4 *3164:D *3011:C 0.000877667
5 *3164:D *3033:A2 0.000299162
6 *3164:D *3042:A2 0.000299162
7 *3164:D *756:64 2.43212e-05
8 *3164:D *759:34 7.54368e-05
*RES
1 *2668:ZN *3164:D 21.04 
*END

*D_NET *89 0.00137869
*CONN
*I *3165:D I *D gf180mcu_fd_sc_mcu7t5v0__dffq_1
*I *2671:ZN O *D gf180mcu_fd_sc_mcu7t5v0__nor3_1
*CAP
1 *3165:D 0.000234834
2 *2671:ZN 0.000234834
3 *3165:D *2671:A3 0.000620712
4 *3165:D *339:8 8.81033e-05
5 *3165:D *756:64 0.00020021
*RES
1 *2671:ZN *3165:D 11.584 
*END

*D_NET *90 0.000614131
*CONN
*I *3166:D I *D gf180mcu_fd_sc_mcu7t5v0__dffq_1
*I *2674:ZN O *D gf180mcu_fd_sc_mcu7t5v0__nor3_1
*CAP
1 *3166:D 0.000102468
2 *2674:ZN 0.000102468
3 *3166:D *2674:A2 4.49126e-05
4 *3166:D *341:8 2.0344e-05
5 *3166:D *756:64 0.000343939
*RES
1 *2674:ZN *3166:D 10.216 
*END

*D_NET *91 0.00157098
*CONN
*I *3167:D I *D gf180mcu_fd_sc_mcu7t5v0__dffq_1
*I *2677:ZN O *D gf180mcu_fd_sc_mcu7t5v0__nor3_1
*CAP
1 *3167:D 0.00032234
2 *2677:ZN 0.00032234
3 *3167:D *2539:A1 2.52728e-05
4 *3167:D *2542:A1 5.65394e-05
5 *3167:D *2676:A1 0.000379274
6 *3167:D *2676:A2 1.97747e-05
7 *3167:D *2683:A4 0.000166803
8 *3167:D *341:36 8.15645e-05
9 *3167:D *785:26 0.000197071
*RES
1 *2677:ZN *3167:D 29.964 
*END

*D_NET *92 0.000409091
*CONN
*I *3168:D I *D gf180mcu_fd_sc_mcu7t5v0__dffq_1
*I *2680:ZN O *D gf180mcu_fd_sc_mcu7t5v0__clkinv_1
*CAP
1 *3168:D 4.1892e-05
2 *2680:ZN 4.1892e-05
3 *3168:D *2680:I 0.000253072
4 *3168:D *3373:I 7.22348e-05
*RES
1 *2680:ZN *3168:D 9.684 
*END

*D_NET *93 0.00271009
*CONN
*I *3169:D I *D gf180mcu_fd_sc_mcu7t5v0__dffq_1
*I *2684:ZN O *D gf180mcu_fd_sc_mcu7t5v0__nor3_1
*CAP
1 *3169:D 0.00061775
2 *2684:ZN 0.00061775
3 *3169:D *2497:I 0.000193942
4 *3169:D *2679:A2 2.16288e-06
5 *3169:D *2680:I 0
6 *3169:D *2684:A2 0.000156561
7 *3169:D *2685:A1 8.55242e-05
8 *3169:D *2687:A2 0
9 *3169:D *842:12 7.71643e-05
10 *3169:D *843:12 0.000387765
11 *3169:D *844:12 0.000571475
*RES
1 *2684:ZN *3169:D 24.08 
*END

*D_NET *94 0.00130339
*CONN
*I *3170:D I *D gf180mcu_fd_sc_mcu7t5v0__dffq_1
*I *2687:ZN O *D gf180mcu_fd_sc_mcu7t5v0__nor3_1
*CAP
1 *3170:D 0.000206035
2 *2687:ZN 0.000206035
3 *3170:D *2685:A1 6.12935e-05
4 *3170:D *2685:A2 0
5 *3170:D *2687:A1 0.000557478
6 *3170:D *2687:A2 0
7 *3170:D *785:38 2.69281e-06
8 *3170:D *785:49 0.000269857
*RES
1 *2687:ZN *3170:D 20.28 
*END

*D_NET *95 0.00135359
*CONN
*I *3171:D I *D gf180mcu_fd_sc_mcu7t5v0__dffq_1
*I *2690:ZN O *D gf180mcu_fd_sc_mcu7t5v0__nor3_1
*CAP
1 *3171:D 0.000248041
2 *2690:ZN 0.000248041
3 *3171:D *2686:A2 0
4 *3171:D *2689:A3 0.000241525
5 *3171:D *2690:A2 0.000370534
6 *3171:D *2690:A3 0.000206415
7 *3171:D *217:18 3.22317e-05
8 *3171:D *689:57 6.80238e-06
*RES
1 *2690:ZN *3171:D 11.356 
*END

*D_NET *96 0.000449859
*CONN
*I *3172:D I *D gf180mcu_fd_sc_mcu7t5v0__dffq_1
*I *2693:ZN O *D gf180mcu_fd_sc_mcu7t5v0__clkinv_1
*CAP
1 *3172:D 0.000191524
2 *2693:ZN 0.000191524
3 *3172:D *2693:I 4.1381e-05
4 *3172:D *2696:A2 7.24161e-06
5 *3172:D *352:36 1.81888e-05
*RES
1 *2693:ZN *3172:D 10.368 
*END

*D_NET *97 0.00139502
*CONN
*I *3173:D I *D gf180mcu_fd_sc_mcu7t5v0__dffq_1
*I *2696:ZN O *D gf180mcu_fd_sc_mcu7t5v0__nor3_1
*CAP
1 *3173:D 6.30071e-05
2 *2696:ZN 6.30071e-05
3 *3173:D *2693:I 0
4 *3173:D *2694:A1 2.47727e-05
5 *3173:D *2696:A1 0.000372787
6 *3173:D *2696:A3 1.72912e-05
7 *3173:D *3172:CLK 0
8 *3173:D *3174:CLK 0.000418904
9 *3173:D *352:36 2.23477e-05
10 *3173:D *689:59 0.000412903
*RES
1 *2696:ZN *3173:D 20.28 
*END

*D_NET *98 0.000816027
*CONN
*I *3174:D I *D gf180mcu_fd_sc_mcu7t5v0__dffq_1
*I *2700:ZN O *D gf180mcu_fd_sc_mcu7t5v0__nor3_1
*CAP
1 *3174:D 0.000366131
2 *2700:ZN 0.000366131
3 *3174:D *2695:A3 1.57671e-05
4 *3174:D *2700:A2 6.79972e-05
5 *3174:D *846:52 0
*RES
1 *2700:ZN *3174:D 11.128 
*END

*D_NET *99 0.000422944
*CONN
*I *3175:D I *D gf180mcu_fd_sc_mcu7t5v0__dffq_1
*I *2703:ZN O *D gf180mcu_fd_sc_mcu7t5v0__nor3_1
*CAP
1 *3175:D 0.000187928
2 *2703:ZN 0.000187928
3 *3175:D *2703:A2 4.70882e-05
*RES
1 *2703:ZN *3175:D 10.216 
*END

*D_NET *100 0.0012235
*CONN
*I *3176:D I *D gf180mcu_fd_sc_mcu7t5v0__dffq_1
*I *2706:ZN O *D gf180mcu_fd_sc_mcu7t5v0__nor3_1
*CAP
1 *3176:D 0.000186415
2 *2706:ZN 0.000186415
3 *3176:D *363:8 0.000663505
4 *3176:D *365:10 4.32304e-05
5 *3176:D *681:24 0.000100705
6 *3176:D *784:27 4.32304e-05
*RES
1 *2706:ZN *3176:D 20.28 
*END

*D_NET *101 0.000595834
*CONN
*I *3177:D I *D gf180mcu_fd_sc_mcu7t5v0__dffq_1
*I *2709:ZN O *D gf180mcu_fd_sc_mcu7t5v0__nor3_1
*CAP
1 *3177:D 0.00028762
2 *2709:ZN 0.00028762
3 *3177:D *2709:A1 0
4 *3177:D *3177:CLK 2.05953e-05
*RES
1 *2709:ZN *3177:D 10.824 
*END

*D_NET *102 0.000933902
*CONN
*I *3178:D I *D gf180mcu_fd_sc_mcu7t5v0__dffq_1
*I *2712:ZN O *D gf180mcu_fd_sc_mcu7t5v0__nor3_1
*CAP
1 *3178:D 0.000356631
2 *2712:ZN 0.000356631
3 *3178:D *2710:A1 0
4 *3178:D *2712:A2 0
5 *3178:D *2712:A3 0.000200166
6 *3178:D *2714:A2 0
7 *3178:D *2716:A4 1.54542e-05
8 *3178:D *367:6 5.01959e-06
9 *3178:D *829:24 0
*RES
1 *2712:ZN *3178:D 11.432 
*END

*D_NET *103 0.000376388
*CONN
*I *3179:D I *D gf180mcu_fd_sc_mcu7t5v0__dffq_1
*I *2715:ZN O *D gf180mcu_fd_sc_mcu7t5v0__nor3_1
*CAP
1 *3179:D 0.000128609
2 *2715:ZN 0.000128609
3 *3179:D *2715:A3 9.58397e-05
4 *3179:D *681:80 2.333e-05
*RES
1 *2715:ZN *3179:D 10.064 
*END

*D_NET *104 0.000357849
*CONN
*I *3180:D I *D gf180mcu_fd_sc_mcu7t5v0__dffq_1
*I *2719:ZN O *D gf180mcu_fd_sc_mcu7t5v0__clkinv_1
*CAP
1 *3180:D 0.00016983
2 *2719:ZN 0.00016983
3 *3180:D *2718:A2 1.81888e-05
*RES
1 *2719:ZN *3180:D 10.064 
*END

*D_NET *105 0.000580408
*CONN
*I *3181:D I *D gf180mcu_fd_sc_mcu7t5v0__dffq_1
*I *2722:ZN O *D gf180mcu_fd_sc_mcu7t5v0__nor3_1
*CAP
1 *3181:D 0.000247046
2 *2722:ZN 0.000247046
3 *3181:D *2722:A1 8.63166e-05
4 *3181:D *2724:B 0
5 *3181:D *691:40 0
*RES
1 *2722:ZN *3181:D 10.52 
*END

*D_NET *106 0.000798373
*CONN
*I *3182:D I *D gf180mcu_fd_sc_mcu7t5v0__dffq_1
*I *2725:ZN O *D gf180mcu_fd_sc_mcu7t5v0__clkinv_1
*CAP
1 *3182:D 0.000279137
2 *2725:ZN 0.000279137
3 *3182:D *2724:A1 5.54829e-05
4 *3182:D *691:50 3.56825e-05
5 *3182:D *736:22 0.000148933
*RES
1 *2725:ZN *3182:D 20.128 
*END

*D_NET *107 0.000401906
*CONN
*I *3183:D I *D gf180mcu_fd_sc_mcu7t5v0__dffq_1
*I *2728:ZN O *D gf180mcu_fd_sc_mcu7t5v0__nor3_1
*CAP
1 *3183:D 0.000197332
2 *2728:ZN 0.000197332
3 *3183:D *374:14 0
4 *3183:D *784:56 7.24161e-06
*RES
1 *2728:ZN *3183:D 10.216 
*END

*D_NET *108 0.00132179
*CONN
*I *3184:D I *D gf180mcu_fd_sc_mcu7t5v0__dffq_1
*I *2731:ZN O *D gf180mcu_fd_sc_mcu7t5v0__nor3_1
*CAP
1 *3184:D 0.000125018
2 *2731:ZN 0.000125018
3 *3184:D *2731:A2 0.000441055
4 *3184:D *2731:A3 0.000542413
5 *3184:D *382:6 6.22405e-05
6 *3184:D *784:56 2.60491e-05
*RES
1 *2731:ZN *3184:D 11.128 
*END

*D_NET *109 0.00034377
*CONN
*I *3185:D I *D gf180mcu_fd_sc_mcu7t5v0__dffq_1
*I *2734:ZN O *D gf180mcu_fd_sc_mcu7t5v0__nor3_1
*CAP
1 *3185:D 6.32206e-05
2 *2734:ZN 6.32206e-05
3 *3185:D *2734:A2 6.77492e-05
4 *3185:D *3184:CLK 0.000149579
*RES
1 *2734:ZN *3185:D 9.836 
*END

*D_NET *110 0.000464149
*CONN
*I *3186:D I *D gf180mcu_fd_sc_mcu7t5v0__dffq_1
*I *2737:ZN O *D gf180mcu_fd_sc_mcu7t5v0__nor3_1
*CAP
1 *3186:D 0.000177811
2 *2737:ZN 0.000177811
3 *3186:D *2740:A2 7.53241e-05
4 *3186:D *3186:CLK 1.81888e-05
5 *3186:D *688:26 1.5015e-05
*RES
1 *2737:ZN *3186:D 10.368 
*END

*D_NET *111 0.00129101
*CONN
*I *3187:D I *D gf180mcu_fd_sc_mcu7t5v0__dffq_1
*I *2740:ZN O *D gf180mcu_fd_sc_mcu7t5v0__nor3_1
*CAP
1 *3187:D 0.000191011
2 *2740:ZN 0.000191011
3 *3187:D *2738:B 0
4 *3187:D *2740:A1 0.000711617
5 *3187:D *784:56 0.000197374
*RES
1 *2740:ZN *3187:D 11.508 
*END

*D_NET *112 0.000364183
*CONN
*I *3188:D I *D gf180mcu_fd_sc_mcu7t5v0__dffq_1
*I *2770:ZN O *D gf180mcu_fd_sc_mcu7t5v0__nor2_1
*CAP
1 *3188:D 0.00012744
2 *2770:ZN 0.00012744
3 *3188:D *3189:CLK 0
4 *3188:D *695:43 0.000109303
*RES
1 *2770:ZN *3188:D 9.912 
*END

*D_NET *113 0.00030131
*CONN
*I *3189:D I *D gf180mcu_fd_sc_mcu7t5v0__dffq_1
*I *2775:ZN O *D gf180mcu_fd_sc_mcu7t5v0__nor2_1
*CAP
1 *3189:D 7.36702e-05
2 *2775:ZN 7.36702e-05
3 *3189:D *2500:I 4.46661e-05
4 *3189:D *3369:I 0.000109303
*RES
1 *2775:ZN *3189:D 9.684 
*END

*D_NET *114 0.000938493
*CONN
*I *3190:D I *D gf180mcu_fd_sc_mcu7t5v0__dffq_1
*I *2780:ZN O *D gf180mcu_fd_sc_mcu7t5v0__nor3_1
*CAP
1 *3190:D 0.0001988
2 *2780:ZN 0.0001988
3 *3190:D *2772:A1 3.07734e-05
4 *3190:D *2778:A3 0.000173454
5 *3190:D *2778:A4 2.22657e-05
6 *3190:D *2780:A3 7.55562e-05
7 *3190:D *212:23 3.04082e-05
8 *3190:D *414:14 0.000196417
9 *3190:D *715:16 1.2018e-05
*RES
1 *2780:ZN *3190:D 10.976 
*END

*D_NET *115 0.000321216
*CONN
*I *3191:D I *D gf180mcu_fd_sc_mcu7t5v0__dffq_1
*I *2783:ZN O *D gf180mcu_fd_sc_mcu7t5v0__nor3_1
*CAP
1 *3191:D 6.43304e-05
2 *2783:ZN 6.43304e-05
3 *3191:D *2783:A2 5.91685e-05
4 *3191:D *3192:D 0.000107261
5 *3191:D *754:21 2.6126e-05
*RES
1 *2783:ZN *3191:D 9.684 
*END

*D_NET *116 0.00172664
*CONN
*I *3192:D I *D gf180mcu_fd_sc_mcu7t5v0__dffq_1
*I *2786:ZN O *D gf180mcu_fd_sc_mcu7t5v0__nor3_1
*CAP
1 *3192:D 0.000348344
2 *2786:ZN 0.000348344
3 *3192:D *2783:A2 5.76749e-06
4 *3192:D *2789:A3 0.000104721
5 *3192:D *3193:CLK 1.85017e-05
6 *3192:D *422:12 7.71175e-06
7 *3192:D *422:16 0.000369754
8 *3192:D *424:8 0.000305671
9 *3192:D *754:21 0.000110569
10 *3191:D *3192:D 0.000107261
*RES
1 *2786:ZN *3192:D 12.42 
*END

*D_NET *117 0.000808513
*CONN
*I *3193:D I *D gf180mcu_fd_sc_mcu7t5v0__dffq_1
*I *2789:ZN O *D gf180mcu_fd_sc_mcu7t5v0__nor3_1
*CAP
1 *3193:D 0.000370843
2 *2789:ZN 0.000370843
3 *3193:D *2789:A3 6.68265e-05
*RES
1 *2789:ZN *3193:D 19.976 
*END

*D_NET *118 0.00147848
*CONN
*I *3194:D I *D gf180mcu_fd_sc_mcu7t5v0__dffq_1
*I *2792:ZN O *D gf180mcu_fd_sc_mcu7t5v0__nor3_1
*CAP
1 *3194:D 0.000272541
2 *2792:ZN 0.000272541
3 *3194:D *2792:A1 0.000148766
4 *3194:D *2795:A3 0.00011955
5 *3194:D *3195:CLK 7.54771e-06
6 *3194:D *431:15 0
7 *3194:D *718:10 8.61707e-05
8 *3194:D *754:47 0.00026286
9 *3194:D *754:51 0.000308501
*RES
1 *2792:ZN *3194:D 11.736 
*END

*D_NET *119 0.0012042
*CONN
*I *3195:D I *D gf180mcu_fd_sc_mcu7t5v0__dffq_1
*I *2795:ZN O *D gf180mcu_fd_sc_mcu7t5v0__nor3_1
*CAP
1 *3195:D 9.51877e-05
2 *2795:ZN 9.51877e-05
3 *3195:D *2791:A2 8.55327e-05
4 *3195:D *2792:A1 0.000151655
5 *3195:D *2792:A2 9.17802e-05
6 *3195:D *3321:I 0.000657859
7 *3195:D *428:23 2.47642e-05
8 *3195:D *431:15 2.23598e-06
*RES
1 *2795:ZN *3195:D 19.976 
*END

*D_NET *120 0.00154488
*CONN
*I *3196:D I *D gf180mcu_fd_sc_mcu7t5v0__dffq_1
*I *2798:ZN O *D gf180mcu_fd_sc_mcu7t5v0__nor3_1
*CAP
1 *3196:D 0.000167481
2 *2798:ZN 0.000167481
3 *3196:D *2797:A4 0.000416521
4 *3196:D *3321:I 3.25235e-05
5 *3196:D *435:17 0.000119798
6 *3196:D *719:21 0.000478301
7 *3196:D *719:30 5.4634e-05
8 *3196:D *754:97 0.000108142
*RES
1 *2798:ZN *3196:D 20.584 
*END

*D_NET *121 0.00207019
*CONN
*I *3197:D I *D gf180mcu_fd_sc_mcu7t5v0__dffq_1
*I *2801:ZN O *D gf180mcu_fd_sc_mcu7t5v0__nor3_1
*CAP
1 *3197:D 0.000201256
2 *2801:ZN 0.000201256
3 *3197:D *2800:A2 0
4 *3197:D *2801:A1 0.000189632
5 *3197:D *2801:A3 6.69011e-06
6 *3197:D *2806:A1 0
7 *3197:D *2806:A3 9.90914e-05
8 *3197:D *709:20 1.97747e-05
9 *3197:D *721:8 5.05165e-05
10 *3197:D *722:10 0.000247093
11 *3197:D *722:53 0.000272992
12 *3197:D *754:97 7.79953e-05
13 *3197:D *754:112 0.00066408
14 *3197:D *794:25 3.98089e-05
*RES
1 *2801:ZN *3197:D 21.04 
*END

*D_NET *122 0.000372364
*CONN
*I *3198:D I *D gf180mcu_fd_sc_mcu7t5v0__dffq_1
*I *2804:ZN O *D gf180mcu_fd_sc_mcu7t5v0__nor3_1
*CAP
1 *3198:D 0.00013709
2 *2804:ZN 0.00013709
3 *3198:D *2805:A2 7.53241e-05
4 *3198:D *3198:CLK 2.28598e-05
*RES
1 *2804:ZN *3198:D 10.064 
*END

*D_NET *123 0.000797789
*CONN
*I *3199:D I *D gf180mcu_fd_sc_mcu7t5v0__dffq_1
*I *2807:ZN O *D gf180mcu_fd_sc_mcu7t5v0__nor3_1
*CAP
1 *3199:D 0.000139399
2 *2807:ZN 0.000139399
3 *3199:D *2807:A1 0.000105022
4 *3199:D *2807:A3 0.000386421
5 *3199:D *3198:CLK 2.7549e-05
*RES
1 *2807:ZN *3199:D 10.672 
*END

*D_NET *124 0.000779709
*CONN
*I *3200:D I *D gf180mcu_fd_sc_mcu7t5v0__dffq_1
*I *2810:ZN O *D gf180mcu_fd_sc_mcu7t5v0__nor2_1
*CAP
1 *3200:D 0.00019823
2 *2810:ZN 0.00019823
3 *3200:D *2807:A1 3.81109e-05
4 *3200:D *2810:A1 0.000323699
5 *3200:D *442:8 1.76656e-05
6 *3200:D *442:28 3.77294e-06
*RES
1 *2810:ZN *3200:D 10.672 
*END

*D_NET *125 0.000972193
*CONN
*I *3201:D I *D gf180mcu_fd_sc_mcu7t5v0__dffq_1
*I *2812:ZN O *D gf180mcu_fd_sc_mcu7t5v0__aoi211_1
*CAP
1 *3201:D 0.000241368
2 *2812:ZN 0.000241368
3 *3201:D *2807:A1 0.000486519
4 *3201:D *2810:A2 0
5 *3201:D *2812:A2 2.9378e-06
6 *3201:D *442:8 0
*RES
1 *2812:ZN *3201:D 10.748 
*END

*D_NET *126 0.00117377
*CONN
*I *3202:D I *D gf180mcu_fd_sc_mcu7t5v0__dffq_1
*I *2815:ZN O *D gf180mcu_fd_sc_mcu7t5v0__nor3_1
*CAP
1 *3202:D 0.000229175
2 *2815:ZN 0.000229175
3 *3202:D *2811:A1 1.44832e-05
4 *3202:D *2814:A1 0.000203975
5 *3202:D *420:18 0.000255714
6 *3202:D *442:30 0.000131633
7 *3202:D *446:25 0
8 *3202:D *711:21 3.2235e-05
9 *3202:D *711:34 5.26975e-06
10 *3202:D *711:36 4.46796e-05
11 *3202:D *711:50 2.7435e-05
*RES
1 *2815:ZN *3202:D 11.28 
*END

*D_NET *127 0.00171293
*CONN
*I *3203:D I *D gf180mcu_fd_sc_mcu7t5v0__dffq_1
*I *2818:ZN O *D gf180mcu_fd_sc_mcu7t5v0__nor2_1
*CAP
1 *3203:D 0.000378094
2 *2818:ZN 0.000378094
3 *3203:D *2748:A2 1.33547e-05
4 *3203:D *2761:A1 0
5 *3203:D *2761:A3 1.29413e-05
6 *3203:D *2762:A3 1.11891e-05
7 *3203:D *2816:A2 0.000523959
8 *3203:D *2818:A2 3.27593e-05
9 *3203:D *3203:CLK 2.76863e-05
10 *3203:D *447:12 0.000138436
11 *3203:D *806:16 0.000196417
*RES
1 *2818:ZN *3203:D 21.42 
*END

*D_NET *128 0.00206868
*CONN
*I *3204:D I *D gf180mcu_fd_sc_mcu7t5v0__dffq_1
*I *2820:ZN O *D gf180mcu_fd_sc_mcu7t5v0__aoi21_1
*CAP
1 *3204:D 0.000162079
2 *2820:ZN 0.000162079
3 *3204:D *2815:A3 8.94741e-05
4 *3204:D *2820:A1 7.99775e-05
5 *3204:D *2820:A2 0.000849617
6 *3204:D *446:25 0.000725454
*RES
1 *2820:ZN *3204:D 12.268 
*END

*D_NET *129 0.000447587
*CONN
*I *3205:D I *D gf180mcu_fd_sc_mcu7t5v0__dffq_1
*I *2844:ZN O *D gf180mcu_fd_sc_mcu7t5v0__aoi21_1
*CAP
1 *3205:D 0.000203103
2 *2844:ZN 0.000203103
3 *3205:D *2491:I 4.1381e-05
4 *3205:D *763:50 0
*RES
1 *2844:ZN *3205:D 10.368 
*END

*D_NET *130 0.000831414
*CONN
*I *3206:D I *D gf180mcu_fd_sc_mcu7t5v0__dffq_1
*I *2848:ZN O *D gf180mcu_fd_sc_mcu7t5v0__nor2_1
*CAP
1 *3206:D 0.000415707
2 *2848:ZN 0.000415707
*RES
1 *2848:ZN *3206:D 20.584 
*END

*D_NET *131 0.00128849
*CONN
*I *3207:D I *D gf180mcu_fd_sc_mcu7t5v0__dffq_1
*I *2852:ZN O *D gf180mcu_fd_sc_mcu7t5v0__nor2_1
*CAP
1 *3207:D 0.000219562
2 *2852:ZN 0.000219562
3 *3207:D *2848:A1 0.000101612
4 *3207:D *692:12 0.000310758
5 *3207:D *692:18 0.000412903
6 *3207:D *692:38 2.40935e-05
*RES
1 *2852:ZN *3207:D 20.432 
*END

*D_NET *132 0.000366917
*CONN
*I *3208:D I *D gf180mcu_fd_sc_mcu7t5v0__dffq_1
*I *2856:ZN O *D gf180mcu_fd_sc_mcu7t5v0__nor2_1
*CAP
1 *3208:D 0.000106474
2 *2856:ZN 0.000106474
3 *3208:D *2847:B2 0.000109303
4 *3208:D *890:21 4.46661e-05
*RES
1 *2856:ZN *3208:D 9.912 
*END

*D_NET *133 0.00083944
*CONN
*I *3209:D I *D gf180mcu_fd_sc_mcu7t5v0__dffq_1
*I *2860:ZN O *D gf180mcu_fd_sc_mcu7t5v0__nor2_1
*CAP
1 *3209:D 0.000264886
2 *2860:ZN 0.000264886
3 *3209:D *3209:CLK 0.000129114
4 *3209:D *692:38 2.74245e-05
5 *3209:D *692:57 0.00015313
*RES
1 *2860:ZN *3209:D 20.128 
*END

*D_NET *134 0.00108336
*CONN
*I *3210:D I *D gf180mcu_fd_sc_mcu7t5v0__dffq_1
*I *2864:ZN O *D gf180mcu_fd_sc_mcu7t5v0__nor2_1
*CAP
1 *3210:D 0.000406583
2 *2864:ZN 0.000406583
3 *3210:D *2859:A2 2.42105e-05
4 *3210:D *2867:A2 0.00013977
5 *3210:D *752:53 0
6 *3210:D *788:54 1.00155e-05
7 *3210:D *788:56 5.06913e-05
8 *3210:D *891:12 4.55053e-05
*RES
1 *2864:ZN *3210:D 12.04 
*END

*D_NET *135 0.000456508
*CONN
*I *3211:D I *D gf180mcu_fd_sc_mcu7t5v0__dffq_1
*I *2868:ZN O *D gf180mcu_fd_sc_mcu7t5v0__nor2_1
*CAP
1 *3211:D 0.000141123
2 *2868:ZN 0.000141123
3 *3211:D *2868:A1 0.000134033
4 *3211:D *752:34 4.02294e-05
*RES
1 *2868:ZN *3211:D 10.292 
*END

*D_NET *136 0.000330867
*CONN
*I *3212:D I *D gf180mcu_fd_sc_mcu7t5v0__dffq_1
*I *2873:ZN O *D gf180mcu_fd_sc_mcu7t5v0__nor2_1
*CAP
1 *3212:D 0.000102258
2 *2873:ZN 0.000102258
3 *3212:D *2873:A1 1.44832e-05
4 *3212:D *2873:A2 0
5 *3212:D *750:106 0.000111867
*RES
1 *2873:ZN *3212:D 9.836 
*END

*D_NET *137 0.000594772
*CONN
*I *3213:D I *D gf180mcu_fd_sc_mcu7t5v0__dffq_1
*I *2878:ZN O *D gf180mcu_fd_sc_mcu7t5v0__nor2_1
*CAP
1 *3213:D 0.000297386
2 *2878:ZN 0.000297386
3 *3213:D *2878:A2 0
*RES
1 *2878:ZN *3213:D 10.824 
*END

*D_NET *138 0.000877215
*CONN
*I *3214:D I *D gf180mcu_fd_sc_mcu7t5v0__dffq_1
*I *2882:ZN O *D gf180mcu_fd_sc_mcu7t5v0__nor2_1
*CAP
1 *3214:D 9.7387e-05
2 *2882:ZN 9.7387e-05
3 *3214:D *2882:A1 0.000605102
4 *3214:D *2882:A2 5.91499e-05
5 *3214:D *499:6 1.81888e-05
6 *10:16 *3214:D 0
*RES
1 *2882:ZN *3214:D 19.52 
*END

*D_NET *139 0.000432516
*CONN
*I *3215:D I *D gf180mcu_fd_sc_mcu7t5v0__dffq_1
*I *2886:ZN O *D gf180mcu_fd_sc_mcu7t5v0__aoi211_1
*CAP
1 *3215:D 3.90203e-05
2 *2886:ZN 3.90203e-05
3 *3215:D *2844:A2 7.93006e-05
4 *3215:D *2884:A1 2.59625e-05
5 *3215:D *788:30 0.000249213
*RES
1 *2886:ZN *3215:D 9.684 
*END

*D_NET *140 0.00067621
*CONN
*I *3216:D I *D gf180mcu_fd_sc_mcu7t5v0__dffq_1
*I *2892:ZN O *D gf180mcu_fd_sc_mcu7t5v0__nor2_1
*CAP
1 *3216:D 7.2833e-05
2 *2892:ZN 7.2833e-05
3 *3216:D *2891:A2 1.2018e-05
4 *3216:D *2892:A1 0.000377672
5 *3216:D *2892:A2 0.000140853
6 *3216:D *3216:CLK 0
*RES
1 *2892:ZN *3216:D 10.14 
*END

*D_NET *141 0.000596541
*CONN
*I *3217:D I *D gf180mcu_fd_sc_mcu7t5v0__dffq_1
*I *2896:ZN O *D gf180mcu_fd_sc_mcu7t5v0__nor2_1
*CAP
1 *3217:D 0.000178595
2 *2896:ZN 0.000178595
3 *3217:D *2896:A2 0.000127484
4 *3217:D *3217:CLK 0.000111867
*RES
1 *2896:ZN *3217:D 10.52 
*END

*D_NET *142 0.000415995
*CONN
*I *3218:D I *D gf180mcu_fd_sc_mcu7t5v0__dffq_1
*I *2900:ZN O *D gf180mcu_fd_sc_mcu7t5v0__aoi211_1
*CAP
1 *3218:D 7.21445e-05
2 *2900:ZN 7.21445e-05
3 *3218:D *2487:I 0.000215428
4 *3218:D *876:29 2.01323e-05
5 *3218:D *876:31 3.61457e-05
*RES
1 *2900:ZN *3218:D 9.684 
*END

*D_NET *143 0.00081327
*CONN
*I *3219:D I *D gf180mcu_fd_sc_mcu7t5v0__dffq_1
*I *2905:ZN O *D gf180mcu_fd_sc_mcu7t5v0__nor2_1
*CAP
1 *3219:D 0.000303121
2 *2905:ZN 0.000303121
3 *3219:D *2903:B2 7.49285e-05
4 *3219:D *2904:A2 0.0001321
5 *3219:D *3217:CLK 0
*RES
1 *2905:ZN *3219:D 10.9 
*END

*D_NET *144 0.00119663
*CONN
*I *3220:D I *D gf180mcu_fd_sc_mcu7t5v0__dffq_1
*I *2909:ZN O *D gf180mcu_fd_sc_mcu7t5v0__nor2_1
*CAP
1 *3220:D 0.000182019
2 *2909:ZN 0.000182019
3 *3220:D *2909:A2 0.000413203
4 *3220:D *2917:A2 0
5 *3220:D *685:46 0.000333372
6 *3220:D *789:18 8.60176e-05
*RES
1 *2909:ZN *3220:D 19.976 
*END

*D_NET *145 0.000387353
*CONN
*I *3221:D I *D gf180mcu_fd_sc_mcu7t5v0__dffq_1
*I *2913:ZN O *D gf180mcu_fd_sc_mcu7t5v0__aoi211_1
*CAP
1 *3221:D 0.000133543
2 *2913:ZN 0.000133543
3 *3221:D *2913:A2 2.25114e-05
4 *3221:D *2913:B 9.77564e-05
*RES
1 *2913:ZN *3221:D 9.912 
*END

*D_NET *146 0.00260157
*CONN
*I *3222:D I *D gf180mcu_fd_sc_mcu7t5v0__dffq_1
*I *2917:ZN O *D gf180mcu_fd_sc_mcu7t5v0__nor2_1
*CAP
1 *3222:D 0.00014028
2 *2917:ZN 0.00014028
3 *3222:D *2917:A1 0.000741481
4 *3222:D *685:40 0.00141054
5 *3222:D *789:12 9.29187e-05
6 *3222:D *789:18 7.60777e-05
*RES
1 *2917:ZN *3222:D 21.572 
*END

*D_NET *147 0.00319878
*CONN
*I *3223:D I *D gf180mcu_fd_sc_mcu7t5v0__dffq_1
*I *2922:ZN O *D gf180mcu_fd_sc_mcu7t5v0__nor2_1
*CAP
1 *3223:D 0.000299854
2 *2922:ZN 0.000299854
3 *3223:D *2915:A2 0.000831931
4 *3223:D *2917:A2 0.000142801
5 *3223:D *2924:B 3.8914e-05
6 *3223:D *3297:I 0.000134928
7 *3223:D *685:36 0.000467288
8 *3223:D *753:25 0.00048051
9 *3223:D *753:31 0.000496517
10 *3223:D *789:12 6.18153e-06
*RES
1 *2922:ZN *3223:D 22.94 
*END

*D_NET *148 0.000430904
*CONN
*I *3224:D I *D gf180mcu_fd_sc_mcu7t5v0__dffq_1
*I *2924:ZN O *D gf180mcu_fd_sc_mcu7t5v0__aoi211_1
*CAP
1 *3224:D 2.42471e-05
2 *2924:ZN 2.42471e-05
3 *3224:D *2924:A1 0.00011955
4 *3224:D *2924:C 0.00026286
*RES
1 *2924:ZN *3224:D 9.684 
*END

*D_NET *149 0.00150319
*CONN
*I *3225:D I *D gf180mcu_fd_sc_mcu7t5v0__dffq_1
*I *2925:Z O *D gf180mcu_fd_sc_mcu7t5v0__and3_1
*CAP
1 *3225:D 0.000229884
2 *2925:Z 0.000229884
3 *3225:D *2654:A1 0.000314229
4 *3225:D *2657:A1 6.61564e-05
5 *3225:D *2833:A1 0.000153677
6 *3225:D *2833:A4 0.000377041
7 *3225:D *2928:A3 8.9355e-05
8 *3225:D *759:58 3.83782e-05
9 *3225:D *887:25 4.58601e-06
*RES
1 *2925:Z *3225:D 20.736 
*END

*D_NET *150 0.00142124
*CONN
*I *3226:D I *D gf180mcu_fd_sc_mcu7t5v0__dffq_1
*I *2926:Z O *D gf180mcu_fd_sc_mcu7t5v0__and3_1
*CAP
1 *3226:D 0.000249983
2 *2926:Z 0.000249983
3 *3226:D *2926:A1 0.00064872
4 *3226:D *2927:A3 0
5 *3226:D *469:47 0.000269857
6 *3226:D *685:30 2.69281e-06
*RES
1 *2926:Z *3226:D 20.66 
*END

*D_NET *151 0.000444348
*CONN
*I *3227:D I *D gf180mcu_fd_sc_mcu7t5v0__dffq_1
*I *2927:Z O *D gf180mcu_fd_sc_mcu7t5v0__and3_1
*CAP
1 *3227:D 0.000222174
2 *2927:Z 0.000222174
3 *3227:D *2926:A2 0
4 *3227:D *2927:A3 0
*RES
1 *2927:Z *3227:D 10.368 
*END

*D_NET *152 0.000922009
*CONN
*I *3228:D I *D gf180mcu_fd_sc_mcu7t5v0__dffq_1
*I *2928:Z O *D gf180mcu_fd_sc_mcu7t5v0__and3_1
*CAP
1 *3228:D 0.000280067
2 *2928:Z 0.000280067
3 *3228:D *3226:CLK 0.000106153
4 *3228:D *887:25 0.000255722
*RES
1 *2928:Z *3228:D 20.128 
*END

*D_NET *153 0.000443762
*CONN
*I *3229:D I *D gf180mcu_fd_sc_mcu7t5v0__dffq_1
*I *2931:ZN O *D gf180mcu_fd_sc_mcu7t5v0__aoi211_1
*CAP
1 *3229:D 2.99757e-05
2 *2931:ZN 2.99757e-05
3 *3229:D *2821:A2 0.000255714
4 *3229:D *2935:C 0.000128097
*RES
1 *2931:ZN *3229:D 9.684 
*END

*D_NET *154 0.000466416
*CONN
*I *3230:D I *D gf180mcu_fd_sc_mcu7t5v0__dffq_1
*I *2935:ZN O *D gf180mcu_fd_sc_mcu7t5v0__aoi211_1
*CAP
1 *3230:D 8.10876e-05
2 *2935:ZN 8.10876e-05
3 *3230:D *3279:I 4.1381e-05
4 *3230:D *242:16 0.00026286
*RES
1 *2935:ZN *3230:D 9.912 
*END

*D_NET *155 0.00521683
*CONN
*I *2945:I0 I *D gf180mcu_fd_sc_mcu7t5v0__mux2_2
*I *3231:D I *D gf180mcu_fd_sc_mcu7t5v0__dffq_1
*I *2942:ZN O *D gf180mcu_fd_sc_mcu7t5v0__nor2_1
*CAP
1 *2945:I0 0
2 *3231:D 0.000689484
3 *2942:ZN 0.000489405
4 *155:10 0.00117889
5 *3231:D *2936:A1 8.55327e-05
6 *3231:D *2946:A2 7.22742e-05
7 *3231:D *2947:A1 0.000369754
8 *3231:D *2947:A2 2.57058e-06
9 *3231:D *2948:A1 0.000601733
10 *3231:D *921:10 6.2265e-05
11 *3231:D *921:21 0.000146657
12 *3231:D *922:25 3.32161e-05
13 *3231:D *922:34 0.000310356
14 *155:10 *2941:A2 0
15 *155:10 *2946:A2 1.15275e-05
16 *155:10 *2949:A2 0.000104535
17 *155:10 *2951:A1 2.22657e-05
18 *155:10 *2951:A2 0.000251201
19 *155:10 *3231:CLK 0.000134206
20 *155:10 *546:25 4.18832e-05
21 *155:10 *548:12 0.000262693
22 *155:10 *551:12 0.000253715
23 *155:10 *791:30 0
24 *155:10 *921:21 9.26705e-05
*RES
1 *2942:ZN *155:10 9.288 
2 *155:10 *3231:D 19.808 
3 *155:10 *2945:I0 4.5 
*END

*D_NET *156 0.00217219
*CONN
*I *3232:D I *D gf180mcu_fd_sc_mcu7t5v0__dffq_1
*I *2945:Z O *D gf180mcu_fd_sc_mcu7t5v0__mux2_2
*CAP
1 *3232:D 0.000679331
2 *2945:Z 0.000679331
3 *3232:D *2946:A2 2.21435e-05
4 *3232:D *2948:A1 0.000147313
5 *3232:D *2948:A2 5.51188e-05
6 *3232:D *2948:B 0.000106097
7 *3232:D *2953:B2 8.95196e-05
8 *3232:D *3232:CLK 0
9 *3232:D *3233:D 0.00039334
10 *3232:D *687:77 0
*RES
1 *2945:Z *3232:D 14.396 
*END

*D_NET *157 0.000686263
*CONN
*I *3233:D I *D gf180mcu_fd_sc_mcu7t5v0__dffq_1
*I *2948:ZN O *D gf180mcu_fd_sc_mcu7t5v0__oai31_1
*CAP
1 *3233:D 0.000146462
2 *2948:ZN 0.000146462
3 *3233:D *687:77 0
4 *3232:D *3233:D 0.00039334
*RES
1 *2948:ZN *3233:D 10.368 
*END

*D_NET *158 0.00177371
*CONN
*I *3234:D I *D gf180mcu_fd_sc_mcu7t5v0__dffq_1
*I *2952:ZN O *D gf180mcu_fd_sc_mcu7t5v0__aoi21_1
*CAP
1 *3234:D 0.000280269
2 *2952:ZN 0.000280269
3 *3234:D *2948:A2 0.000247513
4 *3234:D *2952:A1 1.99499e-05
5 *3234:D *2952:A2 0.000195237
6 *3234:D *543:8 0.000273296
7 *3234:D *549:16 0.000239159
8 *3234:D *687:53 5.3266e-05
9 *3234:D *687:97 6.53901e-06
10 *3234:D *791:30 0.000178215
*RES
1 *2952:ZN *3234:D 21.04 
*END

*D_NET *159 0.00130391
*CONN
*I *3235:D I *D gf180mcu_fd_sc_mcu7t5v0__dffq_1
*I *2953:ZN O *D gf180mcu_fd_sc_mcu7t5v0__oai32_1
*CAP
1 *3235:D 0.000205068
2 *2953:ZN 0.000205068
3 *3235:D *3231:CLK 2.12006e-05
4 *3235:D *551:12 0.000433469
5 *3235:D *687:97 0.000439102
*RES
1 *2953:ZN *3235:D 20.204 
*END

*D_NET *160 0.000743068
*CONN
*I *3236:D I *D gf180mcu_fd_sc_mcu7t5v0__dffq_1
*I *2957:ZN O *D gf180mcu_fd_sc_mcu7t5v0__aoi211_1
*CAP
1 *3236:D 0.000274673
2 *2957:ZN 0.000274673
3 *3236:D *2939:A4 1.66121e-06
4 *3236:D *2950:B 4.82446e-05
5 *3236:D *2957:B 4.46661e-05
6 *3236:D *535:44 1.3758e-05
7 *3236:D *553:12 8.53914e-05
*RES
1 *2957:ZN *3236:D 11.052 
*END

*D_NET *161 0.000517861
*CONN
*I *3237:D I *D gf180mcu_fd_sc_mcu7t5v0__dffq_1
*I *2959:ZN O *D gf180mcu_fd_sc_mcu7t5v0__nor2_1
*CAP
1 *3237:D 7.26651e-05
2 *2959:ZN 7.26651e-05
3 *3237:D *2959:A1 8.18282e-05
4 *3237:D *535:12 3.73627e-05
5 *3237:D *686:36 0.00025334
6 *3237:D *927:8 0
*RES
1 *2959:ZN *3237:D 9.912 
*END

*D_NET *162 0.000691429
*CONN
*I *3238:D I *D gf180mcu_fd_sc_mcu7t5v0__dffq_1
*I *2963:ZN O *D gf180mcu_fd_sc_mcu7t5v0__nor2_1
*CAP
1 *3238:D 0.000327908
2 *2963:ZN 0.000327908
3 *3238:D *2510:A2 0
4 *3238:D *2956:A2 3.56141e-05
*RES
1 *2963:ZN *3238:D 10.976 
*END

*D_NET *163 0.00221358
*CONN
*I *3239:D I *D gf180mcu_fd_sc_mcu7t5v0__dffq_1
*I *2990:ZN O *D gf180mcu_fd_sc_mcu7t5v0__nor2_1
*CAP
1 *3239:D 0.000410813
2 *2990:ZN 0.000410813
3 *3239:D *2990:A2 0.000136817
4 *3239:D *3030:A1 0.000618391
5 *3239:D *3244:CLK 0.000414937
6 *3239:D *683:89 0.000204129
7 DAT_O[5] *3239:D 1.76797e-05
*RES
1 *2990:ZN *3239:D 12.724 
*END

*D_NET *164 0.000643305
*CONN
*I *3240:D I *D gf180mcu_fd_sc_mcu7t5v0__dffq_1
*I *2998:ZN O *D gf180mcu_fd_sc_mcu7t5v0__nor2_1
*CAP
1 *3240:D 0.000169125
2 *2998:ZN 0.000169125
3 *3240:D *3046:A1 0.000275025
4 *3240:D *3246:D 3.00299e-05
5 *3240:D *797:116 0
*RES
1 *2998:ZN *3240:D 10.596 
*END

*D_NET *165 0.000346468
*CONN
*I *3241:D I *D gf180mcu_fd_sc_mcu7t5v0__dffq_1
*I *3006:ZN O *D gf180mcu_fd_sc_mcu7t5v0__nor2_1
*CAP
1 *3241:D 0.000113459
2 *3006:ZN 0.000113459
3 *3241:D *3367:I 0.00011955
*RES
1 *3006:ZN *3241:D 9.912 
*END

*D_NET *166 0.00180118
*CONN
*I *3242:D I *D gf180mcu_fd_sc_mcu7t5v0__dffq_1
*I *3014:ZN O *D gf180mcu_fd_sc_mcu7t5v0__nor2_1
*CAP
1 *3242:D 0.0003482
2 *3014:ZN 0.0003482
3 *3242:D *2997:A1 1.53361e-05
4 *3242:D *3005:A2 0
5 *3242:D *3006:A1 0.00102986
6 *3242:D *3013:A1 3.21533e-05
7 *3242:D *3045:A2 2.7435e-05
*RES
1 *3014:ZN *3242:D 21.192 
*END

*D_NET *167 0.000664407
*CONN
*I *3243:D I *D gf180mcu_fd_sc_mcu7t5v0__dffq_1
*I *3022:ZN O *D gf180mcu_fd_sc_mcu7t5v0__nor2_1
*CAP
1 *3243:D 0.000124184
2 *3022:ZN 0.000124184
3 *3243:D *3022:A1 0.000277343
4 DAT_O[6] *3243:D 0.000138695
*RES
1 *3022:ZN *3243:D 10.444 
*END

*D_NET *168 0.000601819
*CONN
*I *3244:D I *D gf180mcu_fd_sc_mcu7t5v0__dffq_1
*I *3030:ZN O *D gf180mcu_fd_sc_mcu7t5v0__nor2_1
*CAP
1 *3244:D 0.00013642
2 *3030:ZN 0.00013642
3 *3244:D *2990:A2 6.61189e-05
4 *3244:D *3030:A1 0.00026286
*RES
1 *3030:ZN *3244:D 10.216 
*END

*D_NET *169 0.000417177
*CONN
*I *3245:D I *D gf180mcu_fd_sc_mcu7t5v0__dffq_1
*I *3038:ZN O *D gf180mcu_fd_sc_mcu7t5v0__nor2_1
*CAP
1 *3245:D 0.000199311
2 *3038:ZN 0.000199311
3 DAT_O[5] *3245:D 1.56182e-05
4 DAT_O[6] *3245:D 2.9378e-06
*RES
1 *3038:ZN *3245:D 10.216 
*END

*D_NET *170 0.00196115
*CONN
*I *3246:D I *D gf180mcu_fd_sc_mcu7t5v0__dffq_1
*I *3046:ZN O *D gf180mcu_fd_sc_mcu7t5v0__nor2_1
*CAP
1 *3246:D 0.000393109
2 *3046:ZN 0.000393109
3 *3246:D *2546:A2 0.00109748
4 *3246:D *3046:A1 2.40867e-05
5 *3246:D *797:116 2.333e-05
6 *3240:D *3246:D 3.00299e-05
*RES
1 *3046:ZN *3246:D 21.8 
*END

*D_NET *171 0.000581213
*CONN
*I *3247:D I *D gf180mcu_fd_sc_mcu7t5v0__dffq_1
*I *3049:ZN O *D gf180mcu_fd_sc_mcu7t5v0__nor2_1
*CAP
1 *3247:D 0.000142183
2 *3049:ZN 0.000142183
3 *3247:D *3049:A2 0.000172165
4 *3247:D *3053:A1 0.000115071
5 *3247:D *3248:D 9.61205e-06
*RES
1 *3049:ZN *3247:D 10.444 
*END

*D_NET *172 0.00295715
*CONN
*I *3248:D I *D gf180mcu_fd_sc_mcu7t5v0__dffq_1
*I *3053:ZN O *D gf180mcu_fd_sc_mcu7t5v0__aoi21_1
*CAP
1 *3248:D 0.000677148
2 *3053:ZN 0.000677148
3 *3248:D *2966:A2 0.000126809
4 *3248:D *2966:A3 6.01682e-05
5 *3248:D *2967:A1 1.72912e-05
6 *3248:D *2968:A1 0.000357108
7 *3248:D *2968:A2 4.6818e-05
8 *3248:D *3048:A2 5.00706e-05
9 *3248:D *3048:B2 8.55242e-05
10 *3248:D *3049:A2 0.000493497
11 *3248:D *3053:A1 0
12 *3248:D *3053:A2 7.30601e-05
13 *3248:D *3053:B 9.26705e-05
14 *3248:D *229:20 0
15 *3248:D *560:14 3.2823e-06
16 *3248:D *561:8 0.000186942
17 *3248:D *696:40 0
18 *3248:D *736:46 0
19 *3247:D *3248:D 9.61205e-06
*RES
1 *3053:ZN *3248:D 15.46 
*END

*D_NET *173 0.0022047
*CONN
*I *3249:D I *D gf180mcu_fd_sc_mcu7t5v0__dffq_1
*I *3058:ZN O *D gf180mcu_fd_sc_mcu7t5v0__nand2_1
*CAP
1 *3249:D 0.000350175
2 *3058:ZN 0.000350175
3 *3249:D *3039:C1 0.000159251
4 *3249:D *3055:A1 9.59897e-06
5 *3249:D *3057:A2 1.53627e-05
6 *3249:D *3081:A2 0.000255722
7 *3249:D *3249:CLK 4.2318e-06
8 *3249:D *3312:I 0.00063817
9 *3249:D *683:51 0.000422015
*RES
1 *3058:ZN *3249:D 12.876 
*END

*D_NET *174 0.00161379
*CONN
*I *3250:D I *D gf180mcu_fd_sc_mcu7t5v0__dffq_1
*I *3061:ZN O *D gf180mcu_fd_sc_mcu7t5v0__nand2_1
*CAP
1 *3250:D 0.000217077
2 *3061:ZN 0.000217077
3 *3250:D *2995:B2 0.000167823
4 *3250:D *3085:A1 6.57222e-06
5 *3250:D *3086:A1 3.19219e-05
6 *3250:D *3086:A2 6.63909e-05
7 *3250:D *3086:A3 7.02696e-05
8 *3250:D *3258:D 9.52854e-05
9 *3250:D *800:8 6.83457e-05
10 *3250:D *802:27 0.000673033
*RES
1 *3061:ZN *3250:D 21.04 
*END

*D_NET *175 0.000908689
*CONN
*I *3251:D I *D gf180mcu_fd_sc_mcu7t5v0__dffq_1
*I *3064:ZN O *D gf180mcu_fd_sc_mcu7t5v0__nor3_1
*CAP
1 *3251:D 0.000288304
2 *3064:ZN 0.000288304
3 *3251:D *2741:A1 2.17248e-05
4 *3251:D *2752:A1 0
5 *3251:D *682:35 0.000310356
*RES
1 *3064:ZN *3251:D 11.432 
*END

*D_NET *176 0.000860325
*CONN
*I *3252:D I *D gf180mcu_fd_sc_mcu7t5v0__dffq_1
*I *3067:ZN O *D gf180mcu_fd_sc_mcu7t5v0__nor3_1
*CAP
1 *3252:D 0.00017364
2 *3067:ZN 0.00017364
3 *3252:D *2742:A1 0.000310356
4 *3252:D *3088:A1 2.6126e-05
5 *3252:D *3091:B 0
6 *3252:D *3252:CLK 1.37763e-05
7 *3252:D *800:10 0.000146948
8 *3252:D *816:17 1.58383e-05
*RES
1 *3067:ZN *3252:D 19.672 
*END

*D_NET *177 0.000610503
*CONN
*I *3253:D I *D gf180mcu_fd_sc_mcu7t5v0__dffq_1
*I *3069:ZN O *D gf180mcu_fd_sc_mcu7t5v0__aoi211_1
*CAP
1 *3253:D 0.000108181
2 *3069:ZN 0.000108181
3 *3253:D *2481:I 9.88736e-06
4 *3253:D *2757:A1 0
5 *3253:D *3069:A1 8.74559e-05
6 *3253:D *640:16 0
7 *3253:D *640:20 0.000296797
*RES
1 *3069:ZN *3253:D 10.064 
*END

*D_NET *178 0.00325514
*CONN
*I *3254:D I *D gf180mcu_fd_sc_mcu7t5v0__dffq_1
*I *3072:ZN O *D gf180mcu_fd_sc_mcu7t5v0__nor3_1
*CAP
1 *3254:D 0.000323085
2 *3072:ZN 0.000323085
3 *3254:D *2525:A1 0.000959658
4 *3254:D *2989:B2 0.00023739
5 *3254:D *3070:A1 0.000164236
6 *3254:D *3072:A2 0
7 *3254:D *3097:A1 0.000131074
8 *3254:D *3097:A2 7.52043e-05
9 *3254:D *3115:A1 7.24161e-06
10 *3254:D *683:43 0.000393423
11 *3254:D *787:27 0.000325617
12 *3254:D *804:37 0.00031512
*RES
1 *3072:ZN *3254:D 23.168 
*END

*D_NET *179 0.00310999
*CONN
*I *3255:D I *D gf180mcu_fd_sc_mcu7t5v0__dffq_1
*I *3075:ZN O *D gf180mcu_fd_sc_mcu7t5v0__nor3_1
*CAP
1 *3255:D 0.000356613
2 *3075:ZN 0.000356613
3 *3255:D *2995:A2 0.000372137
4 *3255:D *3036:A1 0.000164236
5 *3255:D *3074:A1 2.09512e-05
6 *3255:D *3075:A2 0.000199636
7 *3255:D *3075:A3 2.23783e-05
8 *3255:D *682:12 0.000377381
9 *3255:D *771:23 0.00121468
10 *3336:I *3255:D 2.53641e-05
*RES
1 *3075:ZN *3255:D 23.016 
*END

*D_NET *180 0.000664855
*CONN
*I *3256:D I *D gf180mcu_fd_sc_mcu7t5v0__dffq_1
*I *3078:ZN O *D gf180mcu_fd_sc_mcu7t5v0__nor3_1
*CAP
1 *3256:D 0.000166386
2 *3078:ZN 0.000166386
3 *3256:D *2741:A1 0.000177054
4 *3256:D *2743:A1 0.00015503
*RES
1 *3078:ZN *3256:D 10.292 
*END

*D_NET *181 0.00109414
*CONN
*I *3257:D I *D gf180mcu_fd_sc_mcu7t5v0__dffq_1
*I *3083:ZN O *D gf180mcu_fd_sc_mcu7t5v0__nor3_1
*CAP
1 *3257:D 0.000356593
2 *3083:ZN 0.000356593
3 *3257:D *3083:A1 0
4 *3257:D *3083:A2 0
5 *3257:D *3105:A1 7.2647e-05
6 *3257:D *3312:I 0.000141382
7 *3257:D *3329:I 8.7332e-05
8 *3257:D *230:26 7.95952e-05
9 *3257:D *767:106 0
*RES
1 *3083:ZN *3257:D 20.888 
*END

*D_NET *182 0.00210124
*CONN
*I *3258:D I *D gf180mcu_fd_sc_mcu7t5v0__dffq_1
*I *3086:ZN O *D gf180mcu_fd_sc_mcu7t5v0__nor3_1
*CAP
1 *3258:D 0.000132067
2 *3086:ZN 0.000132067
3 *3258:D *2761:A1 0.000307974
4 *3258:D *3086:A1 0.000151949
5 *3258:D *3108:A1 0.000324225
6 *3258:D *802:12 0.000623573
7 *3258:D *806:8 0.000307974
8 *3258:D *806:16 2.6126e-05
9 *3250:D *3258:D 9.52854e-05
*RES
1 *3086:ZN *3258:D 20.736 
*END

*D_NET *183 0.000667712
*CONN
*I *3259:D I *D gf180mcu_fd_sc_mcu7t5v0__dffq_1
*I *3089:ZN O *D gf180mcu_fd_sc_mcu7t5v0__nor3_1
*CAP
1 *3259:D 1.63618e-05
2 *3089:ZN 1.63618e-05
3 *3259:D *3089:A1 0.000317494
4 *3259:D *212:58 0.000317494
*RES
1 *3089:ZN *3259:D 9.836 
*END

*D_NET *184 0.000824508
*CONN
*I *3260:D I *D gf180mcu_fd_sc_mcu7t5v0__dffq_1
*I *3092:ZN O *D gf180mcu_fd_sc_mcu7t5v0__nand2_1
*CAP
1 *3260:D 0.000145409
2 *3092:ZN 0.000145409
3 *3260:D *3092:A1 3.73535e-05
4 *3260:D *3092:A2 0.00031512
5 *3260:D *3094:A1 0.000109515
6 *3260:D *3111:A1 6.50663e-05
7 *3260:D *818:17 6.63508e-06
*RES
1 *3092:ZN *3260:D 10.672 
*END

*D_NET *185 0.000540684
*CONN
*I *3261:D I *D gf180mcu_fd_sc_mcu7t5v0__dffq_1
*I *3095:ZN O *D gf180mcu_fd_sc_mcu7t5v0__nor3_1
*CAP
1 *3261:D 0.000116408
2 *3095:ZN 0.000116408
3 *3261:D *3095:A2 0.000237399
4 *3261:D *707:58 7.04692e-05
*RES
1 *3095:ZN *3261:D 10.064 
*END

*D_NET *186 0.000485558
*CONN
*I *3262:D I *D gf180mcu_fd_sc_mcu7t5v0__dffq_1
*I *3098:ZN O *D gf180mcu_fd_sc_mcu7t5v0__nand2_1
*CAP
1 *3262:D 0.000113913
2 *3098:ZN 0.000113913
3 *3262:D *3070:A1 0
4 *3262:D *3072:A3 3.91485e-05
5 *3262:D *3098:A1 0.000218583
*RES
1 *3098:ZN *3262:D 10.14 
*END

*D_NET *187 0.00225044
*CONN
*I *3263:D I *D gf180mcu_fd_sc_mcu7t5v0__dffq_1
*I *3101:ZN O *D gf180mcu_fd_sc_mcu7t5v0__nand2_1
*CAP
1 *3263:D 0.000105824
2 *3101:ZN 0.000105824
3 *3263:D *3021:B2 0.000840184
4 *3263:D *3099:A1 9.88736e-06
5 *3263:D *3101:A1 8.18373e-05
6 *3263:D *563:66 0.000851626
7 *3263:D *656:31 0.00025334
8 *3263:D *759:34 1.91917e-06
*RES
1 *3101:ZN *3263:D 20.888 
*END

*D_NET *188 0.00110769
*CONN
*I *3264:D I *D gf180mcu_fd_sc_mcu7t5v0__dffq_1
*I *3104:ZN O *D gf180mcu_fd_sc_mcu7t5v0__nand2_1
*CAP
1 *3264:D 0.00019906
2 *3104:ZN 0.00019906
3 *3264:D *2741:A1 4.24995e-05
4 *3264:D *3039:B1 8.81341e-06
5 *3264:D *3039:C1 6.46383e-05
6 *3264:D *3104:A1 8.10176e-05
7 *3264:D *682:29 0.000512596
*RES
1 *3104:ZN *3264:D 10.976 
*END

*D_NET *189 0.00149036
*CONN
*I *3265:D I *D gf180mcu_fd_sc_mcu7t5v0__dffq_1
*I *3106:ZN O *D gf180mcu_fd_sc_mcu7t5v0__aoi211_1
*CAP
1 *3265:D 0.000357284
2 *3106:ZN 0.000357284
3 *3265:D *2498:I 0
4 *3265:D *3057:B 0
5 *3265:D *3303:I 0.00037506
6 *3265:D *200:12 0
7 *3265:D *243:26 4.29636e-06
8 *3265:D *697:10 0.000183434
9 *3265:D *804:67 0.000175636
10 *3265:D *805:43 3.73627e-05
*RES
1 *3106:ZN *3265:D 22.104 
*END

*D_NET *190 0.00148956
*CONN
*I *3266:D I *D gf180mcu_fd_sc_mcu7t5v0__dffq_1
*I *3108:ZN O *D gf180mcu_fd_sc_mcu7t5v0__aoi211_1
*CAP
1 *3266:D 0.000133764
2 *3108:ZN 0.000133764
3 *3266:D *3022:A1 4.41944e-05
4 *3266:D *3107:A1 5.54728e-05
5 *3266:D *3108:B 6.68164e-05
6 *3266:D *3108:C 0.000154451
7 DAT_O[6] *3266:D 0.000901098
*RES
1 *3108:ZN *3266:D 11.356 
*END

*D_NET *191 0.00198999
*CONN
*I *3267:D I *D gf180mcu_fd_sc_mcu7t5v0__dffq_1
*I *3110:ZN O *D gf180mcu_fd_sc_mcu7t5v0__aoi211_1
*CAP
1 *3267:D 0.000304521
2 *3110:ZN 0.000304521
3 *3267:D *3003:A2 9.20963e-05
4 *3267:D *3011:A2 4.32304e-05
5 *3267:D *3011:B1 1.12113e-05
6 *3267:D *3012:A2 8.55242e-05
7 *3267:D *3044:A1 0.000412066
8 *3267:D *3112:A2 7.83779e-05
9 *3267:D *3112:B 0.000498804
10 *3267:D *3267:CLK 7.71175e-06
11 *3267:D *467:30 9.88736e-06
12 *3267:D *772:10 2.71172e-05
13 *3267:D *772:27 0.000114917
*RES
1 *3110:ZN *3267:D 22.028 
*END

*D_NET *192 0.000889934
*CONN
*I *3268:D I *D gf180mcu_fd_sc_mcu7t5v0__dffq_1
*I *3112:ZN O *D gf180mcu_fd_sc_mcu7t5v0__aoi211_1
*CAP
1 *3268:D 0.000125151
2 *3112:ZN 0.000125151
3 *3268:D *3112:A2 1.39031e-05
4 *3268:D *3112:B 0.00023739
5 *3268:D *3112:C 0.000353805
6 *3268:D *3291:I 0
7 *3268:D *563:18 2.68222e-05
8 *3268:D *738:8 7.71175e-06
*RES
1 *3112:ZN *3268:D 10.52 
*END

*D_NET *193 0.000666357
*CONN
*I *3269:D I *D gf180mcu_fd_sc_mcu7t5v0__dffq_1
*I *3114:ZN O *D gf180mcu_fd_sc_mcu7t5v0__aoi211_1
*CAP
1 *3269:D 0.000186765
2 *3114:ZN 0.000186765
3 *3269:D *2523:A3 0
4 *3269:D *3114:B 0.000147313
5 *3269:D *240:8 4.42433e-05
6 *3269:D *707:58 0.000101271
*RES
1 *3114:ZN *3269:D 10.52 
*END

*D_NET *194 0.00127353
*CONN
*I *3270:D I *D gf180mcu_fd_sc_mcu7t5v0__dffq_1
*I *3116:ZN O *D gf180mcu_fd_sc_mcu7t5v0__aoi211_1
*CAP
1 *3270:D 0.000428772
2 *3116:ZN 0.000428772
3 *3270:D *2524:A1 0.000147313
4 *3270:D *2525:A1 7.1358e-06
5 *3270:D *2525:B1 5.18736e-05
6 *3270:D *3116:A2 9.88736e-06
7 *3270:D *3116:B 2.22758e-05
8 *3270:D *686:46 0
9 *3270:D *767:131 0.000177496
10 *3270:D *804:37 0
11 *3270:D *804:54 0
*RES
1 *3116:ZN *3270:D 11.964 
*END

*D_NET *195 0.00492929
*CONN
*I *3116:A1 I *D gf180mcu_fd_sc_mcu7t5v0__aoi211_1
*I *2521:A1 I *D gf180mcu_fd_sc_mcu7t5v0__nand2_1
*I *2475:ZN O *D gf180mcu_fd_sc_mcu7t5v0__clkinv_1
*CAP
1 *3116:A1 0.000109233
2 *2521:A1 0.00045807
3 *2475:ZN 0
4 *195:6 0.000567304
5 *2521:A1 *2521:A2 1.5015e-05
6 *2521:A1 *3105:B1 6.04444e-06
7 *2521:A1 *3326:I 0.000420442
8 *2521:A1 *241:10 6.04444e-06
9 *2521:A1 *767:106 8.55242e-05
10 *2521:A1 *767:114 0.00146985
11 *2521:A1 *769:10 0.00088077
12 *2521:A1 *792:34 1.44832e-05
13 *3116:A1 *3326:I 4.65442e-05
14 *3116:A1 *769:10 0.000569371
15 *3116:A1 *769:25 0.000188292
16 *3116:A1 *804:54 9.2298e-05
*RES
1 *2475:ZN *195:6 9 
2 *195:6 *2521:A1 15.536 
3 *195:6 *3116:A1 10.9 
*END

*D_NET *196 0.00521312
*CONN
*I *2519:A2 I *D gf180mcu_fd_sc_mcu7t5v0__oai21_1
*I *2521:A2 I *D gf180mcu_fd_sc_mcu7t5v0__nand2_1
*I *3114:A1 I *D gf180mcu_fd_sc_mcu7t5v0__aoi211_1
*I *2476:ZN O *D gf180mcu_fd_sc_mcu7t5v0__clkinv_1
*CAP
1 *2519:A2 0
2 *2521:A2 0.000398914
3 *3114:A1 0.000281654
4 *2476:ZN 7.39927e-05
5 *196:8 0.000787509
6 *196:6 0.000180934
7 *2521:A2 *3083:A1 8.92063e-06
8 *2521:A2 *3083:A3 0.000147313
9 *2521:A2 *230:26 0.000140416
10 *2521:A2 *239:12 4.07337e-05
11 *2521:A2 *767:106 0.000193055
12 *2521:A2 *792:34 0.000397393
13 *2521:A2 *803:10 5.02525e-05
14 *3114:A1 *2522:A1 0.000548132
15 *3114:A1 *3114:A2 0.000213194
16 *3114:A1 *3114:B 6.38438e-05
17 *3114:A1 *242:8 0.000220344
18 *3114:A1 *243:16 1.5015e-05
19 *3114:A1 *701:16 0.000164236
20 *3114:A1 *701:42 6.63909e-05
21 *3114:A1 *767:10 0.000594335
22 *3114:A1 *803:10 3.26804e-05
23 *196:6 *233:8 5.76373e-06
24 *196:8 *2519:B 2.57058e-06
25 *196:8 *239:12 0.000351439
26 *196:8 *243:16 0.000139496
27 *196:8 *701:16 7.95739e-05
28 *196:8 *792:34 0
29 *2521:A1 *2521:A2 1.5015e-05
*RES
1 *2476:ZN *196:6 5.032 
2 *196:6 *196:8 1.444 
3 *196:8 *3114:A1 17.604 
4 *196:8 *2521:A2 17.832 
5 *196:6 *2519:A2 4.5 
*END

*D_NET *197 0.00157175
*CONN
*I *3112:A1 I *D gf180mcu_fd_sc_mcu7t5v0__aoi211_1
*I *2477:ZN O *D gf180mcu_fd_sc_mcu7t5v0__clkinv_1
*CAP
1 *3112:A1 0.000174174
2 *2477:ZN 0.000174174
3 *3112:A1 *562:78 0.000544119
4 *3112:A1 *563:66 0.000300376
5 *3112:A1 *696:86 0.000292033
6 *3112:A1 *696:93 2.6126e-05
7 *3112:A1 *707:58 6.07523e-05
*RES
1 *2477:ZN *3112:A1 20.736 
*END

*D_NET *198 0.000546903
*CONN
*I *3110:A1 I *D gf180mcu_fd_sc_mcu7t5v0__aoi211_1
*I *2478:ZN O *D gf180mcu_fd_sc_mcu7t5v0__clkinv_1
*CAP
1 *3110:A1 0.00017266
2 *2478:ZN 0.00017266
3 *3110:A1 *2478:I 8.55242e-05
4 *3110:A1 *3003:B2 2.29516e-07
5 *3110:A1 *3011:B2 1.71528e-06
6 *3110:A1 *3110:C 1.74373e-05
7 *3110:A1 *3112:A2 1.47893e-05
8 *3110:A1 *3290:I 8.68045e-06
9 *3110:A1 *467:30 1.26327e-05
10 *3110:A1 *680:120 7.66484e-06
11 *3110:A1 *699:10 5.29103e-05
12 *3110:A1 *800:46 0
*RES
1 *2478:ZN *3110:A1 10.672 
*END

*D_NET *199 0.00165858
*CONN
*I *3108:A1 I *D gf180mcu_fd_sc_mcu7t5v0__aoi211_1
*I *2479:ZN O *D gf180mcu_fd_sc_mcu7t5v0__clkinv_1
*CAP
1 *3108:A1 0.000325295
2 *2479:ZN 0.000325295
3 *3108:A1 *802:12 0.000335379
4 DAT_O[6] *3108:A1 0.000255722
5 *3258:D *3108:A1 0.000324225
6 *3337:I *3108:A1 9.26628e-05
*RES
1 *2479:ZN *3108:A1 21.344 
*END

*D_NET *200 0.00224757
*CONN
*I *3106:A1 I *D gf180mcu_fd_sc_mcu7t5v0__aoi211_1
*I *2518:A2 I *D gf180mcu_fd_sc_mcu7t5v0__oai21_1
*I *2480:ZN O *D gf180mcu_fd_sc_mcu7t5v0__clkinv_1
*CAP
1 *3106:A1 0
2 *2518:A2 0.00014116
3 *2480:ZN 0.000216275
4 *200:12 0.000357434
5 *2518:A2 *3106:A2 0.000312872
6 *2518:A2 *3329:I 1.53758e-05
7 *2518:A2 *243:26 3.56172e-05
8 *200:12 *2498:I 0.000302458
9 *200:12 *243:26 0
10 *200:12 *697:10 0.000120799
11 *200:12 *805:57 0.000285145
12 *200:12 *872:10 0.000460436
13 *3265:D *200:12 0
*RES
1 *2480:ZN *200:12 16.54 
2 *200:12 *2518:A2 5.944 
3 *200:12 *3106:A1 4.5 
*END

*D_NET *201 0.0118168
*CONN
*I *2757:A1 I *D gf180mcu_fd_sc_mcu7t5v0__xor2_1
*I *3069:A1 I *D gf180mcu_fd_sc_mcu7t5v0__aoi211_1
*I *2481:ZN O *D gf180mcu_fd_sc_mcu7t5v0__clkinv_1
*CAP
1 *2757:A1 0.00192856
2 *3069:A1 0.00022818
3 *2481:ZN 0
4 *201:4 0.00215674
5 *2757:A1 *2748:A1 6.7819e-05
6 *2757:A1 *2748:A2 0.000453684
7 *2757:A1 *2749:A1 0.00012213
8 *2757:A1 *2749:A2 0.000184352
9 *2757:A1 *2756:A1 1.04401e-05
10 *2757:A1 *2756:A2 0.000681282
11 *2757:A1 *2757:A2 9.88736e-06
12 *2757:A1 *2762:A3 0
13 *2757:A1 *3039:B2 0.00022449
14 *2757:A1 *3044:A1 0.000249812
15 *2757:A1 *3059:A2 0
16 *2757:A1 *3061:A2 0.000747117
17 *2757:A1 *3074:A2 4.84789e-05
18 *2757:A1 *3084:A2 0.000318731
19 *2757:A1 *3085:A2 0.000149817
20 *2757:A1 *3086:A3 0.000307983
21 *2757:A1 *3264:CLK 0.0002451
22 *2757:A1 *3277:I 0.000214053
23 *2757:A1 *3324:I 0.0002956
24 *2757:A1 *639:20 8.78761e-05
25 *2757:A1 *640:20 0.000583464
26 *2757:A1 *773:18 0
27 *2757:A1 *792:34 0.000493797
28 *2757:A1 *802:35 1.14705e-06
29 *2757:A1 *802:37 3.95494e-05
30 *2757:A1 *802:72 0.000137346
31 *2757:A1 *802:82 0.0001181
32 *2757:A1 *814:12 0.000237018
33 *2757:A1 *823:21 1.19401e-05
34 *3069:A1 *2481:I 0.000441055
35 *3069:A1 *3069:B 3.08902e-05
36 *3069:A1 *640:20 4.81237e-05
37 *3069:A1 *792:34 0.000854757
38 *3253:D *2757:A1 0
39 *3253:D *3069:A1 8.74559e-05
*RES
1 *2481:ZN *201:4 4.5 
2 *201:4 *3069:A1 7.692 
3 *201:4 *2757:A1 42.26 
*END

*D_NET *202 0.00254865
*CONN
*I *2957:A1 I *D gf180mcu_fd_sc_mcu7t5v0__aoi211_1
*I *2939:A3 I *D gf180mcu_fd_sc_mcu7t5v0__nand4_1
*I *2482:ZN O *D gf180mcu_fd_sc_mcu7t5v0__clkinv_1
*CAP
1 *2957:A1 0
2 *2939:A3 0.000183804
3 *2482:ZN 0.000241038
4 *202:16 0.000424842
5 *2939:A3 *2939:A4 0.000144939
6 *2939:A3 *2954:A3 0.000173637
7 *2939:A3 *2957:A2 1.25576e-05
8 *2939:A3 *535:32 5.74961e-05
9 *202:16 *2939:A4 3.73627e-05
10 *202:16 *2954:A1 2.0537e-05
11 *202:16 *2954:A3 7.43203e-06
12 *202:16 *2955:A4 3.40956e-05
13 *202:16 *2957:A2 6.03884e-05
14 *202:16 *2960:A2 8.64281e-06
15 *202:16 *2962:A1 0.000630433
16 *202:16 *553:12 0.000255722
17 *202:16 *925:12 0.000255722
*RES
1 *2482:ZN *202:16 16.54 
2 *202:16 *2939:A3 6.324 
3 *202:16 *2957:A1 4.5 
*END

*D_NET *203 0.00245052
*CONN
*I *2937:A1 I *D gf180mcu_fd_sc_mcu7t5v0__nand2_1
*I *2953:B2 I *D gf180mcu_fd_sc_mcu7t5v0__oai32_1
*I *2483:ZN O *D gf180mcu_fd_sc_mcu7t5v0__clkinv_1
*CAP
1 *2937:A1 0
2 *2953:B2 0.000482054
3 *2483:ZN 0.000253025
4 *203:10 0.000735079
5 *2953:B2 *2938:A2 5.18792e-05
6 *2953:B2 *2946:A2 0.000126873
7 *2953:B2 *2948:A2 4.01733e-06
8 *2953:B2 *2948:A3 0.000292268
9 *2953:B2 *2952:B 6.84574e-06
10 *2953:B2 *2953:A1 9.07654e-05
11 *2953:B2 *546:25 0.000111115
12 *2953:B2 *922:25 0
13 *203:10 *2938:A2 1.31444e-05
14 *203:10 *3231:CLK 0.000193933
15 *3232:D *2953:B2 8.95196e-05
*RES
1 *2483:ZN *203:10 10.672 
2 *203:10 *2953:B2 13.332 
3 *203:10 *2937:A1 9 
*END

*D_NET *204 0.00120437
*CONN
*I *2952:A1 I *D gf180mcu_fd_sc_mcu7t5v0__aoi21_1
*I *2484:ZN O *D gf180mcu_fd_sc_mcu7t5v0__clkinv_1
*CAP
1 *2952:A1 0.000544126
2 *2484:ZN 0.000544126
3 *2952:A1 *687:97 7.35859e-05
4 *2952:A1 *791:30 2.25835e-05
5 *3234:D *2952:A1 1.99499e-05
*RES
1 *2484:ZN *2952:A1 29.28 
*END

*D_NET *205 0.000638977
*CONN
*I *2935:A1 I *D gf180mcu_fd_sc_mcu7t5v0__aoi211_1
*I *2485:ZN O *D gf180mcu_fd_sc_mcu7t5v0__clkinv_1
*CAP
1 *2935:A1 3.30541e-05
2 *2485:ZN 3.30541e-05
3 *2935:A1 *2485:I 0.000264894
4 *2935:A1 *242:16 0.000307974
*RES
1 *2485:ZN *2935:A1 9.836 
*END

*D_NET *206 0.00693872
*CONN
*I *2913:A1 I *D gf180mcu_fd_sc_mcu7t5v0__aoi211_1
*I *2641:A1 I *D gf180mcu_fd_sc_mcu7t5v0__aoi211_1
*I *2486:ZN O *D gf180mcu_fd_sc_mcu7t5v0__clkinv_1
*CAP
1 *2913:A1 6.71542e-05
2 *2641:A1 0.00119775
3 *2486:ZN 0.000156198
4 *206:10 0.0014211
5 *2641:A1 *2641:A2 0.000953375
6 *2641:A1 *2644:A3 0.000287391
7 *2641:A1 *2913:B 2.9378e-06
8 *2641:A1 *2999:C2 3.1458e-05
9 *2641:A1 *3007:C2 0.000126143
10 *2641:A1 *3154:CLK 0
11 *2641:A1 *3302:I 0.000317503
12 *2641:A1 *684:25 0
13 *2641:A1 *799:27 4.8524e-05
14 *2641:A1 *906:8 0.000441055
15 *2913:A1 *2913:B 1.4689e-05
16 *206:10 *2831:A4 8.29357e-05
17 *206:10 *788:20 0.000314236
18 *3154:D *2641:A1 0.000255722
19 *3155:D *2641:A1 0.000255722
20 *3156:D *2641:A1 0.00031512
21 *3275:I *2641:A1 0.000646145
22 *3275:I *2913:A1 3.5531e-06
*RES
1 *2486:ZN *206:10 14.792 
2 *206:10 *2641:A1 17.04 
3 *206:10 *2913:A1 4.88 
*END

*D_NET *207 0.00228891
*CONN
*I *2633:A1 I *D gf180mcu_fd_sc_mcu7t5v0__aoi211_1
*I *2900:A1 I *D gf180mcu_fd_sc_mcu7t5v0__aoi211_1
*I *2487:ZN O *D gf180mcu_fd_sc_mcu7t5v0__clkinv_1
*CAP
1 *2633:A1 0.000255864
2 *2900:A1 0.00017154
3 *2487:ZN 3.28034e-05
4 *207:6 0.000460207
5 *2633:A1 *2629:A1 4.45507e-05
6 *2633:A1 *2631:A2 0.000314174
7 *2633:A1 *2632:A2 0.000680171
8 *2633:A1 *2633:B 1.20079e-05
9 *2633:A1 *3023:A1 6.63508e-06
10 *2900:A1 *2487:I 6.46566e-05
11 *2900:A1 *2629:A1 0.000246299
*RES
1 *2487:ZN *207:6 4.728 
2 *207:6 *2900:A1 6.172 
3 *207:6 *2633:A1 7.54 
*END

*D_NET *208 0.00522207
*CONN
*I *2886:A1 I *D gf180mcu_fd_sc_mcu7t5v0__aoi211_1
*I *2625:A1 I *D gf180mcu_fd_sc_mcu7t5v0__aoi211_1
*I *2488:ZN O *D gf180mcu_fd_sc_mcu7t5v0__clkinv_1
*CAP
1 *2886:A1 0.000242529
2 *2625:A1 0.000766999
3 *2488:ZN 0
4 *208:4 0.00100953
5 *2625:A1 *2614:A2 0
6 *2625:A1 *2614:A3 3.15156e-05
7 *2625:A1 *2615:A1 3.64096e-05
8 *2625:A1 *2617:A1 0.000829806
9 *2625:A1 *2617:A2 6.23011e-05
10 *2625:A1 *2618:A1 0.000117265
11 *2625:A1 *2621:A1 9.46793e-05
12 *2625:A1 *2828:A1 0.000308957
13 *2625:A1 *2828:A2 1.11891e-05
14 *2625:A1 *2828:C 4.32383e-05
15 *2625:A1 *2843:B 0.000227859
16 *2625:A1 *3147:CLK 0.000204528
17 *2625:A1 *3295:I 5.48978e-05
18 *2625:A1 *758:24 8.8586e-05
19 *2625:A1 *758:26 4.43093e-05
20 *2625:A1 *798:10 3.73535e-05
21 *2625:A1 *798:34 0.000372181
22 *2886:A1 *2488:I 0.000189264
23 *2886:A1 *2618:A1 4.21132e-05
24 *2886:A1 *3295:I 0.000380787
25 *2886:A1 *896:59 2.57756e-05
*RES
1 *2488:ZN *208:4 4.5 
2 *208:4 *2625:A1 22.468 
3 *208:4 *2886:A1 6.856 
*END

*D_NET *209 0.00189452
*CONN
*I *2826:B I *D gf180mcu_fd_sc_mcu7t5v0__aoi21_1
*I *2862:A1 I *D gf180mcu_fd_sc_mcu7t5v0__xor2_1
*I *2611:A1 I *D gf180mcu_fd_sc_mcu7t5v0__aoi211_1
*I *2489:ZN O *D gf180mcu_fd_sc_mcu7t5v0__clkinv_1
*CAP
1 *2826:B 0
2 *2862:A1 0.000303154
3 *2611:A1 0.000141245
4 *2489:ZN 6.02289e-05
5 *209:8 0.000471736
6 *209:6 8.75651e-05
7 *2611:A1 *2609:A1 3.56141e-05
8 *2611:A1 *2826:A1 3.83835e-06
9 *2611:A1 *3145:CLK 0.000161672
10 *2862:A1 *2826:A1 8.8425e-05
11 *2862:A1 *2828:A1 5.43087e-05
12 *2862:A1 *2864:A2 0.000106621
13 *2862:A1 *892:8 2.08148e-05
14 *2862:A1 *892:19 1.80934e-05
15 *2862:A1 *892:32 1.99784e-05
16 *209:6 *2490:I 0.00026286
17 *209:6 *3145:CLK 5.83634e-05
18 *3145:D *2611:A1 0
*RES
1 *2489:ZN *209:6 5.336 
2 *209:6 *209:8 0.228 
3 *209:8 *2611:A1 5.716 
4 *209:8 *2862:A1 15.704 
5 *209:6 *2826:B 4.5 
*END

*D_NET *210 0.00565281
*CONN
*I *2826:A1 I *D gf180mcu_fd_sc_mcu7t5v0__aoi21_1
*I *2609:A1 I *D gf180mcu_fd_sc_mcu7t5v0__aoi211_1
*I *2490:ZN O *D gf180mcu_fd_sc_mcu7t5v0__clkinv_1
*CAP
1 *2826:A1 0.000139304
2 *2609:A1 0.00168003
3 *2490:ZN 0
4 *210:4 0.00181933
5 *2609:A1 *2607:A2 9.61582e-05
6 *2609:A1 *2609:A2 0.000134206
7 *2609:A1 *2610:A1 0
8 *2609:A1 *2610:A2 0.000298527
9 *2609:A1 *2826:A2 0
10 *2609:A1 *3000:C2 9.88736e-06
11 *2609:A1 *3145:CLK 0
12 *2609:A1 *3286:I 6.73834e-05
13 *2609:A1 *3287:I 0
14 *2609:A1 *691:6 1.02823e-05
15 *2609:A1 *750:18 0
16 *2609:A1 *750:78 0
17 *2609:A1 *763:50 0.000661907
18 *2609:A1 *913:6 0.000163868
19 *2826:A1 *2828:A1 0.000396904
20 *2611:A1 *2609:A1 3.56141e-05
21 *2611:A1 *2826:A1 3.83835e-06
22 *2862:A1 *2826:A1 8.8425e-05
23 *3145:D *2609:A1 4.71416e-05
*RES
1 *2490:ZN *210:4 4.5 
2 *210:4 *2609:A1 16.888 
3 *210:4 *2826:A1 14.716 
*END

*D_NET *211 0.0030646
*CONN
*I *2598:A1 I *D gf180mcu_fd_sc_mcu7t5v0__aoi211_1
*I *2843:A1 I *D gf180mcu_fd_sc_mcu7t5v0__oai21_1
*I *2844:A1 I *D gf180mcu_fd_sc_mcu7t5v0__aoi21_1
*I *2491:ZN O *D gf180mcu_fd_sc_mcu7t5v0__clkinv_1
*CAP
1 *2598:A1 0.00029865
2 *2843:A1 0.000101446
3 *2844:A1 0.000237517
4 *2491:ZN 0
5 *211:19 0.00045183
6 *211:6 0.000289251
7 *2598:A1 *3140:CLK 2.01673e-05
8 *2598:A1 *568:8 0
9 *2598:A1 *680:49 8.78761e-05
10 *2598:A1 *763:14 7.47646e-05
11 *2598:A1 *798:10 0.000502835
12 *2598:A1 *798:61 7.38643e-05
13 *2598:A1 *798:63 4.58601e-06
14 *2843:A1 *2491:I 2.25107e-05
15 *2843:A1 *3140:CLK 0.000300836
16 *2843:A1 *693:22 0.000147313
17 *2843:A1 *798:10 0.000114072
18 *2844:A1 *2491:I 7.36325e-05
19 *2844:A1 *3140:CLK 0
20 *2844:A1 *568:8 0
21 *2844:A1 *680:49 0.000168421
22 *2844:A1 *763:50 0
23 *211:19 *568:8 0
24 *211:19 *680:49 9.50253e-05
25 *3148:D *2598:A1 0
*RES
1 *2491:ZN *211:6 9 
2 *211:6 *2844:A1 10.976 
3 *211:6 *211:19 0.532 
4 *211:19 *2843:A1 10.368 
5 *211:19 *2598:A1 11.736 
*END

*D_NET *212 0.0219321
*CONN
*I *2773:A3 I *D gf180mcu_fd_sc_mcu7t5v0__and3_1
*I *2520:A2 I *D gf180mcu_fd_sc_mcu7t5v0__nand2_1
*I *2666:A1 I *D gf180mcu_fd_sc_mcu7t5v0__and2_1
*I *2673:A1 I *D gf180mcu_fd_sc_mcu7t5v0__and4_1
*I *2667:A1 I *D gf180mcu_fd_sc_mcu7t5v0__nor2_1
*I *2771:A2 I *D gf180mcu_fd_sc_mcu7t5v0__nand2_1
*I *2778:A4 I *D gf180mcu_fd_sc_mcu7t5v0__and4_1
*I *2492:ZN O *D gf180mcu_fd_sc_mcu7t5v0__clkinv_1
*CAP
1 *2773:A3 0
2 *2520:A2 0.000538642
3 *2666:A1 7.06083e-05
4 *2673:A1 0
5 *2667:A1 8.8575e-05
6 *2771:A2 0
7 *2778:A4 1.48344e-05
8 *2492:ZN 0.000270648
9 *212:68 0.000389757
10 *212:62 0.00122911
11 *212:58 0.00222088
12 *212:29 0.00112865
13 *212:23 0.000723841
14 *212:10 0.000705585
15 *2520:A2 *3011:B1 1.71854e-05
16 *2520:A2 *3069:C 4.66935e-05
17 *2520:A2 *3095:A2 0.00103709
18 *2520:A2 *3095:A3 0.000196843
19 *2520:A2 *656:87 0.000268763
20 *2520:A2 *657:10 3.98682e-05
21 *2520:A2 *707:58 0.000103389
22 *2520:A2 *773:48 3.46377e-05
23 *2520:A2 *800:72 2.20428e-05
24 *2666:A1 *2666:A2 6.76465e-05
25 *2666:A1 *3033:A2 1.75486e-05
26 *2667:A1 *2668:A3 0.000147313
27 *2667:A1 *2669:A2 0.000206341
28 *2667:A1 *2673:A3 0.000512533
29 *2667:A1 *3016:B2 0.000114063
30 *2667:A1 *3025:A2 0.000429161
31 *2667:A1 *336:12 0.000181432
32 *2667:A1 *824:32 3.26302e-05
33 *2667:A1 *835:32 9.52854e-05
34 *2778:A4 *2780:A3 8.55242e-05
35 *212:10 *2769:A2 0
36 *212:10 *2779:A1 0.000166035
37 *212:10 *2838:A1 0.000206333
38 *212:23 *2772:A1 0.000102466
39 *212:23 *2774:A1 5.4634e-05
40 *212:23 *2775:A1 2.97523e-05
41 *212:23 *2779:A2 4.46661e-05
42 *212:23 *3190:CLK 8.76648e-05
43 *212:23 *3368:I 1.91917e-06
44 *212:23 *414:14 0.000143837
45 *212:23 *708:25 0.000264755
46 *212:23 *793:53 7.45328e-07
47 *212:29 *2774:A1 7.02831e-05
48 *212:29 *2774:A2 7.50749e-05
49 *212:29 *3368:I 6.15312e-05
50 *212:29 *467:30 1.5015e-05
51 *212:29 *707:58 0
52 *212:58 *3089:A1 4.9823e-05
53 *212:58 *3109:A1 0.00081862
54 *212:58 *3109:A2 0.000113413
55 *212:58 *3110:B 2.27233e-05
56 *212:58 *3112:B 2.73326e-05
57 *212:58 *467:30 0
58 *212:58 *707:58 0.00187993
59 *212:58 *772:27 1.54365e-05
60 *212:58 *800:46 0.00188026
61 *212:58 *800:59 7.22665e-05
62 *212:62 *2477:I 0.00015433
63 *212:62 *3011:B1 6.55118e-05
64 *212:62 *3011:C 0.00197254
65 *212:62 *3112:A2 0.000311663
66 *212:62 *3112:C 0.000250276
67 *212:62 *3164:CLK 0.000210233
68 *212:62 *696:10 0.000136691
69 *212:62 *696:12 0.000405633
70 *212:62 *696:14 8.56396e-05
71 *212:62 *800:72 6.7889e-05
72 *212:68 *2666:A2 0.000143839
73 *212:68 *2672:A1 2.56734e-05
74 *212:68 *2673:A3 0.000190571
75 *212:68 *2673:A4 0.000134206
76 *212:68 *3033:A2 9.21171e-05
77 *212:68 *824:32 7.35289e-05
78 *3190:D *2778:A4 2.22657e-05
79 *3190:D *212:23 3.04082e-05
80 *3259:D *212:58 0.000317494
*RES
1 *2492:ZN *212:10 15.248 
2 *212:10 *2778:A4 4.728 
3 *212:10 *212:23 3.876 
4 *212:23 *212:29 2.508 
5 *212:29 *2771:A2 4.5 
6 *212:29 *212:58 33.672 
7 *212:58 *212:62 14.76 
8 *212:62 *212:68 7.388 
9 *212:68 *2667:A1 11.584 
10 *212:68 *2673:A1 9 
11 *212:62 *2666:A1 5.032 
12 *212:58 *2520:A2 14.624 
13 *212:23 *2773:A3 4.5 
*END

*D_NET *213 0.00340153
*CONN
*I *2727:A1 I *D gf180mcu_fd_sc_mcu7t5v0__nor4_1
*I *2584:A1 I *D gf180mcu_fd_sc_mcu7t5v0__aoi211_1
*I *2493:ZN O *D gf180mcu_fd_sc_mcu7t5v0__clkinv_1
*CAP
1 *2727:A1 0.000292489
2 *2584:A1 0.000580373
3 *2493:ZN 3.28034e-05
4 *213:6 0.000905665
5 *2584:A1 *2577:A1 0.000239596
6 *2584:A1 *2578:A1 0.000135941
7 *2584:A1 *2584:B 8.8425e-05
8 *2584:A1 *2585:A1 0.000183443
9 *2584:A1 *2588:A1 9.85832e-05
10 *2584:A1 *2590:A2 9.61824e-05
11 *2584:A1 *3132:CLK 3.42838e-05
12 *2584:A1 *370:8 0.000209369
13 *2584:A1 *755:16 0
14 *2584:A1 *796:23 0.000261987
15 *2584:A1 *836:8 0.000147305
16 *2727:A1 *2585:A1 2.88187e-05
17 *2727:A1 *2587:A2 0
18 *2727:A1 *370:8 3.40295e-05
19 *2727:A1 *370:15 2.57058e-06
20 *3135:D *2584:A1 2.96621e-05
*RES
1 *2493:ZN *213:6 4.728 
2 *213:6 *2584:A1 19.808 
3 *213:6 *2727:A1 6.476 
*END

*D_NET *214 0.00188188
*CONN
*I *2582:A1 I *D gf180mcu_fd_sc_mcu7t5v0__aoi211_1
*I *2727:A2 I *D gf180mcu_fd_sc_mcu7t5v0__nor4_1
*I *2494:ZN O *D gf180mcu_fd_sc_mcu7t5v0__clkinv_1
*CAP
1 *2582:A1 0.000289668
2 *2727:A2 0.000194327
3 *2494:ZN 0
4 *214:6 0.000483995
5 *2582:A1 *2582:C 0.00021548
6 *2582:A1 *2587:A3 0
7 *2582:A1 *215:10 1.12495e-05
8 *2582:A1 *691:34 0
9 *2582:A1 *691:40 0
10 *2727:A2 *2494:I 0.000469575
11 *2727:A2 *2721:A2 4.07337e-05
12 *2727:A2 *2727:A3 0.000139333
13 *2727:A2 *215:10 2.2499e-05
14 *2727:A2 *215:20 1.5015e-05
*RES
1 *2494:ZN *214:6 9 
2 *214:6 *2727:A2 11.128 
3 *214:6 *2582:A1 11.052 
*END

*D_NET *215 0.00282949
*CONN
*I *2580:A1 I *D gf180mcu_fd_sc_mcu7t5v0__aoi211_1
*I *2721:A1 I *D gf180mcu_fd_sc_mcu7t5v0__nor2_1
*I *2720:A1 I *D gf180mcu_fd_sc_mcu7t5v0__and2_1
*I *2727:A3 I *D gf180mcu_fd_sc_mcu7t5v0__nor4_1
*I *2495:ZN O *D gf180mcu_fd_sc_mcu7t5v0__clkinv_1
*CAP
1 *2580:A1 0.000265982
2 *2721:A1 3.52721e-05
3 *2720:A1 0
4 *2727:A3 7.26781e-05
5 *2495:ZN 0
6 *215:20 0.000242231
7 *215:10 0.000429021
8 *215:4 0.000490178
9 *2580:A1 *2495:I 0.000111867
10 *2580:A1 *2580:A2 0
11 *2580:A1 *227:18 0.000139257
12 *2580:A1 *691:40 0
13 *2580:A1 *736:22 0.000130983
14 *2580:A1 *760:84 6.04444e-06
15 *2721:A1 *2722:A3 2.49331e-05
16 *2727:A3 *2722:A1 0
17 *2727:A3 *370:15 8.18282e-05
18 *2727:A3 *834:8 0
19 *215:10 *2494:I 0.000127688
20 *215:10 *2495:I 3.73535e-05
21 *215:10 *2722:A3 0
22 *215:10 *691:40 6.58315e-05
23 *215:20 *2494:I 6.38438e-05
24 *215:20 *2722:A1 0
25 *215:20 *2722:A2 0.000126893
26 *215:20 *2722:A3 7.32209e-05
27 *215:20 *374:12 8.15645e-05
28 *215:20 *691:40 3.47244e-05
29 *2582:A1 *215:10 1.12495e-05
30 *2727:A2 *2727:A3 0.000139333
31 *2727:A2 *215:10 2.2499e-05
32 *2727:A2 *215:20 1.5015e-05
*RES
1 *2495:ZN *215:4 4.5 
2 *215:4 *215:10 6.324 
3 *215:10 *215:20 6.02 
4 *215:20 *2727:A3 5.336 
5 *215:20 *2720:A1 4.5 
6 *215:10 *2721:A1 9.228 
7 *215:4 *2580:A1 16.084 
*END

*D_NET *216 0.008183
*CONN
*I *2699:A1 I *D gf180mcu_fd_sc_mcu7t5v0__nor4_1
*I *2551:A1 I *D gf180mcu_fd_sc_mcu7t5v0__aoi211_1
*I *2689:A1 I *D gf180mcu_fd_sc_mcu7t5v0__nor3_1
*I *2496:ZN O *D gf180mcu_fd_sc_mcu7t5v0__clkinv_1
*CAP
1 *2699:A1 0.000174142
2 *2551:A1 0.000825239
3 *2689:A1 6.03837e-06
4 *2496:ZN 7.27633e-05
5 *216:19 0.00112418
6 *216:10 0.000203599
7 *2551:A1 *2549:A1 0
8 *2551:A1 *2555:A1 0.000201957
9 *2551:A1 *2558:A1 0
10 *2551:A1 *2560:A2 0.000172924
11 *2551:A1 *2699:A4 6.14386e-05
12 *2551:A1 *2982:B2 0.00163254
13 *2551:A1 *3126:CLK 0.00169061
14 *2551:A1 *689:43 0
15 *2551:A1 *689:45 0
16 *2551:A1 *825:23 0
17 *2551:A1 *870:8 2.22657e-05
18 *2689:A1 *217:18 0.000147305
19 *2689:A1 *689:57 7.50749e-05
20 *2699:A1 *217:18 9.88736e-06
21 *2699:A1 *689:45 2.29636e-05
22 *2699:A1 *689:53 5.76373e-06
23 *216:10 *2699:A3 8.78761e-05
24 *216:10 *217:14 0.000220336
25 *216:10 *348:12 0.00017961
26 *216:10 *785:64 9.10381e-06
27 *216:19 *2699:A3 0.000477559
28 *216:19 *2699:A4 2.82366e-05
29 *216:19 *217:18 0.00069628
30 *216:19 *689:57 3.53068e-05
31 *216:19 *825:23 0
*RES
1 *2496:ZN *216:10 14.944 
2 *216:10 *2689:A1 4.88 
3 *216:10 *216:19 2.356 
4 *216:19 *2551:A1 14.304 
5 *216:19 *2699:A1 5.564 
*END

*D_NET *217 0.00795026
*CONN
*I *2686:A1 I *D gf180mcu_fd_sc_mcu7t5v0__nor2_1
*I *2689:A2 I *D gf180mcu_fd_sc_mcu7t5v0__nor3_1
*I *2699:A2 I *D gf180mcu_fd_sc_mcu7t5v0__nor4_1
*I *2549:A1 I *D gf180mcu_fd_sc_mcu7t5v0__aoi211_1
*I *2497:ZN O *D gf180mcu_fd_sc_mcu7t5v0__clkinv_1
*CAP
1 *2686:A1 0
2 *2689:A2 0
3 *2699:A2 0
4 *2549:A1 0.000881828
5 *2497:ZN 0.000129605
6 *217:18 0.00110058
7 *217:14 0.000277022
8 *217:10 0.000187875
9 *2549:A1 *2553:A1 0
10 *2549:A1 *2554:A2 0
11 *2549:A1 *2554:A3 0
12 *2549:A1 *2558:A1 0.000469571
13 *2549:A1 *2698:A3 2.17248e-05
14 *2549:A1 *3126:CLK 0
15 *2549:A1 *3313:I 0.000514804
16 *2549:A1 *359:8 4.7151e-05
17 *2549:A1 *795:14 2.9378e-06
18 *2549:A1 *825:23 0.000369763
19 *2549:A1 *847:36 0.000199393
20 *2549:A1 *870:8 1.15244e-05
21 *217:10 *2496:I 0.00034938
22 *217:10 *2497:I 0.000307139
23 *217:10 *2690:A2 0.000254094
24 *217:10 *348:10 7.48974e-05
25 *217:10 *785:38 0.000279004
26 *217:10 *785:49 8.10706e-06
27 *217:10 *845:8 6.64501e-05
28 *217:14 *2496:I 0.000412903
29 *217:14 *2690:A2 0.000723669
30 *217:14 *348:12 8.05328e-06
31 *217:14 *785:64 2.92612e-05
32 *217:18 *2689:A3 0.000104697
33 *217:18 *2690:A3 1.27895e-05
34 *217:18 *689:53 0
35 *2551:A1 *2549:A1 0
36 *2689:A1 *217:18 0.000147305
37 *2699:A1 *217:18 9.88736e-06
38 *3171:D *217:18 3.22317e-05
39 *216:10 *217:14 0.000220336
40 *216:19 *217:18 0.00069628
*RES
1 *2497:ZN *217:10 11.432 
2 *217:10 *217:14 6.704 
3 *217:14 *217:18 2.432 
4 *217:18 *2549:A1 20.492 
5 *217:18 *2699:A2 4.5 
6 *217:14 *2689:A2 4.5 
7 *217:10 *2686:A1 9 
*END

*D_NET *218 0.00273604
*CONN
*I *2931:A1 I *D gf180mcu_fd_sc_mcu7t5v0__aoi211_1
*I *2821:A2 I *D gf180mcu_fd_sc_mcu7t5v0__and2_1
*I *2823:A2 I *D gf180mcu_fd_sc_mcu7t5v0__nor2_1
*I *2498:ZN O *D gf180mcu_fd_sc_mcu7t5v0__clkinv_1
*CAP
1 *2931:A1 0
2 *2821:A2 0.000133813
3 *2823:A2 7.80692e-05
4 *2498:ZN 0.000219283
5 *218:19 0.000133813
6 *218:8 0.000297352
7 *2821:A2 *2931:A2 1.97747e-05
8 *2821:A2 *2933:A1 0.000141888
9 *2821:A2 *2935:C 2.72068e-05
10 *2821:A2 *241:27 0.000276453
11 *2823:A2 *2653:A1 0.000331102
12 *2823:A2 *2823:A1 2.47642e-05
13 *2823:A2 *2929:A1 0.000244694
14 *2823:A2 *2933:A1 1.72827e-05
15 *2823:A2 *872:30 5.43087e-05
16 *218:8 *2929:A1 0.000117908
17 *218:8 *334:10 0.000186306
18 *218:8 *805:49 8.84331e-05
19 *218:8 *872:10 0
20 *218:8 *872:30 8.78761e-05
21 *3229:D *2821:A2 0.000255714
*RES
1 *2498:ZN *218:8 11.204 
2 *218:8 *2823:A2 10.292 
3 *218:8 *218:19 4.5 
4 *218:19 *2821:A2 6.476 
5 *218:19 *2931:A1 4.5 
*END

*D_NET *219 0.00267162
*CONN
*I *2941:A1 I *D gf180mcu_fd_sc_mcu7t5v0__nand2_1
*I *2940:A2 I *D gf180mcu_fd_sc_mcu7t5v0__nand3_1
*I *2499:ZN O *D gf180mcu_fd_sc_mcu7t5v0__clkinv_1
*CAP
1 *2941:A1 0.000182811
2 *2940:A2 0.000114189
3 *2499:ZN 0.000434695
4 *219:14 0.000731695
5 *2940:A2 *2943:A1 0.000113292
6 *2940:A2 *545:14 2.70169e-05
7 *2941:A1 *2941:A2 3.19826e-05
8 *2941:A1 *2942:A1 0
9 *2941:A1 *2943:A1 2.6126e-05
10 *2941:A1 *2943:A2 0.000103381
11 *2941:A1 *2951:A1 0
12 *2941:A1 *2962:A1 2.57058e-06
13 *2941:A1 *791:17 2.25184e-05
14 *2941:A1 *791:30 0.000203407
15 *2941:A1 *927:8 4.2318e-06
16 *219:14 *2930:A2 0
17 *219:14 *2943:A1 6.879e-05
18 *219:14 *3318:I 0.000199573
19 *219:14 *535:10 3.43264e-05
20 *219:14 *545:14 2.69281e-06
21 *219:14 *545:32 4.51089e-05
22 *219:14 *791:17 0
23 *219:14 *927:8 0.000323208
*RES
1 *2499:ZN *219:14 12.648 
2 *219:14 *2940:A2 10.14 
3 *219:14 *2941:A1 11.204 
*END

*D_NET *220 0.000733751
*CONN
*I *2838:A2 I *D gf180mcu_fd_sc_mcu7t5v0__nand2_1
*I *2500:ZN O *D gf180mcu_fd_sc_mcu7t5v0__clkinv_1
*CAP
1 *2838:A2 0.000256113
2 *2500:ZN 0.000256113
3 *2838:A2 *2665:A2 0.000206425
4 *2838:A2 *3369:I 1.51002e-05
*RES
1 *2500:ZN *2838:A2 19.824 
*END

*D_NET *221 0.00456934
*CONN
*I *2984:A1 I *D gf180mcu_fd_sc_mcu7t5v0__nand2_1
*I *3050:A1 I *D gf180mcu_fd_sc_mcu7t5v0__and2_1
*I *3018:A1 I *D gf180mcu_fd_sc_mcu7t5v0__nand2_1
*I *3034:A1 I *D gf180mcu_fd_sc_mcu7t5v0__nand2_1
*I *3043:A1 I *D gf180mcu_fd_sc_mcu7t5v0__nand2_1
*I *2994:A1 I *D gf180mcu_fd_sc_mcu7t5v0__nand2_1
*I *3026:A1 I *D gf180mcu_fd_sc_mcu7t5v0__nand2_1
*I *2501:ZN O *D gf180mcu_fd_sc_mcu7t5v0__clkinv_1
*CAP
1 *2984:A1 3.96039e-05
2 *3050:A1 0
3 *3018:A1 0
4 *3034:A1 3.28034e-05
5 *3043:A1 0.000214308
6 *2994:A1 7.65413e-05
7 *3026:A1 9.40988e-05
8 *2501:ZN 0.000112809
9 *221:59 0.000199079
10 *221:31 0.000323653
11 *221:29 0.000161474
12 *221:27 0.000290608
13 *221:14 0.00032514
14 *221:12 0.000308584
15 *2984:A1 *2988:A1 0.000168561
16 *2984:A1 *634:16 0.000269857
17 *3026:A1 *3026:A2 8.69862e-05
18 *3043:A1 *2546:A2 8.70376e-06
19 *3043:A1 *2996:A1 9.26196e-05
20 *3043:A1 *3034:A2 0.00013063
21 *3043:A1 *3036:A1 2.36452e-05
22 *3043:A1 *696:29 0
23 *3043:A1 *736:46 6.80238e-06
24 *221:12 *2966:A3 1.03863e-05
25 *221:12 *3247:CLK 0.000134622
26 *221:12 *3274:CLK 5.37016e-05
27 *221:12 *3376:I 0.000317938
28 *221:12 *696:40 1.85312e-05
29 *221:12 *736:57 3.08902e-05
30 *221:14 *3026:A2 6.96334e-06
31 *221:14 *3247:CLK 4.21577e-06
32 *221:27 *2546:A2 0
33 *221:27 *3026:A2 1.44832e-05
34 *221:27 *3247:CLK 5.69306e-05
35 *221:27 *616:22 0.000372137
36 *221:27 *736:46 7.21225e-05
37 *221:29 *2546:A2 0
38 *221:29 *3020:A1 3.92048e-05
39 *221:29 *736:46 2.80216e-05
40 *221:59 *2546:A2 8.06319e-06
41 *221:59 *2988:A1 0.000147313
42 *221:59 *3247:CLK 7.58195e-05
43 *3275:I *2984:A1 2.23385e-05
44 *3275:I *221:59 0.000189147
*RES
1 *2501:ZN *221:12 14.716 
2 *221:12 *221:14 0.228 
3 *221:14 *3026:A1 5.108 
4 *221:14 *221:27 1.976 
5 *221:27 *221:29 0.684 
6 *221:29 *221:31 0.228 
7 *221:31 *2994:A1 5.032 
8 *221:31 *3043:A1 6.096 
9 *221:29 *3034:A1 4.728 
10 *221:27 *3018:A1 4.5 
11 *221:12 *221:59 1.596 
12 *221:59 *3050:A1 4.5 
13 *221:59 *2984:A1 14.412 
*END

*D_NET *222 0.0021474
*CONN
*I *2508:A1 I *D gf180mcu_fd_sc_mcu7t5v0__nand2_1
*I *2969:A1 I *D gf180mcu_fd_sc_mcu7t5v0__or2_1
*I *2502:ZN O *D gf180mcu_fd_sc_mcu7t5v0__clkinv_1
*CAP
1 *2508:A1 9.03459e-05
2 *2969:A1 0.000106031
3 *2502:ZN 0.000109276
4 *222:8 0.000305653
5 *2508:A1 *2509:A2 3.45972e-05
6 *2508:A1 *3047:A1 0.00051482
7 *2508:A1 *735:23 8.59272e-06
8 *2508:A1 *735:34 5.22633e-05
9 *2508:A1 *774:26 1.11891e-05
10 *2969:A1 *2969:A2 0.000134622
11 *2969:A1 *565:35 0.000100612
12 *2969:A1 *575:8 6.9767e-05
13 *2969:A1 *575:15 1.20079e-05
14 *2969:A1 *776:22 0.000187647
15 *222:8 *3047:A1 0.000117908
16 *222:8 *3379:I 7.6687e-05
17 *222:8 *565:31 0.000142801
18 *222:8 *735:23 7.25782e-05
*RES
1 *2502:ZN *222:8 10.14 
2 *222:8 *2969:A1 10.368 
3 *222:8 *2508:A1 10.292 
*END

*D_NET *223 0.00161663
*CONN
*I *2970:A1 I *D gf180mcu_fd_sc_mcu7t5v0__nand4_1
*I *2507:A1 I *D gf180mcu_fd_sc_mcu7t5v0__nand4_1
*I *2503:ZN O *D gf180mcu_fd_sc_mcu7t5v0__clkinv_1
*CAP
1 *2970:A1 0
2 *2507:A1 0.000380442
3 *2503:ZN 0.000124955
4 *223:6 0.000505397
5 *2507:A1 *2504:I 3.82104e-05
6 *2507:A1 *2507:A2 2.05156e-05
7 *2507:A1 *2970:A2 0.000440339
8 *2507:A1 *2973:A2 3.25235e-05
9 *2507:A1 *724:16 0
10 *223:6 *2973:A2 7.42484e-05
*RES
1 *2503:ZN *223:6 5.336 
2 *223:6 *2507:A1 7.616 
3 *223:6 *2970:A1 4.5 
*END

*D_NET *224 0.00207275
*CONN
*I *2970:A2 I *D gf180mcu_fd_sc_mcu7t5v0__nand4_1
*I *2504:ZN O *D gf180mcu_fd_sc_mcu7t5v0__clkinv_1
*CAP
1 *2970:A2 0.0002441
2 *2504:ZN 0.0002441
3 *2970:A2 *2504:I 8.48259e-05
4 *2970:A2 *2507:A2 0.000193933
5 *2970:A2 *2973:A2 0.000369754
6 *2970:A2 *735:12 0
7 *2970:A2 *746:12 0.000495697
8 *2507:A1 *2970:A2 0.000440339
*RES
1 *2504:ZN *2970:A2 21.496 
*END

*D_NET *225 0.00112785
*CONN
*I *2972:A1 I *D gf180mcu_fd_sc_mcu7t5v0__nand2_1
*I *2505:ZN O *D gf180mcu_fd_sc_mcu7t5v0__clkinv_1
*CAP
1 *2972:A1 0.000348588
2 *2505:ZN 0.000348588
3 *2972:A1 *2505:I 2.15925e-05
4 *2972:A1 *565:8 4.44366e-05
5 *2972:A1 *567:20 0.00036465
*RES
1 *2505:ZN *2972:A1 20.356 
*END

*D_NET *226 0.00385368
*CONN
*I *2972:A2 I *D gf180mcu_fd_sc_mcu7t5v0__nand2_1
*I *2970:A4 I *D gf180mcu_fd_sc_mcu7t5v0__nand4_1
*I *2507:A4 I *D gf180mcu_fd_sc_mcu7t5v0__nand4_1
*I *2506:ZN O *D gf180mcu_fd_sc_mcu7t5v0__nor3_1
*CAP
1 *2972:A2 0.000190044
2 *2970:A4 0
3 *2507:A4 0.00028904
4 *2506:ZN 0.000258933
5 *226:12 0.00028904
6 *226:10 0.000448977
7 *2507:A4 *2506:A1 0.00021689
8 *2507:A4 *2506:A3 0
9 *2507:A4 *2970:A3 0.000166315
10 *2507:A4 *2973:A2 2.23385e-05
11 *2507:A4 *768:12 4.50449e-05
12 *2507:A4 *768:19 7.56027e-05
13 *2972:A2 *2505:I 0
14 *2972:A2 *565:8 0.000140696
15 *2972:A2 *568:8 6.01597e-05
16 *226:10 *2506:A1 8.0352e-06
17 *226:10 *2506:A2 0.000314174
18 *226:10 *2506:A3 0.000741951
19 *226:10 *568:8 3.16765e-06
20 *226:10 *757:10 0
21 *3334:I *2507:A4 0.000142209
22 *3348:I *2507:A4 0.000441063
*RES
1 *2506:ZN *226:10 12.04 
2 *226:10 *226:12 4.5 
3 *226:12 *2507:A4 7.92 
4 *226:12 *2970:A4 4.5 
5 *226:10 *2972:A2 10.292 
*END

*D_NET *227 0.0144639
*CONN
*I *2986:A3 I *D gf180mcu_fd_sc_mcu7t5v0__nor3_1
*I *2965:B I *D gf180mcu_fd_sc_mcu7t5v0__aoi21_1
*I *2509:A1 I *D gf180mcu_fd_sc_mcu7t5v0__nor2_1
*I *2985:A1 I *D gf180mcu_fd_sc_mcu7t5v0__nor2_1
*I *2507:ZN O *D gf180mcu_fd_sc_mcu7t5v0__nand4_1
*CAP
1 *2986:A3 0
2 *2965:B 4.0351e-06
3 *2509:A1 0.000276399
4 *2985:A1 0
5 *2507:ZN 0.00169855
6 *227:32 0.00036724
7 *227:26 0.000246225
8 *227:18 0.0018499
9 *2509:A1 *2975:I 9.88736e-06
10 *2509:A1 *2993:A1 0.000108629
11 *2509:A1 *3025:A1 0.000228549
12 *2509:A1 *3047:A1 0.000503378
13 *2509:A1 *3047:A2 0.000269857
14 *2509:A1 *229:12 9.0265e-05
15 *2509:A1 *634:16 4.86736e-05
16 *2509:A1 *735:64 5.46321e-06
17 *2509:A1 *775:20 1.11891e-05
18 *2965:B *2986:A1 3.00299e-05
19 *2965:B *3017:A1 8.55327e-05
20 *227:18 *2581:A1 0.000257029
21 *227:18 *2724:B 0.000154451
22 *227:18 *2982:A1 0.000216995
23 *227:18 *2984:A2 0
24 *227:18 *2991:B2 0.000227281
25 *227:18 *2992:A1 4.3486e-05
26 *227:18 *2992:C2 0.000977698
27 *227:18 *2993:A2 0.000135777
28 *227:18 *3000:A1 0.000716788
29 *227:18 *3001:A1 0.000843502
30 *227:18 *3001:A2 0.00179697
31 *227:18 *3017:A1 0
32 *227:18 *3025:A2 0
33 *227:18 *3376:I 9.026e-05
34 *227:18 *691:44 0.000104671
35 *227:18 *691:50 1.31662e-05
36 *227:18 *735:12 0.00106994
37 *227:18 *736:22 0
38 *227:18 *760:84 0
39 *227:18 *768:12 1.91917e-06
40 *227:18 *777:10 0.00064402
41 *227:18 *783:20 3.0428e-05
42 *227:26 *2986:A1 0.000133171
43 *227:26 *2991:B2 0
44 *227:26 *3017:A1 0.000406112
45 *227:26 *3025:A2 0.00032652
46 *227:26 *3376:I 2.6126e-05
47 *227:32 *2985:A2 2.9909e-05
48 *227:32 *2993:A1 0.000200922
49 *227:32 *229:12 0
50 *227:32 *560:14 4.36821e-05
51 *2580:A1 *227:18 0.000139257
*RES
1 *2507:ZN *227:18 36.832 
2 *227:18 *227:26 10.976 
3 *227:26 *227:32 9.836 
4 *227:32 *2985:A1 4.5 
5 *227:32 *2509:A1 16.996 
6 *227:26 *2965:B 4.728 
7 *227:18 *2986:A3 4.5 
*END

*D_NET *228 0.00456834
*CONN
*I *2509:A2 I *D gf180mcu_fd_sc_mcu7t5v0__nor2_1
*I *2980:A1 I *D gf180mcu_fd_sc_mcu7t5v0__nor2_1
*I *2976:A1 I *D gf180mcu_fd_sc_mcu7t5v0__nor3_1
*I *2508:ZN O *D gf180mcu_fd_sc_mcu7t5v0__nand2_1
*CAP
1 *2509:A2 4.14576e-05
2 *2980:A1 4.36126e-05
3 *2976:A1 0.000303492
4 *2508:ZN 1.073e-05
5 *228:12 0.000503775
6 *228:6 0.000208858
7 *2509:A2 *3047:A1 8.05328e-06
8 *2509:A2 *735:34 8.15645e-05
9 *2509:A2 *735:49 0.000135941
10 *2509:A2 *735:64 0.000201325
11 *2509:A2 *774:26 0.000155847
12 *2509:A2 *775:20 3.17618e-05
13 *2976:A1 *2978:A2 0.000331102
14 *2976:A1 *2982:C1 4.58601e-06
15 *2976:A1 *2983:A2 1.14482e-05
16 *2976:A1 *2984:A2 7.76942e-05
17 *2976:A1 *566:10 0.000401224
18 *2976:A1 *569:12 0.000206333
19 *2976:A1 *574:16 5.38563e-06
20 *2976:A1 *724:39 2.23783e-05
21 *2976:A1 *775:26 6.96961e-05
22 *2976:A1 *776:22 0.000137785
23 *2976:A1 *783:20 0.000164466
24 *2980:A1 *566:10 0.000193933
25 *2980:A1 *575:8 4.63008e-05
26 *228:6 *2508:A2 2.05156e-05
27 *228:6 *764:18 0.000123561
28 *228:6 *774:26 3.73627e-05
29 *228:12 *2981:A2 0.000313734
30 *228:12 *2984:A2 5.33324e-05
31 *228:12 *724:39 0.000164555
32 *228:12 *764:18 0.000403738
33 *228:12 *774:26 1.81922e-05
34 *2508:A1 *2509:A2 3.45972e-05
*RES
1 *2508:ZN *228:6 4.88 
2 *228:6 *228:12 6.628 
3 *228:12 *2976:A1 12.496 
4 *228:12 *2980:A1 9.532 
5 *228:6 *2509:A2 14.488 
*END

*D_NET *229 0.0225446
*CONN
*I *3039:C2 I *D gf180mcu_fd_sc_mcu7t5v0__aoi222_1
*I *3364:I I *D gf180mcu_fd_sc_mcu7t5v0__buf_2
*I *3019:A2 I *D gf180mcu_fd_sc_mcu7t5v0__aoi222_1
*I *2517:A1 I *D gf180mcu_fd_sc_mcu7t5v0__nand2_1
*I *3003:A2 I *D gf180mcu_fd_sc_mcu7t5v0__aoi221_1
*I *3011:A2 I *D gf180mcu_fd_sc_mcu7t5v0__aoi221_1
*I *2509:ZN O *D gf180mcu_fd_sc_mcu7t5v0__nor2_1
*CAP
1 *3039:C2 0.000420019
2 *3364:I 0.000106825
3 *3019:A2 0.000688785
4 *2517:A1 0
5 *3003:A2 0.000193156
6 *3011:A2 5.44216e-05
7 *2509:ZN 0.000865737
8 *229:63 0.000596259
9 *229:50 0.000351693
10 *229:20 0.00101673
11 *229:12 0.00176591
12 *3003:A2 *3003:A1 8.55242e-05
13 *3003:A2 *3011:B1 0.000444436
14 *3003:A2 *562:16 0.00034033
15 *3003:A2 *563:18 0.000772516
16 *3011:A2 *3011:B1 8.8425e-05
17 *3011:A2 *3044:A1 1.18942e-05
18 *3011:A2 *696:12 0.000118153
19 *3019:A2 *3019:A1 0.000287483
20 *3019:A2 *3113:A1 5.76063e-06
21 *3019:A2 *3114:B 2.21675e-05
22 *3019:A2 *3355:I 0.000169363
23 *3019:A2 *237:12 3.73627e-05
24 *3019:A2 *701:42 0.000193907
25 *3019:A2 *767:33 0
26 *3019:A2 *773:8 8.80153e-05
27 *3039:C2 *3039:C1 0
28 *3039:C2 *3102:A1 0.000394617
29 *3039:C2 *3104:A1 0.000308699
30 *3039:C2 *3253:CLK 0.000262996
31 *3039:C2 *616:22 0.00130405
32 *3039:C2 *640:12 0.000206341
33 *3039:C2 *640:80 0.000428666
34 *3039:C2 *657:31 0.000462418
35 *3039:C2 *682:14 0.000115621
36 *3039:C2 *729:10 4.31196e-05
37 *3039:C2 *729:16 0.000277013
38 *3364:I *3083:A3 7.83779e-05
39 *3364:I *236:54 0.00062586
40 *3364:I *656:10 0.000106165
41 *3364:I *656:19 1.97166e-05
42 *3364:I *792:34 2.96621e-05
43 *229:12 *2985:A2 0.000104779
44 *229:12 *3047:A2 0.00013979
45 *229:12 *3048:A2 0.000496461
46 *229:12 *3053:A1 0.000235573
47 *229:12 *232:8 0.000516983
48 *229:12 *580:12 0.000523262
49 *229:12 *735:64 7.9584e-05
50 *229:12 *803:27 0
51 *229:20 *2967:A1 0.000965256
52 *229:20 *2967:A2 3.00299e-05
53 *229:20 *2968:A1 6.09298e-06
54 *229:20 *3011:A1 0
55 *229:20 *3011:B2 2.96621e-05
56 *229:20 *3011:C 2.92943e-05
57 *229:20 *3012:A2 8.71765e-05
58 *229:20 *3048:A2 7.98484e-05
59 *229:20 *3048:B1 2.33043e-05
60 *229:20 *3048:B2 4.22854e-06
61 *229:20 *3376:I 5.94054e-05
62 *229:20 *232:8 0.000393842
63 *229:20 *562:16 9.84466e-05
64 *229:20 *563:10 0.000540237
65 *229:50 *2516:A2 7.95952e-05
66 *229:50 *2988:A1 0.0012334
67 *229:50 *3048:A1 0.000698522
68 *229:50 *3048:B1 3.28611e-05
69 *229:50 *236:25 0.000134146
70 *229:50 *236:34 9.52854e-05
71 *229:63 *2988:A1 0.00044372
72 *229:63 *3312:I 7.53852e-05
73 *229:63 *236:34 0.0003377
74 *229:63 *236:45 0.000260709
75 *229:63 *236:54 0.00100471
76 *229:63 *237:12 4.21132e-05
77 *229:63 *701:42 4.94368e-05
78 *2509:A1 *229:12 9.0265e-05
79 *3248:D *229:20 0
80 *3267:D *3003:A2 9.20963e-05
81 *3267:D *3011:A2 4.32304e-05
82 *227:32 *229:12 0
*RES
1 *2509:ZN *229:12 22.316 
2 *229:12 *229:20 11.872 
3 *229:20 *3011:A2 9.836 
4 *229:20 *3003:A2 12.572 
5 *229:12 *229:50 8.376 
6 *229:50 *2517:A1 9 
7 *229:50 *229:63 8.908 
8 *229:63 *3019:A2 7.464 
9 *229:63 *3364:I 15.324 
10 *3019:A2 *3039:C2 34.22 
*END

*D_NET *230 0.016704
*CONN
*I *2525:A2 I *D gf180mcu_fd_sc_mcu7t5v0__oai32_1
*I *2511:I I *D gf180mcu_fd_sc_mcu7t5v0__clkinv_1
*I *2513:A2 I *D gf180mcu_fd_sc_mcu7t5v0__or2_1
*I *3052:A2 I *D gf180mcu_fd_sc_mcu7t5v0__nand2_1
*I *2512:A2 I *D gf180mcu_fd_sc_mcu7t5v0__nor2_1
*I *3048:A2 I *D gf180mcu_fd_sc_mcu7t5v0__aoi22_1
*I *2510:ZN O *D gf180mcu_fd_sc_mcu7t5v0__nand2_1
*CAP
1 *2525:A2 0
2 *2511:I 0
3 *2513:A2 0
4 *3052:A2 0.000200558
5 *2512:A2 0
6 *3048:A2 0.000355331
7 *2510:ZN 0.000447196
8 *230:30 0.000533757
9 *230:28 0.00066763
10 *230:26 0.00119235
11 *230:20 0.00139416
12 *230:14 0.000937653
13 *3048:A2 *3015:C2 4.724e-05
14 *3048:A2 *3049:A2 3.26422e-05
15 *3048:A2 *3053:A2 0.000422015
16 *3048:A2 *3053:B 1.83229e-05
17 *3048:A2 *232:8 0.000149022
18 *3048:A2 *803:25 4.32371e-05
19 *3048:A2 *803:27 1.28891e-05
20 *3048:A2 *803:51 0.000147313
21 *3048:A2 *803:58 0.000116414
22 *3052:A2 *3365:I 0.000209963
23 *3052:A2 *680:31 0.000273341
24 *3052:A2 *738:10 0.000191702
25 *230:14 *2510:A1 0.000532013
26 *230:14 *2510:A2 9.60518e-06
27 *230:14 *2526:A1 5.14116e-06
28 *230:14 *2526:A2 0.000574455
29 *230:14 *702:10 0.00101861
30 *230:14 *702:16 0.000145131
31 *230:14 *703:12 0.000216296
32 *230:14 *805:22 4.0581e-05
33 *230:14 *805:43 0
34 *230:20 *2475:I 0.000250586
35 *230:20 *2524:A2 0.00012531
36 *230:20 *2525:A3 0.000269857
37 *230:20 *3105:A1 0.000111499
38 *230:20 *3312:I 0
39 *230:20 *702:16 0.000538158
40 *230:20 *702:35 0.00221371
41 *230:20 *767:114 0.000405556
42 *230:20 *767:131 8.27523e-05
43 *230:20 *805:43 0
44 *230:26 *3083:A1 0
45 *230:26 *3105:A1 0.000470541
46 *230:26 *3312:I 0
47 *230:26 *3326:I 0
48 *230:26 *239:12 0.000164563
49 *230:26 *243:16 0.0005581
50 *230:26 *701:16 3.19854e-05
51 *230:26 *803:10 0
52 *230:28 *3015:C2 0.000145137
53 *230:28 *3326:I 0
54 *230:28 *803:10 0
55 *230:28 *803:25 0.000164336
56 *230:30 *3015:C2 0.000171881
57 *230:30 *803:25 0.000197335
58 *2521:A2 *230:26 0.000140416
59 *3248:D *3048:A2 5.00706e-05
60 *3257:D *230:26 7.95952e-05
61 *3340:I *230:14 2.17248e-05
62 *229:12 *3048:A2 0.000496461
63 *229:20 *3048:A2 7.98484e-05
*RES
1 *2510:ZN *230:14 15.232 
2 *230:14 *230:20 12.708 
3 *230:20 *230:26 12.1 
4 *230:26 *230:28 2.508 
5 *230:28 *230:30 2.204 
6 *230:30 *3048:A2 13.256 
7 *230:30 *2512:A2 9 
8 *230:28 *3052:A2 11.508 
9 *230:26 *2513:A2 9 
10 *230:20 *2511:I 4.5 
11 *230:14 *2525:A2 9 
*END

*D_NET *231 0.000922949
*CONN
*I *3105:B2 I *D gf180mcu_fd_sc_mcu7t5v0__oai22_1
*I *2511:ZN O *D gf180mcu_fd_sc_mcu7t5v0__clkinv_1
*CAP
1 *3105:B2 8.33231e-05
2 *2511:ZN 8.33231e-05
3 *3105:B2 *3105:B1 0.000142809
4 *3105:B2 *3106:A2 7.3102e-05
5 *3105:B2 *243:16 0.000185138
6 *3105:B2 *702:35 3.32987e-05
7 *3105:B2 *767:114 0.000321954
*RES
1 *2511:ZN *3105:B2 19.368 
*END

*D_NET *232 0.00496974
*CONN
*I *2515:A1 I *D gf180mcu_fd_sc_mcu7t5v0__and2_1
*I *2967:A1 I *D gf180mcu_fd_sc_mcu7t5v0__nand2_1
*I *2512:ZN O *D gf180mcu_fd_sc_mcu7t5v0__nor2_1
*CAP
1 *2515:A1 6.8991e-05
2 *2967:A1 0.00021022
3 *2512:ZN 0.000372275
4 *232:8 0.000651486
5 *2515:A1 *2966:A2 0.0002885
6 *2515:A1 *234:6 2.74753e-05
7 *2515:A1 *242:48 0.000127688
8 *2967:A1 *2966:A2 0.000196614
9 *2967:A1 *2967:A2 0.000254112
10 *2967:A1 *2968:A1 0.000158041
11 *2967:A1 *2968:A2 0.000376901
12 *2967:A1 *242:48 9.50423e-05
13 *232:8 *2514:A2 4.68103e-05
14 *232:8 *234:6 4.33014e-05
15 *232:8 *748:19 0
16 *232:8 *803:51 9.88736e-06
17 *3048:A2 *232:8 0.000149022
18 *3248:D *2967:A1 1.72912e-05
19 *229:12 *232:8 0.000516983
20 *229:20 *2967:A1 0.000965256
21 *229:20 *232:8 0.000393842
*RES
1 *2512:ZN *232:8 12.572 
2 *232:8 *2967:A1 12.952 
3 *232:8 *2515:A1 10.216 
*END

*D_NET *233 0.00231953
*CONN
*I *2523:A1 I *D gf180mcu_fd_sc_mcu7t5v0__nand3_1
*I *2522:A1 I *D gf180mcu_fd_sc_mcu7t5v0__and3_1
*I *2513:Z O *D gf180mcu_fd_sc_mcu7t5v0__or2_1
*CAP
1 *2523:A1 0
2 *2522:A1 0.000104738
3 *2513:Z 0.0002317
4 *233:8 0.000336439
5 *2522:A1 *2522:A2 0.000753894
6 *2522:A1 *243:16 9.26705e-05
7 *233:8 *2522:A2 4.66293e-05
8 *233:8 *2934:A1 0
9 *233:8 *243:16 0.000199565
10 *3114:A1 *2522:A1 0.000548132
11 *196:6 *233:8 5.76373e-06
*RES
1 *2513:Z *233:8 6.476 
2 *233:8 *2522:A1 7.008 
3 *233:8 *2523:A1 4.5 
*END

*D_NET *234 0.00335495
*CONN
*I *2515:A2 I *D gf180mcu_fd_sc_mcu7t5v0__and2_1
*I *2966:A2 I *D gf180mcu_fd_sc_mcu7t5v0__nand3_1
*I *2514:ZN O *D gf180mcu_fd_sc_mcu7t5v0__nor2_1
*CAP
1 *2515:A2 0
2 *2966:A2 0.000319755
3 *2514:ZN 0.000373225
4 *234:6 0.00069298
5 *2966:A2 *2516:A1 1.54747e-06
6 *2966:A2 *2966:A3 0.000227882
7 *2966:A2 *3048:B1 0.000674066
8 *2966:A2 *3048:B2 1.76665e-05
9 *2966:A2 *3051:B 5.1441e-05
10 *2966:A2 *235:8 7.35535e-06
11 *2966:A2 *242:48 0.000193788
12 *234:6 *2516:A1 4.97712e-06
13 *234:6 *3048:A1 4.92043e-05
14 *234:6 *738:8 0
15 *234:6 *748:19 5.83634e-05
16 *2515:A1 *2966:A2 0.0002885
17 *2515:A1 *234:6 2.74753e-05
18 *2967:A1 *2966:A2 0.000196614
19 *3248:D *2966:A2 0.000126809
20 *232:8 *234:6 4.33014e-05
*RES
1 *2514:ZN *234:6 6.856 
2 *234:6 *2966:A2 17.832 
3 *234:6 *2515:A2 4.5 
*END

*D_NET *235 0.00264362
*CONN
*I *2516:A2 I *D gf180mcu_fd_sc_mcu7t5v0__and2_1
*I *2968:A1 I *D gf180mcu_fd_sc_mcu7t5v0__and2_1
*I *3051:B I *D gf180mcu_fd_sc_mcu7t5v0__oai21_1
*I *2515:Z O *D gf180mcu_fd_sc_mcu7t5v0__and2_1
*CAP
1 *2516:A2 3.30866e-05
2 *2968:A1 0.000192488
3 *3051:B 4.78353e-05
4 *2515:Z 0
5 *235:8 0.000331533
6 *235:6 0.000124297
7 *2516:A2 *3048:A1 4.78829e-05
8 *2516:A2 *3048:B1 0.000140531
9 *2968:A1 *3048:B1 0.000147305
10 *3051:B *3048:B2 7.02696e-05
11 *3051:B *3049:A2 1.46914e-05
12 *235:8 *2988:A1 8.05328e-06
13 *235:8 *3048:A1 0.00037041
14 *235:8 *3048:B1 0.000417569
15 *235:8 *3049:A2 3.80391e-05
16 *2966:A2 *3051:B 5.1441e-05
17 *2966:A2 *235:8 7.35535e-06
18 *2967:A1 *2968:A1 0.000158041
19 *3248:D *2968:A1 0.000357108
20 *229:20 *2968:A1 6.09298e-06
21 *229:50 *2516:A2 7.95952e-05
*RES
1 *2515:Z *235:6 9 
2 *235:6 *235:8 2.356 
3 *235:8 *3051:B 9.532 
4 *235:8 *2968:A1 11.204 
5 *235:6 *2516:A2 9.836 
*END

*D_NET *236 0.0104526
*CONN
*I *2528:A3 I *D gf180mcu_fd_sc_mcu7t5v0__nand3_1
*I *3054:A1 I *D gf180mcu_fd_sc_mcu7t5v0__and2_1
*I *3055:A1 I *D gf180mcu_fd_sc_mcu7t5v0__nand2_1
*I *3079:A1 I *D gf180mcu_fd_sc_mcu7t5v0__and2_1
*I *3080:A1 I *D gf180mcu_fd_sc_mcu7t5v0__nand2_1
*I *2517:A2 I *D gf180mcu_fd_sc_mcu7t5v0__nand2_1
*I *3048:B1 I *D gf180mcu_fd_sc_mcu7t5v0__aoi22_1
*I *2516:Z O *D gf180mcu_fd_sc_mcu7t5v0__and2_1
*CAP
1 *2528:A3 5.91696e-05
2 *3054:A1 0
3 *3055:A1 0.000192747
4 *3079:A1 0
5 *3080:A1 1.26171e-05
6 *2517:A2 0
7 *3048:B1 0.00016418
8 *2516:Z 0
9 *236:65 0.000127983
10 *236:54 0.000515067
11 *236:45 0.000266189
12 *236:34 6.7254e-05
13 *236:25 0.000153753
14 *236:6 0.000275979
15 *2528:A3 *3057:A2 0.000101451
16 *2528:A3 *3071:A2 9.50423e-05
17 *2528:A3 *787:16 0.0002108
18 *3048:B1 *242:48 0.000162151
19 *3055:A1 *2747:A1 7.60156e-05
20 *3055:A1 *3081:A2 8.38323e-05
21 *3055:A1 *3249:CLK 0.00041486
22 *3055:A1 *657:31 3.13603e-05
23 *3080:A1 *580:12 7.83779e-05
24 *3080:A1 *580:22 2.6126e-05
25 *3080:A1 *707:58 7.83779e-05
26 *236:25 *242:48 2.18342e-05
27 *236:34 *237:12 0.000130987
28 *236:34 *242:48 2.97354e-06
29 *236:34 *580:22 8.84331e-05
30 *236:45 *580:22 0.000235808
31 *236:54 *3083:A2 0.000149334
32 *236:54 *3312:I 0.000204123
33 *236:54 *237:12 0.000335379
34 *236:54 *580:22 0.000120187
35 *236:54 *656:10 8.10706e-06
36 *236:54 *656:19 2.02592e-05
37 *236:54 *787:12 0.000142801
38 *236:65 *2988:A1 3.83879e-05
39 *236:65 *3057:A2 5.43087e-05
40 *236:65 *3081:A1 0.000703096
41 *236:65 *3083:A2 5.66946e-05
42 *236:65 *787:12 0.000979813
43 *236:65 *787:16 6.31119e-05
44 *2516:A2 *3048:B1 0.000140531
45 *2966:A2 *3048:B1 0.000674066
46 *2968:A1 *3048:B1 0.000147305
47 *3249:D *3055:A1 9.59897e-06
48 *3364:I *236:54 0.00062586
49 *229:20 *3048:B1 2.33043e-05
50 *229:50 *3048:B1 3.28611e-05
51 *229:50 *236:25 0.000134146
52 *229:50 *236:34 9.52854e-05
53 *229:63 *236:34 0.0003377
54 *229:63 *236:45 0.000260709
55 *229:63 *236:54 0.00100471
56 *235:8 *3048:B1 0.000417569
*RES
1 *2516:Z *236:6 9 
2 *236:6 *3048:B1 12.8 
3 *236:6 *236:25 1.064 
4 *236:25 *2517:A2 9 
5 *236:25 *236:34 1.14 
6 *236:34 *3080:A1 9.228 
7 *236:34 *236:45 0.684 
8 *236:45 *3079:A1 9 
9 *236:45 *236:54 5.092 
10 *236:54 *3055:A1 10.9 
11 *236:54 *236:65 2.812 
12 *236:65 *3054:A1 9 
13 *236:65 *2528:A3 10.14 
*END

*D_NET *237 0.00811852
*CONN
*I *3312:I I *D gf180mcu_fd_sc_mcu7t5v0__dlyb_1
*I *3311:I I *D gf180mcu_fd_sc_mcu7t5v0__dlyb_1
*I *2517:ZN O *D gf180mcu_fd_sc_mcu7t5v0__nand2_1
*CAP
1 *3312:I 0.000977693
2 *3311:I 0
3 *2517:ZN 0.00036146
4 *237:12 0.00133915
5 *3312:I *2987:A1 0.000633975
6 *3312:I *2988:A1 0.00161483
7 *3312:I *3081:A1 0.000150074
8 *3312:I *3083:A2 0.000514812
9 *3312:I *3105:A1 0
10 *3312:I *3114:B 0.000115503
11 *3312:I *3249:CLK 0
12 *3312:I *3329:I 0
13 *3312:I *701:42 1.80387e-05
14 *237:12 *3114:B 0.000149794
15 *237:12 *242:48 2.71172e-05
16 *237:12 *580:22 0.00045128
17 *237:12 *580:28 2.75295e-05
18 *237:12 *656:10 0.000132356
19 *237:12 *657:10 0
20 *3019:A2 *237:12 3.73627e-05
21 *3249:D *3312:I 0.00063817
22 *3257:D *3312:I 0.000141382
23 *229:63 *3312:I 7.53852e-05
24 *229:63 *237:12 4.21132e-05
25 *230:20 *3312:I 0
26 *230:26 *3312:I 0
27 *236:34 *237:12 0.000130987
28 *236:54 *3312:I 0.000204123
29 *236:54 *237:12 0.000335379
*RES
1 *2517:ZN *237:12 17.756 
2 *237:12 *3311:I 4.5 
3 *237:12 *3312:I 24.824 
*END

*D_NET *238 0.00134183
*CONN
*I *2519:B I *D gf180mcu_fd_sc_mcu7t5v0__oai21_1
*I *2518:ZN O *D gf180mcu_fd_sc_mcu7t5v0__oai21_1
*CAP
1 *2519:B 0.000334008
2 *2518:ZN 0.000334008
3 *2519:B *2518:A1 2.6126e-05
4 *2519:B *2519:A1 7.57844e-05
5 *2519:B *2932:A1 4.07337e-05
6 *2519:B *2934:A1 0
7 *2519:B *3106:A2 7.26949e-05
8 *2519:B *3326:I 2.97155e-05
9 *2519:B *241:8 8.04139e-05
10 *2519:B *241:10 0.000142917
11 *2519:B *241:27 3.84145e-06
12 *2519:B *701:16 0
13 *2519:B *767:106 9.88736e-06
14 *2519:B *792:34 0.000189134
15 *196:8 *2519:B 2.57058e-06
*RES
1 *2518:ZN *2519:B 21.116 
*END

*D_NET *239 0.00262475
*CONN
*I *2523:A2 I *D gf180mcu_fd_sc_mcu7t5v0__nand3_1
*I *2522:A2 I *D gf180mcu_fd_sc_mcu7t5v0__and3_1
*I *2519:ZN O *D gf180mcu_fd_sc_mcu7t5v0__oai21_1
*CAP
1 *2523:A2 0
2 *2522:A2 0.000237457
3 *2519:ZN 0.000177417
4 *239:12 0.000414875
5 *2522:A2 *2522:A3 1.26889e-05
6 *2522:A2 *2523:A3 0.000133015
7 *239:12 *701:16 0.000292033
8 *239:12 *792:34 0
9 *239:12 *803:10 0
10 *2521:A2 *239:12 4.07337e-05
11 *2522:A1 *2522:A2 0.000753894
12 *196:8 *239:12 0.000351439
13 *230:26 *239:12 0.000164563
14 *233:8 *2522:A2 4.66293e-05
*RES
1 *2519:ZN *239:12 15.476 
2 *239:12 *2522:A2 7.464 
3 *239:12 *2523:A2 4.5 
*END

*D_NET *240 0.0023744
*CONN
*I *2523:A3 I *D gf180mcu_fd_sc_mcu7t5v0__nand3_1
*I *2522:A3 I *D gf180mcu_fd_sc_mcu7t5v0__and3_1
*I *2520:ZN O *D gf180mcu_fd_sc_mcu7t5v0__nand2_1
*CAP
1 *2523:A3 0.000308965
2 *2522:A3 0.000118661
3 *2520:ZN 0.000349648
4 *240:8 0.000777274
5 *2522:A3 *3114:B 0
6 *2522:A3 *767:25 9.26705e-05
7 *2523:A3 *707:58 0
8 *240:8 *580:22 2.96621e-05
9 *240:8 *580:28 0.000134206
10 *240:8 *656:6 0.000255714
11 *240:8 *656:87 2.23477e-05
12 *240:8 *657:10 1.49066e-06
13 *240:8 *707:58 0
14 *240:8 *767:25 9.38152e-05
15 *2522:A2 *2522:A3 1.26889e-05
16 *2522:A2 *2523:A3 0.000133015
17 *3269:D *2523:A3 0
18 *3269:D *240:8 4.42433e-05
*RES
1 *2520:ZN *240:8 7.388 
2 *240:8 *2522:A3 5.564 
3 *240:8 *2523:A3 6.552 
*END

*D_NET *241 0.00674087
*CONN
*I *3105:B1 I *D gf180mcu_fd_sc_mcu7t5v0__oai22_1
*I *2931:A2 I *D gf180mcu_fd_sc_mcu7t5v0__aoi211_1
*I *2929:A1 I *D gf180mcu_fd_sc_mcu7t5v0__aoi21_1
*I *2932:A1 I *D gf180mcu_fd_sc_mcu7t5v0__nand2_1
*I *2521:ZN O *D gf180mcu_fd_sc_mcu7t5v0__nand2_1
*CAP
1 *3105:B1 8.98213e-05
2 *2931:A2 1.43127e-05
3 *2929:A1 0.000176546
4 *2932:A1 0.000369704
5 *2521:ZN 1.00159e-05
6 *241:27 0.000391381
7 *241:10 0.000637394
8 *241:8 0.000167005
9 *2929:A1 *2653:A1 0.000431535
10 *2929:A1 *2931:C 0.000431535
11 *2929:A1 *2933:A1 2.09451e-05
12 *2929:A1 *2935:C 5.5788e-05
13 *2929:A1 *469:22 4.72409e-05
14 *2931:A2 *872:30 7.83779e-05
15 *2932:A1 *2932:A2 8.24292e-05
16 *2932:A1 *2934:A1 0.00027369
17 *2932:A1 *3229:CLK 6.45583e-05
18 *2932:A1 *3326:I 0
19 *2932:A1 *469:22 0
20 *2932:A1 *536:12 8.84331e-05
21 *2932:A1 *702:39 8.73286e-05
22 *2932:A1 *702:65 0
23 *3105:B1 *3329:I 0.00018927
24 *3105:B1 *243:16 0.00018927
25 *3105:B1 *702:35 5.35759e-05
26 *3105:B1 *767:114 5.66946e-05
27 *3105:B1 *792:34 3.35674e-05
28 *241:8 *3106:A2 8.04139e-05
29 *241:10 *3326:I 0
30 *241:10 *702:39 2.93981e-05
31 *241:10 *792:34 0.000113362
32 *241:27 *2518:A1 8.0352e-06
33 *241:27 *2518:B 0.000448201
34 *241:27 *2519:A1 2.00003e-05
35 *241:27 *2822:A2 0.000116355
36 *241:27 *2933:A1 2.17248e-05
37 *241:27 *702:50 2.25184e-05
38 *241:27 *792:34 5.48978e-05
39 *241:27 *872:12 0.000355531
40 *241:27 *872:30 0.000348384
41 *2519:B *2932:A1 4.07337e-05
42 *2519:B *241:8 8.04139e-05
43 *2519:B *241:10 0.000142917
44 *2519:B *241:27 3.84145e-06
45 *2521:A1 *3105:B1 6.04444e-06
46 *2521:A1 *241:10 6.04444e-06
47 *2821:A2 *2931:A2 1.97747e-05
48 *2821:A2 *241:27 0.000276453
49 *2823:A2 *2929:A1 0.000244694
50 *3105:B2 *3105:B1 0.000142809
51 *218:8 *2929:A1 0.000117908
*RES
1 *2521:ZN *241:8 9.228 
2 *241:8 *241:10 0.988 
3 *241:10 *2932:A1 12.116 
4 *241:10 *241:27 8.072 
5 *241:27 *2929:A1 15.932 
6 *241:27 *2931:A2 4.728 
7 *241:8 *3105:B1 10.368 
*END

*D_NET *242 0.0251725
*CONN
*I *2546:A2 I *D gf180mcu_fd_sc_mcu7t5v0__nor2_1
*I *3309:I I *D gf180mcu_fd_sc_mcu7t5v0__dlyb_1
*I *2661:A2 I *D gf180mcu_fd_sc_mcu7t5v0__nor2_1
*I *3310:I I *D gf180mcu_fd_sc_mcu7t5v0__dlyb_1
*I *2522:Z O *D gf180mcu_fd_sc_mcu7t5v0__and3_1
*CAP
1 *2546:A2 0.00131048
2 *3309:I 0.000246965
3 *2661:A2 0.000316269
4 *3310:I 0.000296636
5 *2522:Z 0.000247162
6 *242:48 0.00234719
7 *242:16 0.00129728
8 *242:8 0.00172129
9 *2546:A2 *2996:A1 0.000610003
10 *2546:A2 *3026:A2 5.18759e-05
11 *2546:A2 *3042:A1 0.00173233
12 *2546:A2 *3042:A2 0.0027537
13 *2546:A2 *3120:CLK 0.000396572
14 *2546:A2 *341:25 0.000179609
15 *2546:A2 *616:22 2.57332e-05
16 *2546:A2 *690:69 1.71121e-05
17 *2546:A2 *797:116 0
18 *2661:A2 *2653:A1 0.000752915
19 *2661:A2 *2839:A1 1.85312e-05
20 *2661:A2 *2841:A3 0.000105307
21 *2661:A2 *2934:B1 0
22 *2661:A2 *3297:I 0.000275427
23 *2661:A2 *3298:I 0
24 *2661:A2 *452:8 1.84255e-05
25 *2661:A2 *452:10 2.57058e-06
26 *2661:A2 *465:12 0.000611026
27 *2661:A2 *470:14 0.000360235
28 *3309:I *2984:A2 5.5916e-05
29 *3309:I *3017:A1 0.000147305
30 *3309:I *3025:A2 2.09512e-05
31 *3309:I *3376:I 0.000341489
32 *3310:I *2653:A1 0.000898011
33 *3310:I *803:71 0.000396904
34 *242:8 *2988:A1 3.11698e-05
35 *242:8 *3114:B 1.90706e-05
36 *242:8 *580:12 0.000172284
37 *242:8 *803:10 0.000173175
38 *242:8 *803:25 0
39 *242:16 *2485:I 4.23613e-05
40 *242:16 *2841:A4 0
41 *242:16 *2935:B 7.83779e-05
42 *242:16 *3015:C2 0
43 *242:16 *3279:I 8.94779e-05
44 *242:16 *467:36 0.00101397
45 *242:16 *470:14 4.68103e-05
46 *242:16 *580:12 0.000206325
47 *242:16 *680:31 0.000684777
48 *242:16 *707:16 2.57058e-06
49 *242:16 *803:25 0
50 *242:48 *2516:A1 4.43253e-05
51 *242:48 *2984:A2 6.48283e-06
52 *242:48 *2988:A1 7.35718e-05
53 *242:48 *3048:B2 0
54 *242:48 *3376:I 0.00064886
55 *242:48 *467:36 0.000866163
56 *242:48 *634:16 0
57 *242:48 *696:93 0.000866163
58 *2515:A1 *242:48 0.000127688
59 *2935:A1 *242:16 0.000307974
60 *2966:A2 *242:48 0.000193788
61 *2967:A1 *242:48 9.50423e-05
62 *3043:A1 *2546:A2 8.70376e-06
63 *3048:B1 *242:48 0.000162151
64 *3114:A1 *242:8 0.000220344
65 *3230:D *242:16 0.00026286
66 *3246:D *2546:A2 0.00109748
67 *3275:I *2546:A2 1.52691e-05
68 *221:27 *2546:A2 0
69 *221:29 *2546:A2 0
70 *221:59 *2546:A2 8.06319e-06
71 *236:25 *242:48 2.18342e-05
72 *236:34 *242:48 2.97354e-06
73 *237:12 *242:48 2.71172e-05
*RES
1 *2522:Z *242:8 11.508 
2 *242:8 *242:16 17.664 
3 *242:16 *3310:I 12.268 
4 *242:16 *2661:A2 13.408 
5 *242:8 *242:48 19.336 
6 *242:48 *3309:I 11.584 
7 *242:48 *2546:A2 26.328 
*END

*D_NET *243 0.0141303
*CONN
*I *3303:I I *D gf180mcu_fd_sc_mcu7t5v0__dlyb_1
*I *2657:A2 I *D gf180mcu_fd_sc_mcu7t5v0__nor2_1
*I *2660:A2 I *D gf180mcu_fd_sc_mcu7t5v0__nor2_1
*I *2523:ZN O *D gf180mcu_fd_sc_mcu7t5v0__nand3_1
*CAP
1 *3303:I 0.000256951
2 *2657:A2 0.000362393
3 *2660:A2 0
4 *2523:ZN 0.000529275
5 *243:26 0.00131825
6 *243:16 0.00174208
7 *2657:A2 *2656:A2 0.000961764
8 *2657:A2 *2657:A1 0.000539563
9 *2657:A2 *2659:A2 3.19219e-05
10 *2657:A2 *2662:A1 0
11 *2657:A2 *2662:A2 8.84331e-05
12 *2657:A2 *3294:I 0.000129654
13 *2657:A2 *3316:I 0.000114041
14 *2657:A2 *3317:I 0
15 *2657:A2 *759:54 1.18942e-05
16 *2657:A2 *759:58 6.83716e-05
17 *3303:I *3105:A2 0.00107739
18 *3303:I *702:35 0.000283447
19 *3303:I *759:12 0.00018822
20 *3303:I *804:67 0
21 *3303:I *805:43 4.12743e-05
22 *243:16 *3106:A2 5.61891e-05
23 *243:16 *3326:I 0.000138974
24 *243:16 *3329:I 0.000367066
25 *243:16 *701:16 0.00025099
26 *243:16 *767:106 0.000176328
27 *243:26 *2518:B 0.000386421
28 *243:26 *2662:A1 0
29 *243:26 *3023:C2 9.70366e-05
30 *243:26 *3106:A2 4.66148e-05
31 *243:26 *3294:I 0.000129176
32 *243:26 *3316:I 0.00177345
33 *243:26 *3317:I 0
34 *243:26 *334:16 3.84832e-06
35 *243:26 *702:35 0.000165235
36 *243:26 *702:39 7.2647e-05
37 *243:26 *805:57 0
38 *243:26 *872:12 0.000379274
39 *243:26 *872:30 0.000547958
40 *2518:A2 *243:26 3.56172e-05
41 *2522:A1 *243:16 9.26705e-05
42 *3105:B1 *243:16 0.00018927
43 *3105:B2 *243:16 0.000185138
44 *3114:A1 *243:16 1.5015e-05
45 *3265:D *3303:I 0.00037506
46 *3265:D *243:26 4.29636e-06
47 *196:8 *243:16 0.000139496
48 *200:12 *243:26 0
49 *230:26 *243:16 0.0005581
50 *233:8 *243:16 0.000199565
*RES
1 *2523:ZN *243:16 24.764 
2 *243:16 *243:26 14.38 
3 *243:26 *2660:A2 4.5 
4 *243:26 *2657:A2 18.82 
5 *243:16 *3303:I 13.788 
*END

*D_NET *244 0.000394585
*CONN
*I *2525:B1 I *D gf180mcu_fd_sc_mcu7t5v0__oai32_1
*I *2524:ZN O *D gf180mcu_fd_sc_mcu7t5v0__nand2_1
*CAP
1 *2525:B1 0.000144977
2 *2524:ZN 0.000144977
3 *2525:B1 *2525:A1 4.50449e-05
4 *2525:B1 *3035:C1 7.71175e-06
5 *3270:D *2525:B1 5.18736e-05
*RES
1 *2524:ZN *2525:B1 10.292 
*END

*D_NET *245 0.00152466
*CONN
*I *2526:A2 I *D gf180mcu_fd_sc_mcu7t5v0__nor2_1
*I *2525:ZN O *D gf180mcu_fd_sc_mcu7t5v0__oai32_1
*CAP
1 *2526:A2 0.000457755
2 *2525:ZN 0.000457755
3 *2526:A2 *703:12 2.28275e-05
4 *2526:A2 *805:43 1.18656e-05
5 *230:14 *2526:A2 0.000574455
*RES
1 *2525:ZN *2526:A2 21.572 
*END

*D_NET *246 0.00167395
*CONN
*I *2529:A1 I *D gf180mcu_fd_sc_mcu7t5v0__aoi21_1
*I *2527:ZN O *D gf180mcu_fd_sc_mcu7t5v0__nand3_1
*CAP
1 *2529:A1 0.000343708
2 *2527:ZN 0.000343708
3 *2529:A1 *2527:A2 4.58601e-06
4 *2529:A1 *2529:A2 4.0568e-05
5 *2529:A1 *704:29 0.000371486
6 *2529:A1 *759:12 0.000355511
7 *2529:A1 *804:54 0.000131651
8 *2529:A1 *805:43 4.89305e-05
9 *3273:D *2529:A1 3.38043e-05
*RES
1 *2527:ZN *2529:A1 21.04 
*END

*D_NET *247 0.00503221
*CONN
*I *2529:A2 I *D gf180mcu_fd_sc_mcu7t5v0__aoi21_1
*I *2528:ZN O *D gf180mcu_fd_sc_mcu7t5v0__nand3_1
*CAP
1 *2529:A2 0.000720908
2 *2528:ZN 0.000720908
3 *2529:A2 *2527:A2 0.000190028
4 *2529:A2 *2528:A1 5.1289e-05
5 *2529:A2 *3039:C1 0.000231941
6 *2529:A2 *3071:A2 3.68443e-05
7 *2529:A2 *3265:CLK 0.000197677
8 *2529:A2 *683:43 4.52268e-05
9 *2529:A2 *704:29 3.75371e-05
10 *2529:A2 *759:14 0.000395803
11 *2529:A2 *759:34 0.00158149
12 *2529:A2 *759:54 0.000360235
13 *2529:A2 *804:67 6.36516e-05
14 *2529:A2 *805:43 0.000358107
15 *2529:A1 *2529:A2 4.0568e-05
*RES
1 *2528:ZN *2529:A2 26.816 
*END

*D_NET *248 0.00044774
*CONN
*I *2532:A2 I *D gf180mcu_fd_sc_mcu7t5v0__nor3_1
*I *2530:ZN O *D gf180mcu_fd_sc_mcu7t5v0__nor2_1
*CAP
1 *2532:A2 0.000160797
2 *2530:ZN 0.000160797
3 *2532:A2 *2532:A1 8.73421e-05
4 *2532:A2 *2532:A3 2.07787e-05
5 *2532:A2 *3001:A2 1.80248e-05
*RES
1 *2530:ZN *2532:A2 10.292 
*END

*D_NET *249 0.00107596
*CONN
*I *2532:A3 I *D gf180mcu_fd_sc_mcu7t5v0__nor3_1
*I *2531:ZN O *D gf180mcu_fd_sc_mcu7t5v0__nor2_1
*CAP
1 *2532:A3 0.000319189
2 *2531:ZN 0.000319189
3 *2532:A3 *2971:A1 3.07734e-05
4 *2532:A3 *2971:A2 3.84832e-06
5 *2532:A3 *2999:B2 0
6 *2532:A3 *3001:A2 1.44832e-05
7 *2532:A3 *764:6 0.00020464
8 *2532:A3 *848:12 0.00016306
9 *2532:A2 *2532:A3 2.07787e-05
*RES
1 *2531:ZN *2532:A3 11.584 
*END

*D_NET *250 0.00142699
*CONN
*I *2535:A2 I *D gf180mcu_fd_sc_mcu7t5v0__nor3_1
*I *2533:ZN O *D gf180mcu_fd_sc_mcu7t5v0__nor2_1
*CAP
1 *2535:A2 0.000244013
2 *2533:ZN 0.000244013
3 *2535:A2 *2536:A2 6.68265e-05
4 *2535:A2 *2538:A2 4.83197e-05
5 *2535:A2 *2978:A1 0.000560041
6 *2535:A2 *3009:A2 0.000111867
7 *2535:A2 *3300:I 0.000136619
8 *2535:A2 *3323:I 7.24887e-06
9 *2535:A2 *756:18 8.03759e-06
*RES
1 *2533:ZN *2535:A2 20.888 
*END

*D_NET *251 0.00225707
*CONN
*I *2535:A3 I *D gf180mcu_fd_sc_mcu7t5v0__nor3_1
*I *2534:ZN O *D gf180mcu_fd_sc_mcu7t5v0__nor2_1
*CAP
1 *2535:A3 0.000375671
2 *2534:ZN 0.000375671
3 *2535:A3 *2992:B2 5.76373e-06
4 *2535:A3 *3000:B2 0.000130083
5 *2535:A3 *3016:A1 9.4764e-05
6 *2535:A3 *3016:A2 4.98138e-05
7 *2535:A3 *3016:B2 0.00060226
8 *2535:A3 *776:42 0
9 *2535:A3 *777:48 0.000175381
10 *2535:A3 *859:8 0.000102644
11 *3117:D *2535:A3 0.000345016
*RES
1 *2534:ZN *2535:A3 13.712 
*END

*D_NET *252 0.00125925
*CONN
*I *2538:A2 I *D gf180mcu_fd_sc_mcu7t5v0__nor3_1
*I *2536:ZN O *D gf180mcu_fd_sc_mcu7t5v0__nor2_1
*CAP
1 *2538:A2 0.000231015
2 *2536:ZN 0.000231015
3 *2538:A2 *2535:A1 0.000308746
4 *2538:A2 *2978:A1 0.000131402
5 *2538:A2 *3323:I 0.000293735
6 *2538:A2 *777:48 0
7 *2535:A2 *2538:A2 4.83197e-05
8 *3117:D *2538:A2 1.5015e-05
*RES
1 *2536:ZN *2538:A2 20.584 
*END

*D_NET *253 0.00322019
*CONN
*I *2538:A3 I *D gf180mcu_fd_sc_mcu7t5v0__nor3_1
*I *2537:ZN O *D gf180mcu_fd_sc_mcu7t5v0__nor2_1
*CAP
1 *2538:A3 0.000370659
2 *2537:ZN 0.000370659
3 *2538:A3 *2538:A1 0.00109338
4 *2538:A3 *2566:A2 0.00101279
5 *2538:A3 *2589:A2 0
6 *2538:A3 *2978:A1 0
7 *2538:A3 *3323:I 0.00020334
8 *2538:A3 *864:6 0.000169363
*RES
1 *2537:ZN *2538:A3 23.624 
*END

*D_NET *254 0.0031393
*CONN
*I *2541:A2 I *D gf180mcu_fd_sc_mcu7t5v0__nor3_1
*I *2539:ZN O *D gf180mcu_fd_sc_mcu7t5v0__nor2_1
*CAP
1 *2541:A2 0.000127606
2 *2539:ZN 0.000127606
3 *2541:A2 *2543:A1 0.000505657
4 *2541:A2 *2991:B2 7.2647e-05
5 *2541:A2 *756:64 0.00111718
6 *2541:A2 *785:133 0.0011886
*RES
1 *2539:ZN *2541:A2 22.256 
*END

*D_NET *255 0.00233621
*CONN
*I *2541:A3 I *D gf180mcu_fd_sc_mcu7t5v0__nor3_1
*I *2540:ZN O *D gf180mcu_fd_sc_mcu7t5v0__nor2_1
*CAP
1 *2541:A3 0.000107857
2 *2540:ZN 0.000107857
3 *2541:A3 *2991:B2 0.000147305
4 *2541:A3 *3016:B2 0.00118613
5 *2541:A3 *3284:I 0
6 *2541:A3 *680:197 0
7 *2541:A3 *690:10 0.000787065
*RES
1 *2540:ZN *2541:A3 12.116 
*END

*D_NET *256 0.00211145
*CONN
*I *2544:A2 I *D gf180mcu_fd_sc_mcu7t5v0__nor3_1
*I *2542:ZN O *D gf180mcu_fd_sc_mcu7t5v0__nor2_1
*CAP
1 *2544:A2 0.000226183
2 *2542:ZN 0.000226183
3 *2544:A2 *2539:A1 0.000251888
4 *2544:A2 *2542:A1 2.57058e-06
5 *2544:A2 *2543:A2 8.55327e-05
6 *2544:A2 *2544:A3 4.50449e-05
7 *2544:A2 *785:133 0.000697982
8 *2544:A2 *867:8 8.27561e-05
9 *2544:A2 *871:12 0.000493315
*RES
1 *2542:ZN *2544:A2 12.648 
*END

*D_NET *257 0.0013116
*CONN
*I *2544:A3 I *D gf180mcu_fd_sc_mcu7t5v0__nor3_1
*I *2543:ZN O *D gf180mcu_fd_sc_mcu7t5v0__nor2_1
*CAP
1 *2544:A3 0.000129024
2 *2543:ZN 0.000129024
3 *2544:A3 *2543:A2 0.000186699
4 *2544:A3 *3024:B2 0.000794983
5 *2544:A3 *785:133 2.68222e-05
6 *2544:A2 *2544:A3 4.50449e-05
*RES
1 *2543:ZN *2544:A3 11.28 
*END

*D_NET *258 0.000385265
*CONN
*I *2547:A2 I *D gf180mcu_fd_sc_mcu7t5v0__nor3_1
*I *2545:ZN O *D gf180mcu_fd_sc_mcu7t5v0__nor2_1
*CAP
1 *2547:A2 8.88865e-05
2 *2545:ZN 8.88865e-05
3 *2547:A2 *2545:A2 0.000207492
4 *2547:A2 *785:16 0
*RES
1 *2545:ZN *2547:A2 19.14 
*END

*D_NET *259 0.000753358
*CONN
*I *2547:A3 I *D gf180mcu_fd_sc_mcu7t5v0__nor3_1
*I *2546:ZN O *D gf180mcu_fd_sc_mcu7t5v0__nor2_1
*CAP
1 *2547:A3 0.000151986
2 *2546:ZN 0.000151986
3 *2547:A3 *2547:A1 0.000276462
4 *2547:A3 *341:25 0.000172924
*RES
1 *2546:ZN *2547:A3 10.824 
*END

*D_NET *260 0.00100644
*CONN
*I *2549:B I *D gf180mcu_fd_sc_mcu7t5v0__aoi211_1
*I *2548:ZN O *D gf180mcu_fd_sc_mcu7t5v0__nor2_1
*CAP
1 *2549:B 0.000274346
2 *2548:ZN 0.000274346
3 *2549:B *3126:CLK 0
4 *2549:B *689:12 0.000128035
5 *2549:B *795:14 0.000276453
6 *3122:D *2549:B 5.3266e-05
*RES
1 *2548:ZN *2549:B 20.584 
*END

*D_NET *261 0.000810831
*CONN
*I *2551:B I *D gf180mcu_fd_sc_mcu7t5v0__aoi211_1
*I *2550:ZN O *D gf180mcu_fd_sc_mcu7t5v0__nor2_1
*CAP
1 *2551:B 0.00012686
2 *2550:ZN 0.00012686
3 *2551:B *2550:A1 0.000193942
4 *2551:B *2982:B2 0.000263652
5 *2551:B *3041:A2 0
6 *2551:B *3126:CLK 8.18282e-05
7 *3123:D *2551:B 1.76898e-05
*RES
1 *2550:ZN *2551:B 10.596 
*END

*D_NET *262 0.000549455
*CONN
*I *2554:A2 I *D gf180mcu_fd_sc_mcu7t5v0__nor3_1
*I *2552:ZN O *D gf180mcu_fd_sc_mcu7t5v0__nor2_1
*CAP
1 *2554:A2 0.000148707
2 *2552:ZN 0.000148707
3 *2554:A2 *2552:A1 0.000154451
4 *2554:A2 *2552:A2 9.75898e-05
5 *2549:A1 *2554:A2 0
*RES
1 *2552:ZN *2554:A2 10.292 
*END

*D_NET *263 0.000784563
*CONN
*I *2554:A3 I *D gf180mcu_fd_sc_mcu7t5v0__nor3_1
*I *2553:ZN O *D gf180mcu_fd_sc_mcu7t5v0__nor2_1
*CAP
1 *2554:A3 0.000139251
2 *2553:ZN 0.000139251
3 *2554:A3 *2553:A1 0.00032464
4 *2554:A3 *2554:A1 0.000181422
5 *2549:A1 *2554:A3 0
*RES
1 *2553:ZN *2554:A3 10.596 
*END

*D_NET *264 0.00192013
*CONN
*I *2557:A2 I *D gf180mcu_fd_sc_mcu7t5v0__nor3_1
*I *2555:ZN O *D gf180mcu_fd_sc_mcu7t5v0__nor2_1
*CAP
1 *2557:A2 0.00028179
2 *2555:ZN 0.00028179
3 *2557:A2 *2560:A1 0.000651006
4 *2557:A2 *2560:A2 0.000611253
5 *2557:A2 *689:43 4.13778e-05
6 *2557:A2 *689:45 5.29084e-05
7 *2557:A2 *761:92 0
*RES
1 *2555:ZN *2557:A2 21.496 
*END

*D_NET *265 0.000187822
*CONN
*I *2557:A3 I *D gf180mcu_fd_sc_mcu7t5v0__nor3_1
*I *2556:ZN O *D gf180mcu_fd_sc_mcu7t5v0__nor2_1
*CAP
1 *2557:A3 8.05301e-05
2 *2556:ZN 8.05301e-05
3 *2557:A3 *2543:A2 5.94709e-06
4 *2557:A3 *761:92 2.08148e-05
*RES
1 *2556:ZN *2557:A3 18.684 
*END

*D_NET *266 0.0014001
*CONN
*I *2560:A2 I *D gf180mcu_fd_sc_mcu7t5v0__nor3_1
*I *2558:ZN O *D gf180mcu_fd_sc_mcu7t5v0__nor2_1
*CAP
1 *2560:A2 0.000169602
2 *2558:ZN 0.000169602
3 *2560:A2 *2555:A1 0
4 *2560:A2 *2558:A2 0.000276717
5 *2551:A1 *2560:A2 0.000172924
6 *2557:A2 *2560:A2 0.000611253
*RES
1 *2558:ZN *2560:A2 20.432 
*END

*D_NET *267 0.00165307
*CONN
*I *2560:A3 I *D gf180mcu_fd_sc_mcu7t5v0__nor3_1
*I *2559:ZN O *D gf180mcu_fd_sc_mcu7t5v0__nor2_1
*CAP
1 *2560:A3 0.000295914
2 *2559:ZN 0.000295914
3 *2560:A3 *2982:B2 0.000356305
4 *2560:A3 *689:43 0.000334515
5 *2560:A3 *761:52 6.68534e-05
6 *2560:A3 *761:54 0
7 *2560:A3 *797:37 0.000176696
8 *3126:D *2560:A3 0.000126873
*RES
1 *2559:ZN *2560:A3 21.572 
*END

*D_NET *268 0.00156487
*CONN
*I *2563:A2 I *D gf180mcu_fd_sc_mcu7t5v0__nor3_1
*I *2561:ZN O *D gf180mcu_fd_sc_mcu7t5v0__nor2_1
*CAP
1 *2563:A2 0.000479289
2 *2561:ZN 0.000479289
3 *2563:A2 *2566:A2 0
4 *2563:A2 *2569:A2 1.88074e-05
5 *2563:A2 *795:31 0.000117908
6 *2563:A2 *795:33 0.000469575
*RES
1 *2561:ZN *2563:A2 21.496 
*END

*D_NET *269 0.000557315
*CONN
*I *2563:A3 I *D gf180mcu_fd_sc_mcu7t5v0__nor3_1
*I *2562:ZN O *D gf180mcu_fd_sc_mcu7t5v0__nor2_1
*CAP
1 *2563:A3 7.67755e-05
2 *2562:ZN 7.67755e-05
3 *2563:A3 *795:31 0.000403764
*RES
1 *2562:ZN *2563:A3 18.988 
*END

*D_NET *270 0.0102322
*CONN
*I *2566:A2 I *D gf180mcu_fd_sc_mcu7t5v0__nor3_1
*I *2564:ZN O *D gf180mcu_fd_sc_mcu7t5v0__nor2_1
*CAP
1 *2566:A2 0.00320415
2 *2564:ZN 0.00320415
3 *2566:A2 *2552:A2 0.000191531
4 *2566:A2 *2562:A2 0
5 *2566:A2 *2569:A3 0
6 *2566:A2 *2589:A2 0
7 *2566:A2 *2590:A3 0
8 *2566:A2 *2596:A1 0
9 *2566:A2 *2596:A3 0.000132634
10 *2566:A2 *3000:B2 0.000101813
11 *2566:A2 *3008:C2 0
12 *2566:A2 *3016:C2 0
13 *2566:A2 *3041:A1 0.000361006
14 *2566:A2 *3124:CLK 0.000235106
15 *2566:A2 *689:12 1.44832e-05
16 *2566:A2 *735:12 0
17 *2566:A2 *735:23 0
18 *2566:A2 *755:65 0.000530811
19 *2566:A2 *760:14 0.000275316
20 *2566:A2 *760:16 7.1283e-05
21 *2566:A2 *760:78 5.31277e-05
22 *2566:A2 *795:46 0
23 *2566:A2 *857:10 0
24 *2566:A2 *860:10 0.000434575
25 *2566:A2 *863:8 0.0002221
26 *2566:A2 *864:6 1.39031e-05
27 *2566:A2 *915:8 1.53727e-05
28 *2538:A3 *2566:A2 0.00101279
29 *2563:A2 *2566:A2 0
30 *3127:D *2566:A2 7.15735e-05
31 *3128:D *2566:A2 3.89091e-05
32 *3137:D *2566:A2 4.7522e-05
*RES
1 *2564:ZN *2566:A2 42.168 
*END

*D_NET *271 0.000649923
*CONN
*I *2566:A3 I *D gf180mcu_fd_sc_mcu7t5v0__nor3_1
*I *2565:ZN O *D gf180mcu_fd_sc_mcu7t5v0__nor2_1
*CAP
1 *2566:A3 0.000153823
2 *2565:ZN 0.000153823
3 *2566:A3 *2565:A1 0.000106627
4 *2566:A3 *724:16 0.000180841
5 *2566:A3 *763:76 5.48085e-05
*RES
1 *2565:ZN *2566:A3 19.824 
*END

*D_NET *272 0.00109711
*CONN
*I *2569:A2 I *D gf180mcu_fd_sc_mcu7t5v0__nor3_1
*I *2567:ZN O *D gf180mcu_fd_sc_mcu7t5v0__nor2_1
*CAP
1 *2569:A2 0.000449587
2 *2567:ZN 0.000449587
3 *2569:A2 *2708:A1 0.000147305
4 *2569:A2 *755:55 3.1829e-05
5 *2563:A2 *2569:A2 1.88074e-05
*RES
1 *2567:ZN *2569:A2 11.736 
*END

*D_NET *273 0.00151631
*CONN
*I *2569:A3 I *D gf180mcu_fd_sc_mcu7t5v0__nor3_1
*I *2568:ZN O *D gf180mcu_fd_sc_mcu7t5v0__nor2_1
*CAP
1 *2569:A3 0.000416839
2 *2568:ZN 0.000416839
3 *2569:A3 *2569:A1 7.09389e-05
4 *2569:A3 *2596:A1 8.18373e-05
5 *2569:A3 *795:33 4.84492e-05
6 *2569:A3 *795:46 0.000350578
7 *2566:A2 *2569:A3 0
8 *3127:D *2569:A3 0.000105042
9 *3129:D *2569:A3 2.57835e-05
*RES
1 *2568:ZN *2569:A3 21.572 
*END

*D_NET *274 0.00156459
*CONN
*I *2572:A2 I *D gf180mcu_fd_sc_mcu7t5v0__nor3_1
*I *2570:ZN O *D gf180mcu_fd_sc_mcu7t5v0__nor2_1
*CAP
1 *2572:A2 0.000211694
2 *2570:ZN 0.000211694
3 *2572:A2 *2572:A3 1.02578e-05
4 *2572:A2 *2574:A1 5.14116e-06
5 *2572:A2 *2575:A1 0
6 *2572:A2 *2575:A2 0.000285856
7 *2572:A2 *2575:A3 3.89111e-05
8 *2572:A2 *3130:CLK 4.13847e-05
9 *2572:A2 *755:40 1.42281e-05
10 *2572:A2 *755:55 0.00071453
11 *3130:D *2572:A2 3.08902e-05
*RES
1 *2570:ZN *2572:A2 20.736 
*END

*D_NET *275 0.0012153
*CONN
*I *2572:A3 I *D gf180mcu_fd_sc_mcu7t5v0__nor3_1
*I *2571:ZN O *D gf180mcu_fd_sc_mcu7t5v0__nor2_1
*CAP
1 *2572:A3 0.000358907
2 *2571:ZN 0.000358907
3 *2572:A3 *2574:A1 8.51705e-05
4 *2572:A3 *3041:C2 1.34985e-05
5 *2572:A3 *760:20 3.19219e-05
6 *2572:A3 *760:24 0.000102192
7 *2572:A3 *795:50 0.000157075
8 *2572:A3 *854:10 4.68265e-05
9 *2572:A2 *2572:A3 1.02578e-05
10 *3130:D *2572:A3 5.05417e-05
*RES
1 *2571:ZN *2572:A3 21.116 
*END

*D_NET *276 0.00124856
*CONN
*I *2575:A2 I *D gf180mcu_fd_sc_mcu7t5v0__nor3_1
*I *2573:ZN O *D gf180mcu_fd_sc_mcu7t5v0__nor2_1
*CAP
1 *2575:A2 0.000295274
2 *2573:ZN 0.000295274
3 *2575:A2 *2570:A1 0.000166035
4 *2575:A2 *2575:A1 9.98669e-06
5 *2575:A2 *2576:A1 5.856e-06
6 *2575:A2 *2576:A2 0
7 *2575:A2 *2578:A2 3.08902e-05
8 *2575:A2 *3130:CLK 7.24052e-05
9 *2575:A2 *755:30 0
10 *2575:A2 *755:32 8.04139e-05
11 *2575:A2 *755:40 6.57222e-06
12 *2572:A2 *2575:A2 0.000285856
*RES
1 *2573:ZN *2575:A2 20.508 
*END

*D_NET *277 0.00117503
*CONN
*I *2575:A3 I *D gf180mcu_fd_sc_mcu7t5v0__nor3_1
*I *2574:ZN O *D gf180mcu_fd_sc_mcu7t5v0__nor2_1
*CAP
1 *2575:A3 0.000184747
2 *2574:ZN 0.000184747
3 *2575:A3 *2575:A1 0.000213194
4 *2575:A3 *755:55 0
5 *2575:A3 *795:50 0.000553434
6 *2572:A2 *2575:A3 3.89111e-05
*RES
1 *2574:ZN *2575:A3 19.9 
*END

*D_NET *278 0.00317305
*CONN
*I *2578:A2 I *D gf180mcu_fd_sc_mcu7t5v0__nor3_1
*I *2576:ZN O *D gf180mcu_fd_sc_mcu7t5v0__nor2_1
*CAP
1 *2578:A2 0.00096685
2 *2576:ZN 0.00096685
3 *2578:A2 *2576:A2 3.07734e-05
4 *2578:A2 *2578:A1 2.6126e-05
5 *2578:A2 *2593:A1 0.000197598
6 *2578:A2 *2594:A2 0.000299585
7 *2578:A2 *3130:CLK 0.000170348
8 *2578:A2 *688:77 7.59709e-05
9 *2578:A2 *755:20 1.28836e-05
10 *2578:A2 *755:30 0.000102928
11 *2575:A2 *2578:A2 3.08902e-05
12 *3131:D *2578:A2 0.000274571
13 *3138:D *2578:A2 1.76797e-05
*RES
1 *2576:ZN *2578:A2 17.588 
*END

*D_NET *279 0.000426136
*CONN
*I *2578:A3 I *D gf180mcu_fd_sc_mcu7t5v0__nor3_1
*I *2577:ZN O *D gf180mcu_fd_sc_mcu7t5v0__nor2_1
*CAP
1 *2578:A3 4.18922e-05
2 *2577:ZN 4.18922e-05
3 *2578:A3 *2578:A1 6.14317e-05
4 *2578:A3 *2594:A2 0.00025334
5 *3132:D *2578:A3 2.75799e-05
*RES
1 *2577:ZN *2578:A3 9.684 
*END

*D_NET *280 0.00135581
*CONN
*I *2580:B I *D gf180mcu_fd_sc_mcu7t5v0__aoi211_1
*I *2579:ZN O *D gf180mcu_fd_sc_mcu7t5v0__nor2_1
*CAP
1 *2580:B 6.92414e-05
2 *2579:ZN 6.92414e-05
3 *2580:B *2582:B 0.000571483
4 *2580:B *2992:C2 1.42281e-05
5 *2580:B *680:171 1.34859e-05
6 *2580:B *760:84 0.000618126
*RES
1 *2579:ZN *2580:B 19.824 
*END

*D_NET *281 0.0023505
*CONN
*I *2582:B I *D gf180mcu_fd_sc_mcu7t5v0__aoi211_1
*I *2581:ZN O *D gf180mcu_fd_sc_mcu7t5v0__nor2_1
*CAP
1 *2582:B 0.000292546
2 *2581:ZN 0.000292546
3 *2582:B *2577:A2 2.40654e-06
4 *2582:B *2579:A1 0.000285856
5 *2582:B *2582:C 3.08902e-05
6 *2582:B *2992:C2 0.000208488
7 *2582:B *691:12 4.34264e-05
8 *2582:B *691:14 0.000186933
9 *2582:B *760:78 9.52854e-05
10 *2582:B *760:84 0.000129162
11 *2582:B *760:95 8.08741e-05
12 *2580:B *2582:B 0.000571483
13 *3133:D *2582:B 0.000130607
*RES
1 *2581:ZN *2582:B 22.408 
*END

*D_NET *282 0.00145198
*CONN
*I *2584:B I *D gf180mcu_fd_sc_mcu7t5v0__aoi211_1
*I *2583:ZN O *D gf180mcu_fd_sc_mcu7t5v0__nor2_1
*CAP
1 *2584:B 5.46837e-05
2 *2583:ZN 5.46837e-05
3 *2584:B *2577:A1 0.000893675
4 *2584:B *796:23 0.000360509
5 *2584:A1 *2584:B 8.8425e-05
*RES
1 *2583:ZN *2584:B 20.204 
*END

*D_NET *283 0.000965059
*CONN
*I *2587:A2 I *D gf180mcu_fd_sc_mcu7t5v0__nor3_1
*I *2585:ZN O *D gf180mcu_fd_sc_mcu7t5v0__nor2_1
*CAP
1 *2587:A2 0.00034508
2 *2585:ZN 0.00034508
3 *2587:A2 *2577:A2 0.000257608
4 *2587:A2 *755:16 1.72912e-05
5 *2727:A1 *2587:A2 0
*RES
1 *2585:ZN *2587:A2 11.052 
*END

*D_NET *284 0.00272891
*CONN
*I *2587:A3 I *D gf180mcu_fd_sc_mcu7t5v0__nor3_1
*I *2586:ZN O *D gf180mcu_fd_sc_mcu7t5v0__nor2_1
*CAP
1 *2587:A3 0.000726335
2 *2586:ZN 0.000726335
3 *2587:A3 *2582:C 3.62183e-05
4 *2587:A3 *3300:I 0
5 *2587:A3 *755:12 0
6 *2587:A3 *762:27 9.52854e-05
7 *2587:A3 *762:29 0.000660146
8 *2587:A3 *762:35 0.000399191
9 *2582:A1 *2587:A3 0
10 *3136:D *2587:A3 8.53993e-05
*RES
1 *2586:ZN *2587:A3 23.7 
*END

*D_NET *285 0.00273341
*CONN
*I *2590:A2 I *D gf180mcu_fd_sc_mcu7t5v0__nor3_1
*I *2588:ZN O *D gf180mcu_fd_sc_mcu7t5v0__nor2_1
*CAP
1 *2590:A2 0.000859101
2 *2588:ZN 0.000859101
3 *2590:A2 *2578:A1 3.46377e-05
4 *2590:A2 *2593:A2 0
5 *2590:A2 *3032:A1 0.000381775
6 *2590:A2 *786:34 0
7 *2590:A2 *796:12 8.64281e-06
8 *2590:A2 *796:23 0.000493974
9 *2584:A1 *2590:A2 9.61824e-05
10 *3138:D *2590:A2 0
*RES
1 *2588:ZN *2590:A2 25.068 
*END

*D_NET *286 0.0019349
*CONN
*I *2590:A3 I *D gf180mcu_fd_sc_mcu7t5v0__nor3_1
*I *2589:ZN O *D gf180mcu_fd_sc_mcu7t5v0__nor2_1
*CAP
1 *2590:A3 0.000361727
2 *2589:ZN 0.000361727
3 *2590:A3 *2538:A1 5.05245e-05
4 *2590:A3 *2589:A2 0.000707788
5 *2590:A3 *3008:C2 0.000254112
6 *2590:A3 *3032:A1 0.000184597
7 *2590:A3 *3032:B2 0
8 *2590:A3 *776:42 0
9 *2590:A3 *777:48 2.9378e-06
10 *2590:A3 *796:12 8.92063e-06
11 *2590:A3 *861:8 0
12 *2590:A3 *863:8 2.57058e-06
13 *2566:A2 *2590:A3 0
*RES
1 *2589:ZN *2590:A3 21.8 
*END

*D_NET *287 0.00312799
*CONN
*I *2593:A2 I *D gf180mcu_fd_sc_mcu7t5v0__nor3_1
*I *2591:ZN O *D gf180mcu_fd_sc_mcu7t5v0__nor2_1
*CAP
1 *2593:A2 0.000434593
2 *2591:ZN 0.000434593
3 *2593:A2 *2591:A1 0.000360226
4 *2593:A2 *2596:A2 5.83634e-05
5 *2593:A2 *370:8 0
6 *2593:A2 *688:22 3.89394e-06
7 *2593:A2 *688:69 0.000502843
8 *2593:A2 *755:20 0.000108139
9 *2593:A2 *755:30 8.55242e-05
10 *2593:A2 *786:34 0.000958546
11 *2590:A2 *2593:A2 0
12 *3138:D *2593:A2 0.000181264
*RES
1 *2591:ZN *2593:A2 23.32 
*END

*D_NET *288 0.0025588
*CONN
*I *2593:A3 I *D gf180mcu_fd_sc_mcu7t5v0__nor3_1
*I *2592:ZN O *D gf180mcu_fd_sc_mcu7t5v0__nor2_1
*CAP
1 *2593:A3 0.00052082
2 *2592:ZN 0.00052082
3 *2593:A3 *2574:A1 0.000372137
4 *2593:A3 *2574:A2 6.73926e-05
5 *2593:A3 *2592:A1 0.000599351
6 *2593:A3 *2593:A1 0.000161792
7 *2593:A3 *3032:A1 0
8 *2593:A3 *3283:I 0.000176083
9 *2593:A3 *688:77 0.000125453
10 *2593:A3 *852:12 7.24161e-06
11 *3130:D *2593:A3 7.71175e-06
*RES
1 *2592:ZN *2593:A3 14.7 
*END

*D_NET *289 0.00401581
*CONN
*I *2596:A2 I *D gf180mcu_fd_sc_mcu7t5v0__nor3_1
*I *2594:ZN O *D gf180mcu_fd_sc_mcu7t5v0__nor2_1
*CAP
1 *2596:A2 0.00117231
2 *2594:ZN 0.00117231
3 *2596:A2 *2571:A1 0.000326528
4 *2596:A2 *2591:A1 6.74908e-05
5 *2596:A2 *3032:C2 0.000369716
6 *2596:A2 *3041:C2 0.000287007
7 *2596:A2 *3131:CLK 0.000229588
8 *2596:A2 *688:12 0.000116928
9 *2596:A2 *688:22 0.000154348
10 *2596:A2 *854:10 6.12154e-05
11 *2593:A2 *2596:A2 5.83634e-05
*RES
1 *2594:ZN *2596:A2 26.968 
*END

*D_NET *290 0.00135844
*CONN
*I *2596:A3 I *D gf180mcu_fd_sc_mcu7t5v0__nor3_1
*I *2595:ZN O *D gf180mcu_fd_sc_mcu7t5v0__nor2_1
*CAP
1 *2596:A3 0.000124178
2 *2595:ZN 0.000124178
3 *2596:A3 *2595:A2 5.94067e-05
4 *2596:A3 *3032:C2 0.000443984
5 *2596:A3 *3137:CLK 0.000439272
6 *2596:A3 *760:16 3.10919e-05
7 *2566:A2 *2596:A3 0.000132634
8 *3139:D *2596:A3 3.69419e-06
*RES
1 *2595:ZN *2596:A3 19.9 
*END

*D_NET *291 0.00310398
*CONN
*I *2598:B I *D gf180mcu_fd_sc_mcu7t5v0__aoi211_1
*I *2597:ZN O *D gf180mcu_fd_sc_mcu7t5v0__nor2_1
*CAP
1 *2598:B 8.36764e-05
2 *2597:ZN 8.36764e-05
3 *2598:B *2565:A1 0
4 *2598:B *3307:I 0.000841078
5 *2598:B *565:8 0.00132919
6 *2598:B *565:31 0.000178885
7 *2598:B *567:20 0.000587475
*RES
1 *2597:ZN *2598:B 22.028 
*END

*D_NET *292 0.00201421
*CONN
*I *2601:A2 I *D gf180mcu_fd_sc_mcu7t5v0__nor3_1
*I *2599:ZN O *D gf180mcu_fd_sc_mcu7t5v0__nor2_1
*CAP
1 *2601:A2 0.000448452
2 *2599:ZN 0.000448452
3 *2601:A2 *2599:A2 0
4 *2601:A2 *2604:A2 0
5 *2601:A2 *3142:CLK 0.00035308
6 *2601:A2 *568:8 0.000714514
7 *2601:A2 *884:28 0
8 *2601:A2 *884:32 0
9 *3142:D *2601:A2 4.97153e-05
*RES
1 *2599:ZN *2601:A2 21.8 
*END

*D_NET *293 0.00185093
*CONN
*I *2601:A3 I *D gf180mcu_fd_sc_mcu7t5v0__nor3_1
*I *2600:ZN O *D gf180mcu_fd_sc_mcu7t5v0__nor2_1
*CAP
1 *2601:A3 0.000395038
2 *2600:ZN 0.000395038
3 *2601:A3 *680:171 0.00010448
4 *2601:A3 *724:16 0.000771193
5 *2601:A3 *908:10 0.000185185
6 *3141:D *2601:A3 0
*RES
1 *2600:ZN *2601:A3 21.572 
*END

*D_NET *294 0.00158631
*CONN
*I *2604:A2 I *D gf180mcu_fd_sc_mcu7t5v0__nor3_1
*I *2602:ZN O *D gf180mcu_fd_sc_mcu7t5v0__nor2_1
*CAP
1 *2604:A2 0.000632404
2 *2602:ZN 0.000632404
3 *2604:A2 *2602:A1 0
4 *2604:A2 *3287:I 0
5 *2604:A2 *680:171 0.000216146
6 *2601:A2 *2604:A2 0
7 *3142:D *2604:A2 0.000105354
*RES
1 *2602:ZN *2604:A2 13.408 
*END

*D_NET *295 0.000259202
*CONN
*I *2604:A3 I *D gf180mcu_fd_sc_mcu7t5v0__nor3_1
*I *2603:ZN O *D gf180mcu_fd_sc_mcu7t5v0__nor2_1
*CAP
1 *2604:A3 5.07889e-05
2 *2603:ZN 5.07889e-05
3 *2604:A3 *724:16 2.35105e-05
4 *2604:A3 *798:80 0.000134113
*RES
1 *2603:ZN *2604:A3 18.684 
*END

*D_NET *296 0.000943038
*CONN
*I *2607:A2 I *D gf180mcu_fd_sc_mcu7t5v0__nor3_1
*I *2605:ZN O *D gf180mcu_fd_sc_mcu7t5v0__nor2_1
*CAP
1 *2607:A2 0.000379947
2 *2605:ZN 0.000379947
3 *2607:A2 *750:18 8.69862e-05
4 *2609:A1 *2607:A2 9.61582e-05
*RES
1 *2605:ZN *2607:A2 11.28 
*END

*D_NET *297 0.00053871
*CONN
*I *2607:A3 I *D gf180mcu_fd_sc_mcu7t5v0__nor3_1
*I *2606:ZN O *D gf180mcu_fd_sc_mcu7t5v0__nor2_1
*CAP
1 *2607:A3 3.27159e-05
2 *2606:ZN 3.27159e-05
3 *2607:A3 *798:14 0.000331102
4 *3143:D *2607:A3 0.000142176
*RES
1 *2606:ZN *2607:A3 18.836 
*END

*D_NET *298 0.000895993
*CONN
*I *2609:B I *D gf180mcu_fd_sc_mcu7t5v0__aoi211_1
*I *2608:ZN O *D gf180mcu_fd_sc_mcu7t5v0__nor2_1
*CAP
1 *2609:B 0.000338019
2 *2608:ZN 0.000338019
3 *2609:B *2608:A1 7.98484e-05
4 *2609:B *3000:C2 3.77075e-05
5 *2609:B *763:76 0.0001024
*RES
1 *2608:ZN *2609:B 11.432 
*END

*D_NET *299 0.000825696
*CONN
*I *2611:B I *D gf180mcu_fd_sc_mcu7t5v0__aoi211_1
*I *2610:ZN O *D gf180mcu_fd_sc_mcu7t5v0__nor2_1
*CAP
1 *2611:B 0.000241383
2 *2610:ZN 0.000241383
3 *2611:B *2611:A2 0.000325645
4 *2611:B *2828:A1 1.72856e-05
*RES
1 *2610:ZN *2611:B 20.204 
*END

*D_NET *300 0.001597
*CONN
*I *2614:A2 I *D gf180mcu_fd_sc_mcu7t5v0__nor3_1
*I *2612:ZN O *D gf180mcu_fd_sc_mcu7t5v0__nor2_1
*CAP
1 *2614:A2 0.000513341
2 *2612:ZN 0.000513341
3 *2614:A2 *2610:A1 2.59409e-05
4 *2614:A2 *2611:A2 1.99784e-05
5 *2614:A2 *2617:A1 0
6 *2614:A2 *3023:B2 0.000165235
7 *2614:A2 *758:36 0.00027686
8 *2625:A1 *2614:A2 0
9 *3146:D *2614:A2 8.22983e-05
*RES
1 *2612:ZN *2614:A2 22.104 
*END

*D_NET *301 0.00180733
*CONN
*I *2614:A3 I *D gf180mcu_fd_sc_mcu7t5v0__nor3_1
*I *2613:ZN O *D gf180mcu_fd_sc_mcu7t5v0__nor2_1
*CAP
1 *2614:A3 0.000285683
2 *2613:ZN 0.000285683
3 *2614:A3 *2611:A2 0.000102644
4 *2614:A3 *2613:A1 0.000376901
5 *2614:A3 *2843:B 3.26422e-05
6 *2614:A3 *3023:B2 0.000186318
7 *2614:A3 *3031:B2 0.000123846
8 *2614:A3 *3151:CLK 0.000104712
9 *2614:A3 *3295:I 7.4219e-06
10 *2614:A3 *764:102 0.000255722
11 *2625:A1 *2614:A3 3.15156e-05
12 *3147:D *2614:A3 1.42418e-05
*RES
1 *2613:ZN *2614:A3 21.572 
*END

*D_NET *302 0.00120716
*CONN
*I *2617:A2 I *D gf180mcu_fd_sc_mcu7t5v0__nor3_1
*I *2615:ZN O *D gf180mcu_fd_sc_mcu7t5v0__nor2_1
*CAP
1 *2617:A2 0.000172109
2 *2615:ZN 0.000172109
3 *2617:A2 *2828:A2 1.70277e-05
4 *2617:A2 *2843:B 0.000246185
5 *2617:A2 *758:26 0.000442141
6 *2617:A2 *758:30 9.52854e-05
7 *2625:A1 *2617:A2 6.23011e-05
*RES
1 *2615:ZN *2617:A2 19.976 
*END

*D_NET *303 0.00254319
*CONN
*I *2617:A3 I *D gf180mcu_fd_sc_mcu7t5v0__nor3_1
*I *2616:ZN O *D gf180mcu_fd_sc_mcu7t5v0__nor2_1
*CAP
1 *2617:A3 0.000388993
2 *2616:ZN 0.000388993
3 *2617:A3 *2611:A2 3.70032e-05
4 *2617:A3 *2620:A2 6.67137e-05
5 *2617:A3 *2627:A2 0.000562336
6 *2617:A3 *2844:A2 0.000316011
7 *2617:A3 *694:39 0.000706228
8 *2617:A3 *758:24 4.40475e-05
9 *2617:A3 *758:26 3.28611e-05
*RES
1 *2616:ZN *2617:A3 22.788 
*END

*D_NET *304 0.00695324
*CONN
*I *2620:A2 I *D gf180mcu_fd_sc_mcu7t5v0__nor3_1
*I *2618:ZN O *D gf180mcu_fd_sc_mcu7t5v0__nor2_1
*CAP
1 *2620:A2 0.000766216
2 *2618:ZN 0.000766216
3 *2620:A2 *2620:A3 0.00108126
4 *2620:A2 *2844:A2 0.000226811
5 *2620:A2 *2976:A3 0
6 *2620:A2 *2978:C1 0
7 *2620:A2 *3151:CLK 0.000146298
8 *2620:A2 *3295:I 0.00209743
9 *2620:A2 *3325:I 4.94368e-05
10 *2620:A2 *568:8 0
11 *2620:A2 *680:47 3.77432e-05
12 *2620:A2 *758:24 0.000396904
13 *2620:A2 *764:78 0.000427414
14 *2620:A2 *764:89 0.000146657
15 *2617:A3 *2620:A2 6.67137e-05
16 *3148:D *2620:A2 4.50449e-05
17 *3150:D *2620:A2 0.00069909
*RES
1 *2618:ZN *2620:A2 38.4 
*END

*D_NET *305 0.00323462
*CONN
*I *2620:A3 I *D gf180mcu_fd_sc_mcu7t5v0__nor3_1
*I *2619:ZN O *D gf180mcu_fd_sc_mcu7t5v0__nor2_1
*CAP
1 *2620:A3 0.000209498
2 *2619:ZN 0.000209498
3 *2620:A3 *3007:B2 1.14422e-05
4 *2620:A3 *3151:CLK 7.83779e-05
5 *2620:A3 *3289:I 3.33035e-05
6 *2620:A3 *3325:I 0.000140167
7 *2620:A3 *568:8 0
8 *2620:A3 *680:47 7.6687e-05
9 *2620:A3 *680:49 4.07251e-05
10 *2620:A3 *693:10 8.15645e-05
11 *2620:A3 *693:12 0.000269857
12 *2620:A3 *693:14 0.000340241
13 *2620:A3 *799:95 0.000126727
14 *2620:A3 *799:105 0.000535275
15 *2620:A2 *2620:A3 0.00108126
*RES
1 *2619:ZN *2620:A3 31.636 
*END

*D_NET *306 0.00386698
*CONN
*I *2623:A2 I *D gf180mcu_fd_sc_mcu7t5v0__nor3_1
*I *2621:ZN O *D gf180mcu_fd_sc_mcu7t5v0__nor2_1
*CAP
1 *2623:A2 0.00101712
2 *2621:ZN 0.00101712
3 *2623:A2 *2623:A3 2.9378e-06
4 *2623:A2 *2627:A1 0.000379283
5 *2623:A2 *2628:A2 8.45297e-05
6 *2623:A2 *2628:A3 0.000128034
7 *2623:A2 *3007:C2 0.000153137
8 *2623:A2 *3009:A1 6.63508e-06
9 *2623:A2 *3023:C1 1.20079e-05
10 *2623:A2 *3040:B2 0.000190068
11 *2623:A2 *3153:CLK 7.71175e-06
12 *2623:A2 *694:39 0
13 *2623:A2 *778:16 0.00011528
14 *2623:A2 *781:21 0.000715757
15 *2623:A2 *799:85 2.74753e-05
16 *2623:A2 *799:95 9.88736e-06
*RES
1 *2621:ZN *2623:A2 26.892 
*END

*D_NET *307 0.000485854
*CONN
*I *2623:A3 I *D gf180mcu_fd_sc_mcu7t5v0__nor3_1
*I *2622:ZN O *D gf180mcu_fd_sc_mcu7t5v0__nor2_1
*CAP
1 *2623:A3 0.000176696
2 *2622:ZN 0.000176696
3 *2623:A3 *3009:A1 0.000122889
4 *2623:A3 *799:95 6.63508e-06
5 *2623:A2 *2623:A3 2.9378e-06
6 *3152:D *2623:A3 0
*RES
1 *2622:ZN *2623:A3 10.216 
*END

*D_NET *308 0.00219186
*CONN
*I *2625:B I *D gf180mcu_fd_sc_mcu7t5v0__aoi211_1
*I *2624:ZN O *D gf180mcu_fd_sc_mcu7t5v0__nor2_1
*CAP
1 *2625:B 0.000553272
2 *2624:ZN 0.000553272
3 *2625:B *2616:A1 3.93381e-05
4 *2625:B *2625:A2 6.04444e-06
5 *2625:B *2843:B 8.69862e-05
6 *2625:B *2844:A2 2.6771e-05
7 *2625:B *3007:A1 0
8 *2625:B *3023:B2 0
9 *2625:B *3143:CLK 1.97747e-05
10 *2625:B *3292:I 0.000280313
11 *2625:B *694:39 0.000142194
12 *2625:B *764:52 0.000344598
13 *2625:B *764:54 0.000139294
*RES
1 *2624:ZN *2625:B 22.712 
*END

*D_NET *309 0.00141163
*CONN
*I *2628:A2 I *D gf180mcu_fd_sc_mcu7t5v0__nor3_1
*I *2626:ZN O *D gf180mcu_fd_sc_mcu7t5v0__nor2_1
*CAP
1 *2628:A2 0.000432173
2 *2626:ZN 0.000432173
3 *2628:A2 *2628:A3 7.49908e-05
4 *2628:A2 *3007:A1 0.000172872
5 *2628:A2 *694:39 5.23856e-05
6 *2623:A2 *2628:A2 8.45297e-05
7 *3151:D *2628:A2 0.000162502
*RES
1 *2626:ZN *2628:A2 12.496 
*END

*D_NET *310 0.00118449
*CONN
*I *2628:A3 I *D gf180mcu_fd_sc_mcu7t5v0__nor3_1
*I *2627:ZN O *D gf180mcu_fd_sc_mcu7t5v0__nor2_1
*CAP
1 *2628:A3 0.000105147
2 *2627:ZN 0.000105147
3 *2628:A3 *2627:A1 0.000379283
4 *2628:A3 *3007:A1 0.000360997
5 *2628:A3 *781:21 3.08902e-05
6 *2623:A2 *2628:A3 0.000128034
7 *2628:A2 *2628:A3 7.49908e-05
*RES
1 *2627:ZN *2628:A3 10.9 
*END

*D_NET *311 0.00377557
*CONN
*I *2631:A2 I *D gf180mcu_fd_sc_mcu7t5v0__nor3_1
*I *2629:ZN O *D gf180mcu_fd_sc_mcu7t5v0__nor2_1
*CAP
1 *2631:A2 0.000505296
2 *2629:ZN 0.000505296
3 *2631:A2 *2631:A1 2.22657e-05
4 *2631:A2 *2633:B 0.000741951
5 *2631:A2 *2633:C 6.7429e-05
6 *2631:A2 *3023:B1 0.00018435
7 *2631:A2 *3023:C2 0.000257276
8 *2631:A2 *3040:B2 4.724e-05
9 *2631:A2 *765:62 0.000476393
10 *2631:A2 *799:68 0.0006539
11 *2633:A1 *2631:A2 0.000314174
*RES
1 *2629:ZN *2631:A2 24.916 
*END

*D_NET *312 0.00213286
*CONN
*I *2631:A3 I *D gf180mcu_fd_sc_mcu7t5v0__nor3_1
*I *2630:ZN O *D gf180mcu_fd_sc_mcu7t5v0__nor2_1
*CAP
1 *2631:A3 0.000405711
2 *2630:ZN 0.000405711
3 *2631:A3 *2991:C2 0.000348603
4 *2631:A3 *3033:A1 0.000369754
5 *2631:A3 *3042:A1 5.09868e-05
6 *2631:A3 *765:62 0.000248576
7 *2631:A3 *774:26 0.000196402
8 *3149:D *2631:A3 0.000102021
9 *3152:D *2631:A3 5.09719e-06
*RES
1 *2630:ZN *2631:A3 22.484 
*END

*D_NET *313 0.00150158
*CONN
*I *2633:B I *D gf180mcu_fd_sc_mcu7t5v0__aoi211_1
*I *2632:ZN O *D gf180mcu_fd_sc_mcu7t5v0__nor2_1
*CAP
1 *2633:B 0.000241261
2 *2632:ZN 0.000241261
3 *2633:B *2633:C 3.08902e-05
4 *2633:B *3153:CLK 0
5 *2633:B *758:12 0.000158886
6 *2631:A2 *2633:B 0.000741951
7 *2633:A1 *2633:B 1.20079e-05
8 *3153:D *2633:B 7.53241e-05
*RES
1 *2632:ZN *2633:B 20.888 
*END

*D_NET *314 0.00109455
*CONN
*I *2636:A2 I *D gf180mcu_fd_sc_mcu7t5v0__nor3_1
*I *2634:ZN O *D gf180mcu_fd_sc_mcu7t5v0__nor2_1
*CAP
1 *2636:A2 0.000498877
2 *2634:ZN 0.000498877
3 *2636:A2 *2634:A1 7.50749e-05
4 *2636:A2 *901:8 0
5 *2636:A2 *902:10 2.17248e-05
*RES
1 *2634:ZN *2636:A2 12.344 
*END

*D_NET *315 0.00214988
*CONN
*I *2636:A3 I *D gf180mcu_fd_sc_mcu7t5v0__nor3_1
*I *2635:ZN O *D gf180mcu_fd_sc_mcu7t5v0__nor2_1
*CAP
1 *2636:A3 0.000265364
2 *2635:ZN 0.000265364
3 *2636:A3 *2635:A1 0.000467845
4 *2636:A3 *2639:A2 3.10545e-05
5 *2636:A3 *3040:A1 9.60518e-06
6 *2636:A3 *766:16 0.000230208
7 *2636:A3 *799:38 0.000684193
8 *2636:A3 *902:10 3.16675e-05
9 *3154:D *2636:A3 0.000164576
*RES
1 *2635:ZN *2636:A3 21.8 
*END

*D_NET *316 0.00100482
*CONN
*I *2639:A2 I *D gf180mcu_fd_sc_mcu7t5v0__nor3_1
*I *2637:ZN O *D gf180mcu_fd_sc_mcu7t5v0__nor2_1
*CAP
1 *2639:A2 0.00038855
2 *2637:ZN 0.00038855
3 *2639:A2 *799:38 5.4883e-05
4 *2639:A2 *902:10 0
5 *2636:A3 *2639:A2 3.10545e-05
6 *3275:I *2639:A2 0.000141778
*RES
1 *2637:ZN *2639:A2 11.66 
*END

*D_NET *317 0.000383765
*CONN
*I *2639:A3 I *D gf180mcu_fd_sc_mcu7t5v0__nor3_1
*I *2638:ZN O *D gf180mcu_fd_sc_mcu7t5v0__nor2_1
*CAP
1 *2639:A3 2.7662e-05
2 *2638:ZN 2.7662e-05
3 *2639:A3 *2635:A1 0.000151949
4 *2639:A3 *2638:A2 5.19228e-05
5 *2639:A3 *3023:C2 0.00012457
*RES
1 *2638:ZN *2639:A3 18.684 
*END

*D_NET *318 0.00124435
*CONN
*I *2641:B I *D gf180mcu_fd_sc_mcu7t5v0__aoi211_1
*I *2640:ZN O *D gf180mcu_fd_sc_mcu7t5v0__nor2_1
*CAP
1 *2641:B 3.81718e-05
2 *2640:ZN 3.81718e-05
3 *2641:B *2640:A1 0.000542427
4 *2641:B *2641:C 3.08902e-05
5 *2641:B *799:27 0.00057798
6 *3275:I *2641:B 1.67041e-05
*RES
1 *2640:ZN *2641:B 10.596 
*END

*D_NET *319 0.00308
*CONN
*I *2644:A2 I *D gf180mcu_fd_sc_mcu7t5v0__nor3_1
*I *2642:ZN O *D gf180mcu_fd_sc_mcu7t5v0__nor2_1
*CAP
1 *2644:A2 0.000578779
2 *2642:ZN 0.000578779
3 *2644:A2 *2644:A1 0.000469567
4 *2644:A2 *2647:A2 2.18251e-05
5 *2644:A2 *2648:A2 4.1381e-05
6 *2644:A2 *2649:A1 1.02823e-05
7 *2644:A2 *2649:A2 4.04599e-05
8 *2644:A2 *3007:C2 4.07251e-05
9 *2644:A2 *3040:C2 6.21409e-05
10 *2644:A2 *3154:CLK 0
11 *2644:A2 *684:45 0.000922786
12 *2644:A2 *766:8 0.00010693
13 *2644:A2 *803:71 0.000206341
*RES
1 *2642:ZN *2644:A2 23.776 
*END

*D_NET *320 0.00188766
*CONN
*I *2644:A3 I *D gf180mcu_fd_sc_mcu7t5v0__nor3_1
*I *2643:ZN O *D gf180mcu_fd_sc_mcu7t5v0__nor2_1
*CAP
1 *2644:A3 0.000564503
2 *2643:ZN 0.000564503
3 *2644:A3 *2646:A1 0
4 *2644:A3 *3007:C2 2.22758e-05
5 *2644:A3 *3149:CLK 0
6 *2644:A3 *766:28 0.000394625
7 *2644:A3 *906:8 2.9378e-06
8 *2641:A1 *2644:A3 0.000287391
9 *3157:D *2644:A3 4.52224e-05
10 *3275:I *2644:A3 6.1992e-06
*RES
1 *2643:ZN *2644:A3 22.256 
*END

*D_NET *321 0.00373457
*CONN
*I *2647:A2 I *D gf180mcu_fd_sc_mcu7t5v0__nor3_1
*I *2645:ZN O *D gf180mcu_fd_sc_mcu7t5v0__nor2_1
*CAP
1 *2647:A2 0.000380465
2 *2645:ZN 0.000380465
3 *2647:A2 *2646:A2 0.000219168
4 *2647:A2 *2647:A1 0.000191693
5 *2647:A2 *2648:A1 0.000618391
6 *2647:A2 *2648:A2 0.000509981
7 *2647:A2 *3374:I 0.000250681
8 *2647:A2 *759:88 4.17249e-05
9 *2647:A2 *766:8 0.000820994
10 *2644:A2 *2647:A2 2.18251e-05
11 *3159:D *2647:A2 0.000299179
*RES
1 *2645:ZN *2647:A2 15.156 
*END

*D_NET *322 0.00100535
*CONN
*I *2647:A3 I *D gf180mcu_fd_sc_mcu7t5v0__nor3_1
*I *2646:ZN O *D gf180mcu_fd_sc_mcu7t5v0__nor2_1
*CAP
1 *2647:A3 0.000184771
2 *2646:ZN 0.000184771
3 *2647:A3 *2646:A2 0.000568059
4 *2647:A3 *684:49 0
5 *3158:D *2647:A3 6.77492e-05
*RES
1 *2646:ZN *2647:A3 10.976 
*END

*D_NET *323 0.0021405
*CONN
*I *2650:A2 I *D gf180mcu_fd_sc_mcu7t5v0__nor3_1
*I *2648:ZN O *D gf180mcu_fd_sc_mcu7t5v0__nor2_1
*CAP
1 *2650:A2 0.000407657
2 *2648:ZN 0.000407657
3 *2650:A2 *2649:A2 9.54497e-05
4 *2650:A2 *2650:A1 3.08902e-05
5 *2650:A2 *2650:A3 0.000713236
6 *2650:A2 *3007:C2 0
7 *2650:A2 *684:19 0.000255303
8 *2650:A2 *684:25 8.46598e-05
9 *2650:A2 *684:45 0.000145651
*RES
1 *2648:ZN *2650:A2 22.332 
*END

*D_NET *324 0.00133191
*CONN
*I *2650:A3 I *D gf180mcu_fd_sc_mcu7t5v0__nor3_1
*I *2649:ZN O *D gf180mcu_fd_sc_mcu7t5v0__nor2_1
*CAP
1 *2650:A3 0.00017245
2 *2649:ZN 0.00017245
3 *2650:A3 *2649:A1 0.000246974
4 *2650:A3 *3007:C2 2.67943e-05
5 *2650:A2 *2650:A3 0.000713236
*RES
1 *2649:ZN *2650:A3 11.128 
*END

*D_NET *325 0.00126576
*CONN
*I *2653:A2 I *D gf180mcu_fd_sc_mcu7t5v0__nor3_1
*I *2651:ZN O *D gf180mcu_fd_sc_mcu7t5v0__nor2_1
*CAP
1 *2653:A2 0.000262969
2 *2651:ZN 0.000262969
3 *2653:A2 *2651:A1 6.73926e-05
4 *2653:A2 *2653:A3 0
5 *2653:A2 *3160:CLK 0.000500461
6 *2653:A2 *3316:I 0.000102644
7 *2653:A2 *469:22 5.88975e-06
8 *2653:A2 *759:64 5.19077e-05
9 *3160:D *2653:A2 1.15244e-05
*RES
1 *2651:ZN *2653:A2 11.736 
*END

*D_NET *326 0.000576477
*CONN
*I *2653:A3 I *D gf180mcu_fd_sc_mcu7t5v0__nor3_1
*I *2652:ZN O *D gf180mcu_fd_sc_mcu7t5v0__nor2_1
*CAP
1 *2653:A3 9.00742e-05
2 *2652:ZN 9.00742e-05
3 *2653:A3 *2653:A1 7.88344e-05
4 *2653:A3 *3316:I 0.000317494
5 *2653:A2 *2653:A3 0
*RES
1 *2652:ZN *2653:A3 10.064 
*END

*D_NET *327 0.00330567
*CONN
*I *2656:A2 I *D gf180mcu_fd_sc_mcu7t5v0__nor3_1
*I *2654:ZN O *D gf180mcu_fd_sc_mcu7t5v0__nor2_1
*CAP
1 *2656:A2 0.000388312
2 *2654:ZN 0.000388312
3 *2656:A2 *2656:A1 6.73926e-05
4 *2656:A2 *2656:A3 0.000778325
5 *2656:A2 *2659:A2 0.000321946
6 *2656:A2 *2659:A3 0
7 *2656:A2 *3294:I 0.000275979
8 *2656:A2 *687:25 5.85769e-05
9 *2656:A2 *759:54 0
10 *2657:A2 *2656:A2 0.000961764
11 *3161:D *2656:A2 6.50663e-05
*RES
1 *2654:ZN *2656:A2 23.396 
*END

*D_NET *328 0.00157742
*CONN
*I *2656:A3 I *D gf180mcu_fd_sc_mcu7t5v0__nor3_1
*I *2655:ZN O *D gf180mcu_fd_sc_mcu7t5v0__nor2_1
*CAP
1 *2656:A3 5.97e-05
2 *2655:ZN 5.97e-05
3 *2656:A3 *2655:A1 0.000187647
4 *2656:A3 *2655:A2 5.81307e-05
5 *2656:A3 *2662:A1 0.000433917
6 *2656:A2 *2656:A3 0.000778325
*RES
1 *2655:ZN *2656:A3 11.052 
*END

*D_NET *329 0.000750814
*CONN
*I *2659:A2 I *D gf180mcu_fd_sc_mcu7t5v0__nor3_1
*I *2657:ZN O *D gf180mcu_fd_sc_mcu7t5v0__nor2_1
*CAP
1 *2659:A2 2.98372e-05
2 *2657:ZN 2.98372e-05
3 *2659:A2 *3294:I 8.62813e-05
4 *2659:A2 *687:10 0.00025099
5 *2656:A2 *2659:A2 0.000321946
6 *2657:A2 *2659:A2 3.19219e-05
*RES
1 *2657:ZN *2659:A2 18.988 
*END

*D_NET *330 0.00255816
*CONN
*I *2659:A3 I *D gf180mcu_fd_sc_mcu7t5v0__nor3_1
*I *2658:ZN O *D gf180mcu_fd_sc_mcu7t5v0__nor2_1
*CAP
1 *2659:A3 0.000397686
2 *2658:ZN 0.000397686
3 *2659:A3 *2655:A1 9.50423e-05
4 *2659:A3 *2655:A2 0.000335795
5 *2659:A3 *2656:A1 3.89111e-05
6 *2659:A3 *2659:A1 4.07435e-05
7 *2659:A3 *2662:A1 0.000199473
8 *2659:A3 *3294:I 0.000218871
9 *2659:A3 *3317:I 0.000607364
10 *2659:A3 *680:240 0
11 *2659:A3 *687:25 3.2657e-05
12 *2659:A3 *792:34 0.000193933
13 *2656:A2 *2659:A3 0
*RES
1 *2658:ZN *2659:A3 22.94 
*END

*D_NET *331 0.00124995
*CONN
*I *2662:A2 I *D gf180mcu_fd_sc_mcu7t5v0__nor3_1
*I *2660:ZN O *D gf180mcu_fd_sc_mcu7t5v0__nor2_1
*CAP
1 *2662:A2 0.000345454
2 *2660:ZN 0.000345454
3 *2662:A2 *2662:A1 5.53802e-05
4 *2662:A2 *3280:I 7.40232e-05
5 *2662:A2 *469:22 0.000255714
6 *2662:A2 *759:58 0
7 *2662:A2 *759:64 8.54902e-05
8 *2657:A2 *2662:A2 8.84331e-05
*RES
1 *2660:ZN *2662:A2 20.736 
*END

*D_NET *332 0.00165375
*CONN
*I *2662:A3 I *D gf180mcu_fd_sc_mcu7t5v0__nor3_1
*I *2661:ZN O *D gf180mcu_fd_sc_mcu7t5v0__nor2_1
*CAP
1 *2662:A3 0.000307358
2 *2661:ZN 0.000307358
3 *2662:A3 *3280:I 4.82713e-05
4 *2662:A3 *3297:I 0.000768034
5 *2662:A3 *469:22 0
6 *2662:A3 *759:64 0
7 *3163:D *2662:A3 0.00022273
*RES
1 *2661:ZN *2662:A3 21.192 
*END

*D_NET *333 0.00478379
*CONN
*I *3319:I I *D gf180mcu_fd_sc_mcu7t5v0__dlyb_1
*I *2663:ZN O *D gf180mcu_fd_sc_mcu7t5v0__nor2_1
*CAP
1 *3319:I 0.00158583
2 *2663:ZN 0.00158583
3 *3319:I *2664:A1 0.000168413
4 *3319:I *2944:A1 0
5 *3319:I *2956:A2 4.28486e-05
6 *3319:I *2957:B 5.14116e-06
7 *3319:I *2958:A1 0.000901106
8 *3319:I *3238:CLK 8.69042e-05
9 *3319:I *3265:CLK 0
10 *3319:I *3272:CLK 0
11 *3319:I *334:10 0
12 *3319:I *553:12 6.73834e-05
13 *3319:I *686:42 0
14 *3319:I *697:30 7.98048e-05
15 *3319:I *703:56 9.20566e-06
16 *3319:I *704:25 0.000138364
17 *3319:I *804:67 0
18 *3319:I *805:49 0.000112962
19 *3319:I *926:6 0
*RES
1 *2663:ZN *3319:I 30.008 
*END

*D_NET *334 0.0162473
*CONN
*I *2944:A1 I *D gf180mcu_fd_sc_mcu7t5v0__nor2_1
*I *3316:I I *D gf180mcu_fd_sc_mcu7t5v0__dlyb_1
*I *2931:B I *D gf180mcu_fd_sc_mcu7t5v0__aoi211_1
*I *2935:C I *D gf180mcu_fd_sc_mcu7t5v0__aoi211_1
*I *2664:Z O *D gf180mcu_fd_sc_mcu7t5v0__or2_1
*CAP
1 *2944:A1 0.000801903
2 *3316:I 0.000700296
3 *2931:B 0
4 *2935:C 0.000530588
5 *2664:Z 0
6 *334:16 0.000612257
7 *334:10 0.00146185
8 *334:6 0.00148179
9 *2935:C *2653:A1 2.6126e-05
10 *2935:C *2822:A2 2.23477e-05
11 *2935:C *2839:A2 0.00044959
12 *2935:C *2841:A1 0.000513594
13 *2935:C *2933:A1 0.000441055
14 *2935:C *2935:A2 0.000432994
15 *2935:C *2935:B 0.000850225
16 *2935:C *467:36 2.47727e-05
17 *2935:C *469:22 0.000249619
18 *2935:C *702:65 0.000387765
19 *2935:C *872:30 3.84832e-06
20 *2944:A1 *2484:I 3.81447e-05
21 *2944:A1 *2940:A1 0.00023197
22 *2944:A1 *543:8 0.000362569
23 *2944:A1 *549:16 0.00023573
24 *2944:A1 *686:6 8.1724e-05
25 *2944:A1 *704:65 0.00119486
26 *2944:A1 *759:54 0.000149317
27 *2944:A1 *791:17 0
28 *2944:A1 *791:30 0
29 *3316:I *2652:A2 0.000255722
30 *3316:I *2653:A1 0.000120146
31 *3316:I *2660:A1 0.000202268
32 *3316:I *2925:A1 5.98028e-05
33 *3316:I *2929:B 8.55819e-05
34 *3316:I *3160:CLK 0.000135795
35 *3316:I *3317:I 0
36 *3316:I *469:22 0
37 *3316:I *685:19 5.88474e-05
38 *3316:I *885:6 7.46669e-05
39 *3316:I *888:12 0.000144734
40 *334:10 *3031:C2 0
41 *334:10 *805:49 0.000822088
42 *334:10 *872:30 0.000215472
43 *334:10 *911:10 0
44 *334:16 *2653:A1 3.2235e-05
45 *334:16 *2929:B 3.08902e-05
46 *334:16 *872:30 1.52691e-05
47 *2653:A2 *3316:I 0.000102644
48 *2653:A3 *3316:I 0.000317494
49 *2657:A2 *3316:I 0.000114041
50 *2821:A2 *2935:C 2.72068e-05
51 *2929:A1 *2935:C 5.5788e-05
52 *3229:D *2935:C 0.000128097
53 *3319:I *2944:A1 0
54 *3319:I *334:10 0
55 *218:8 *334:10 0.000186306
56 *243:26 *3316:I 0.00177345
57 *243:26 *334:16 3.84832e-06
*RES
1 *2664:Z *334:6 9 
2 *334:6 *334:10 10.96 
3 *334:10 *334:16 0.836 
4 *334:16 *2935:C 21.1 
5 *334:16 *2931:B 4.5 
6 *334:10 *3316:I 13.544 
7 *334:6 *2944:A1 25.524 
*END

*D_NET *335 0.00256112
*CONN
*I *3315:I I *D gf180mcu_fd_sc_mcu7t5v0__dlyb_1
*I *2665:ZN O *D gf180mcu_fd_sc_mcu7t5v0__nand2_1
*CAP
1 *3315:I 0.00050083
2 *2665:ZN 0.00050083
3 *3315:I *2500:I 0.000366991
4 *3315:I *3189:CLK 0.00119247
5 *3315:I *3369:I 0
6 *3315:I *706:6 0
*RES
1 *2665:ZN *3315:I 14.168 
*END

*D_NET *336 0.00234837
*CONN
*I *2668:A2 I *D gf180mcu_fd_sc_mcu7t5v0__nor3_1
*I *2670:A2 I *D gf180mcu_fd_sc_mcu7t5v0__and2_1
*I *2669:A2 I *D gf180mcu_fd_sc_mcu7t5v0__nor2_1
*I *2666:Z O *D gf180mcu_fd_sc_mcu7t5v0__and2_1
*CAP
1 *2668:A2 0
2 *2670:A2 0
3 *2669:A2 6.04158e-05
4 *2666:Z 0.000137343
5 *336:12 0.000208129
6 *336:6 0.000285055
7 *2669:A2 *824:12 6.6058e-05
8 *2669:A2 *835:32 5.43087e-05
9 *336:6 *2991:B2 1.5015e-05
10 *336:12 *2668:A1 0.000316029
11 *336:12 *2991:B2 0.000775018
12 *336:12 *756:64 0
13 *336:12 *824:12 1.85245e-05
14 *336:12 *824:32 2.4706e-05
15 *2667:A1 *2669:A2 0.000206341
16 *2667:A1 *336:12 0.000181432
*RES
1 *2666:Z *336:6 5.488 
2 *336:6 *336:12 7.236 
3 *336:12 *2669:A2 9.836 
4 *336:12 *2670:A2 9 
5 *336:6 *2668:A2 4.5 
*END

*D_NET *337 0.000967259
*CONN
*I *2668:A3 I *D gf180mcu_fd_sc_mcu7t5v0__nor3_1
*I *2667:ZN O *D gf180mcu_fd_sc_mcu7t5v0__nor2_1
*CAP
1 *2668:A3 0.000149358
2 *2667:ZN 0.000149358
3 *2668:A3 *2991:B2 3.19194e-05
4 *2668:A3 *3016:B2 0.000312825
5 *2668:A3 *3025:A2 0.000176486
6 *2667:A1 *2668:A3 0.000147313
*RES
1 *2667:ZN *2668:A3 10.824 
*END

*D_NET *338 0.00193367
*CONN
*I *2671:A2 I *D gf180mcu_fd_sc_mcu7t5v0__nor3_1
*I *2669:ZN O *D gf180mcu_fd_sc_mcu7t5v0__nor2_1
*CAP
1 *2671:A2 0.000448794
2 *2669:ZN 0.000448794
3 *2671:A2 *2540:A1 0.000159942
4 *2671:A2 *2671:A3 1.12495e-05
5 *2671:A2 *2999:B2 0
6 *2671:A2 *3025:A2 0.000500766
7 *2671:A2 *3033:A2 2.48312e-05
8 *2671:A2 *786:34 0.000212374
9 *2671:A2 *835:10 2.21744e-05
10 *2671:A2 *840:8 0.000104743
11 *2671:A2 *865:8 0
*RES
1 *2669:ZN *2671:A2 22.408 
*END

*D_NET *339 0.0033206
*CONN
*I *2672:A2 I *D gf180mcu_fd_sc_mcu7t5v0__nor2_1
*I *2671:A3 I *D gf180mcu_fd_sc_mcu7t5v0__nor3_1
*I *2670:Z O *D gf180mcu_fd_sc_mcu7t5v0__and2_1
*CAP
1 *2672:A2 0.000353767
2 *2671:A3 9.81463e-05
3 *2670:Z 0.000112415
4 *339:8 0.000564328
5 *2671:A3 *2991:B2 0.000649902
6 *2671:A3 *3033:A2 3.02222e-05
7 *2671:A3 *756:64 6.73834e-05
8 *2671:A3 *786:34 2.06543e-05
9 *2672:A2 *2668:A1 6.05381e-05
10 *2672:A2 *2672:A1 0.000154651
11 *2672:A2 *3033:A2 0
12 *2672:A2 *840:21 3.22131e-05
13 *339:8 *2668:A1 5.54829e-05
14 *339:8 *2991:B2 0.000400833
15 *339:8 *756:64 0
16 *2671:A2 *2671:A3 1.12495e-05
17 *3165:D *2671:A3 0.000620712
18 *3165:D *339:8 8.81033e-05
*RES
1 *2670:Z *339:8 5.868 
2 *339:8 *2671:A3 15.856 
3 *339:8 *2672:A2 16.008 
*END

*D_NET *340 0.00215978
*CONN
*I *2674:A2 I *D gf180mcu_fd_sc_mcu7t5v0__nor3_1
*I *2672:ZN O *D gf180mcu_fd_sc_mcu7t5v0__nor2_1
*CAP
1 *2674:A2 0.00033366
2 *2672:ZN 0.00033366
3 *2674:A2 *3033:A2 0.000725081
4 *2674:A2 *3042:A2 0.000551947
5 *2674:A2 *341:8 9.27021e-05
6 *2674:A2 *341:25 1.15275e-05
7 *2674:A2 *690:78 3.7319e-05
8 *2674:A2 *756:64 2.89664e-05
9 *3166:D *2674:A2 4.49126e-05
*RES
1 *2672:ZN *2674:A2 21.876 
*END

*D_NET *341 0.00966697
*CONN
*I *2676:A2 I *D gf180mcu_fd_sc_mcu7t5v0__and2_1
*I *2683:A4 I *D gf180mcu_fd_sc_mcu7t5v0__nand4_1
*I *2675:A2 I *D gf180mcu_fd_sc_mcu7t5v0__nor2_1
*I *2674:A3 I *D gf180mcu_fd_sc_mcu7t5v0__nor3_1
*I *2673:Z O *D gf180mcu_fd_sc_mcu7t5v0__and4_1
*CAP
1 *2676:A2 4.52461e-05
2 *2683:A4 4.84112e-05
3 *2675:A2 3.89986e-05
4 *2674:A3 0
5 *2673:Z 0.000463377
6 *341:36 0.000191027
7 *341:25 0.00168468
8 *341:8 0.00201169
9 *2675:A2 *2677:A2 2.96621e-05
10 *2675:A2 *843:23 7.45328e-07
11 *2676:A2 *2542:A1 5.4634e-05
12 *2676:A2 *2676:A1 0.000716846
13 *2676:A2 *842:23 0.000724001
14 *2683:A4 *2539:A1 0.000221474
15 *2683:A4 *785:26 4.7151e-05
16 *2683:A4 *841:14 2.23783e-05
17 *341:8 *3033:A2 0
18 *341:8 *3165:CLK 0.000125537
19 *341:8 *690:78 0
20 *341:8 *756:64 0.00015315
21 *341:25 *2544:A1 5.75752e-06
22 *341:25 *2547:A1 2.11264e-05
23 *341:25 *2674:A1 0
24 *341:25 *2677:A2 0.00010198
25 *341:25 *2677:A3 9.59897e-06
26 *341:25 *3024:B2 0.000649459
27 *341:25 *690:69 0.000777908
28 *341:25 *690:78 0.000178948
29 *341:25 *756:64 0
30 *341:25 *785:133 2.73945e-05
31 *341:25 *797:116 0
32 *341:25 *867:8 0
33 *341:25 *871:12 0
34 *341:36 *2683:A1 0.00033338
35 *341:36 *785:26 2.23783e-05
36 *341:36 *786:10 6.52605e-05
37 *341:36 *841:14 5.83401e-05
38 *2546:A2 *341:25 0.000179609
39 *2547:A3 *341:25 0.000172924
40 *2674:A2 *341:8 9.27021e-05
41 *2674:A2 *341:25 1.15275e-05
42 *3120:D *341:25 9.11742e-05
43 *3166:D *341:8 2.0344e-05
44 *3167:D *2676:A2 1.97747e-05
45 *3167:D *2683:A4 0.000166803
46 *3167:D *341:36 8.15645e-05
*RES
1 *2673:Z *341:8 7.996 
2 *341:8 *2674:A3 4.5 
3 *341:8 *341:25 13.376 
4 *341:25 *2675:A2 4.728 
5 *341:25 *341:36 5.792 
6 *341:36 *2683:A4 9.76 
7 *341:36 *2676:A2 11.052 
*END

*D_NET *342 0.000758749
*CONN
*I *2677:A2 I *D gf180mcu_fd_sc_mcu7t5v0__nor3_1
*I *2675:ZN O *D gf180mcu_fd_sc_mcu7t5v0__nor2_1
*CAP
1 *2677:A2 0.000238206
2 *2675:ZN 0.000238206
3 *2677:A2 *2677:A3 0.000135679
4 *2677:A2 *348:10 1.5015e-05
5 *2677:A2 *843:23 0
6 *2675:A2 *2677:A2 2.96621e-05
7 *341:25 *2677:A2 0.00010198
*RES
1 *2675:ZN *2677:A2 11.052 
*END

*D_NET *343 0.00601421
*CONN
*I *2678:A2 I *D gf180mcu_fd_sc_mcu7t5v0__aoi21_1
*I *2682:A3 I *D gf180mcu_fd_sc_mcu7t5v0__and3_1
*I *2681:A2 I *D gf180mcu_fd_sc_mcu7t5v0__aoi21_1
*I *2677:A3 I *D gf180mcu_fd_sc_mcu7t5v0__nor3_1
*I *2679:A2 I *D gf180mcu_fd_sc_mcu7t5v0__oai21_1
*I *2676:Z O *D gf180mcu_fd_sc_mcu7t5v0__and2_1
*CAP
1 *2678:A2 9.26234e-05
2 *2682:A3 0
3 *2681:A2 0.000345307
4 *2677:A3 0.000283678
5 *2679:A2 0.000105247
6 *2676:Z 0
7 *343:38 0.000345307
8 *343:36 0.000298497
9 *343:4 0.000594798
10 *2677:A3 *2542:A1 0.000129837
11 *2677:A3 *348:10 0.000320005
12 *2677:A3 *785:26 0.000241522
13 *2677:A3 *785:133 2.6126e-05
14 *2677:A3 *842:23 0.000876531
15 *2678:A2 *2678:A1 0.000254766
16 *2678:A2 *2678:B 4.29636e-06
17 *2679:A2 *2678:B 2.2499e-05
18 *2679:A2 *2680:I 0.000142801
19 *2679:A2 *348:10 0.000185116
20 *2679:A2 *842:12 0.000166811
21 *2679:A2 *842:23 0.000302604
22 *2679:A2 *844:12 1.46098e-05
23 *2681:A2 *2681:A1 0.000514574
24 *2681:A2 *348:10 0
25 *2681:A2 *842:66 0.000382282
26 *2681:A2 *843:12 8.81341e-06
27 *2681:A2 *843:14 2.17381e-05
28 *343:36 *2678:B 4.94553e-05
29 *343:36 *2684:A3 0.000136928
30 *2677:A2 *2677:A3 0.000135679
31 *3169:D *2679:A2 2.16288e-06
32 *341:25 *2677:A3 9.59897e-06
*RES
1 *2676:Z *343:4 4.5 
2 *343:4 *2679:A2 15.172 
3 *343:4 *2677:A3 8.68 
4 *343:4 *343:36 5.944 
5 *343:36 *343:38 4.5 
6 *343:38 *2681:A2 7.616 
7 *343:38 *2682:A3 4.5 
8 *343:36 *2678:A2 9.836 
*END

*D_NET *344 0.0021897
*CONN
*I *2679:B I *D gf180mcu_fd_sc_mcu7t5v0__oai21_1
*I *2678:ZN O *D gf180mcu_fd_sc_mcu7t5v0__aoi21_1
*CAP
1 *2679:B 0.000118993
2 *2678:ZN 0.000118993
3 *2679:B *2678:B 0.000978606
4 *2679:B *2680:I 0.000957182
5 *2679:B *843:14 1.59244e-05
*RES
1 *2678:ZN *2679:B 20.888 
*END

*D_NET *345 0.00254345
*CONN
*I *2680:I I *D gf180mcu_fd_sc_mcu7t5v0__clkinv_1
*I *2679:ZN O *D gf180mcu_fd_sc_mcu7t5v0__oai21_1
*CAP
1 *2680:I 0.000327519
2 *2679:ZN 0.000327519
3 *2680:I *2678:B 0.000202284
4 *2680:I *3373:I 1.18988e-05
5 *2680:I *842:12 0.00015961
6 *2680:I *842:53 0.000158869
7 *2680:I *843:12 2.69281e-06
8 *2679:A2 *2680:I 0.000142801
9 *2679:B *2680:I 0.000957182
10 *3168:D *2680:I 0.000253072
11 *3169:D *2680:I 0
*RES
1 *2679:ZN *2680:I 22.712 
*END

*D_NET *346 0.00180022
*CONN
*I *2684:A2 I *D gf180mcu_fd_sc_mcu7t5v0__nor3_1
*I *2681:ZN O *D gf180mcu_fd_sc_mcu7t5v0__aoi21_1
*CAP
1 *2684:A2 0.00048823
2 *2681:ZN 0.00048823
3 *2684:A2 *2685:A1 7.49908e-05
4 *2684:A2 *2685:A2 0.000592204
5 *3169:D *2684:A2 0.000156561
*RES
1 *2681:ZN *2684:A2 22.408 
*END

*D_NET *347 0.00238648
*CONN
*I *2685:A2 I *D gf180mcu_fd_sc_mcu7t5v0__nor2_1
*I *2684:A3 I *D gf180mcu_fd_sc_mcu7t5v0__nor3_1
*I *2682:Z O *D gf180mcu_fd_sc_mcu7t5v0__and3_1
*CAP
1 *2685:A2 0.000199163
2 *2684:A3 0.000512051
3 *2682:Z 0.000312888
4 *2684:A3 *2678:B 0.000114811
5 *2684:A3 *348:10 0.000411906
6 *2684:A3 *785:26 1.37853e-05
7 *2684:A3 *785:28 4.19077e-05
8 *2684:A3 *785:38 7.24161e-06
9 *2684:A3 *842:12 1.72912e-05
10 *2684:A3 *842:23 2.05424e-05
11 *2685:A2 *844:12 5.75752e-06
12 *2684:A2 *2685:A2 0.000592204
13 *3170:D *2685:A2 0
14 *343:36 *2684:A3 0.000136928
*RES
1 *2682:Z *2684:A3 20.584 
2 *2684:A3 *2685:A2 10.748 
*END

*D_NET *348 0.0057251
*CONN
*I *2686:A2 I *D gf180mcu_fd_sc_mcu7t5v0__nor2_1
*I *2689:A3 I *D gf180mcu_fd_sc_mcu7t5v0__nor3_1
*I *2699:A3 I *D gf180mcu_fd_sc_mcu7t5v0__nor4_1
*I *2683:ZN O *D gf180mcu_fd_sc_mcu7t5v0__nand4_1
*CAP
1 *2686:A2 0.00011493
2 *2689:A3 4.33078e-05
3 *2699:A3 0.000183974
4 *2683:ZN 0.000678706
5 *348:12 0.000385036
6 *348:10 0.000951389
7 *2686:A2 *845:8 0
8 *2699:A3 *352:19 1.34641e-06
9 *2699:A3 *689:53 4.61366e-05
10 *2699:A3 *689:57 0.000198061
11 *2699:A3 *785:64 0
12 *2699:A3 *825:23 0
13 *348:10 *2496:I 0.000177399
14 *348:10 *2678:B 0.000674071
15 *348:10 *785:38 2.43558e-05
16 *348:10 *843:23 0
17 *348:12 *2496:I 7.09389e-05
18 *348:12 *689:53 6.91912e-05
19 *2677:A2 *348:10 1.5015e-05
20 *2677:A3 *348:10 0.000320005
21 *2679:A2 *348:10 0.000185116
22 *2681:A2 *348:10 0
23 *2684:A3 *348:10 0.000411906
24 *3171:D *2686:A2 0
25 *3171:D *2689:A3 0.000241525
26 *216:10 *2699:A3 8.78761e-05
27 *216:10 *348:12 0.00017961
28 *216:19 *2699:A3 0.000477559
29 *217:10 *348:10 7.48974e-05
30 *217:14 *348:12 8.05328e-06
31 *217:18 *2689:A3 0.000104697
*RES
1 *2683:ZN *348:10 15.536 
2 *348:10 *348:12 1.596 
3 *348:12 *2699:A3 10.976 
4 *348:12 *2689:A3 9.684 
5 *348:10 *2686:A2 9.532 
*END

*D_NET *349 0.000447847
*CONN
*I *2687:A2 I *D gf180mcu_fd_sc_mcu7t5v0__nor3_1
*I *2685:ZN O *D gf180mcu_fd_sc_mcu7t5v0__nor2_1
*CAP
1 *2687:A2 0.000223924
2 *2685:ZN 0.000223924
3 *3169:D *2687:A2 0
4 *3170:D *2687:A2 0
*RES
1 *2685:ZN *2687:A2 19.444 
*END

*D_NET *350 0.000887864
*CONN
*I *2688:A2 I *D gf180mcu_fd_sc_mcu7t5v0__nor2_1
*I *2687:A3 I *D gf180mcu_fd_sc_mcu7t5v0__nor3_1
*I *2686:ZN O *D gf180mcu_fd_sc_mcu7t5v0__nor2_1
*CAP
1 *2688:A2 0
2 *2687:A3 0.000267503
3 *2686:ZN 7.65413e-05
4 *350:6 0.000344044
5 *2687:A3 *2687:A1 0.000137535
6 *2687:A3 *785:38 6.22405e-05
*RES
1 *2686:ZN *350:6 5.032 
2 *350:6 *2687:A3 6.4 
3 *350:6 *2688:A2 4.5 
*END

*D_NET *351 0.00204163
*CONN
*I *2690:A2 I *D gf180mcu_fd_sc_mcu7t5v0__nor3_1
*I *2688:ZN O *D gf180mcu_fd_sc_mcu7t5v0__nor2_1
*CAP
1 *2690:A2 0.000234016
2 *2688:ZN 0.000234016
3 *2690:A2 *2690:A1 1.52768e-05
4 *2690:A2 *785:49 0.00013609
5 *2690:A2 *785:64 7.39334e-05
6 *3171:D *2690:A2 0.000370534
7 *217:10 *2690:A2 0.000254094
8 *217:14 *2690:A2 0.000723669
*RES
1 *2688:ZN *2690:A2 21.344 
*END

*D_NET *352 0.00582703
*CONN
*I *2695:A3 I *D gf180mcu_fd_sc_mcu7t5v0__and3_1
*I *2692:A2 I *D gf180mcu_fd_sc_mcu7t5v0__oai21_1
*I *2691:A2 I *D gf180mcu_fd_sc_mcu7t5v0__aoi21_1
*I *2694:A2 I *D gf180mcu_fd_sc_mcu7t5v0__aoi21_1
*I *2690:A3 I *D gf180mcu_fd_sc_mcu7t5v0__nor3_1
*I *2689:ZN O *D gf180mcu_fd_sc_mcu7t5v0__nor3_1
*CAP
1 *2695:A3 0.000127928
2 *2692:A2 0
3 *2691:A2 0.000145325
4 *2694:A2 8.23201e-05
5 *2690:A3 0.00024453
6 *2689:ZN 0
7 *352:36 0.000620302
8 *352:21 0.0006312
9 *352:19 0.00044607
10 *352:4 0.000488768
11 *2690:A3 *689:57 0.000146149
12 *2691:A2 *2692:A1 0.000412903
13 *2691:A2 *2692:B 2.57058e-06
14 *2691:A2 *2693:I 4.07337e-05
15 *2694:A2 *2694:A1 5.94709e-06
16 *2694:A2 *2694:B 7.52295e-05
17 *2694:A2 *2696:A1 8.46598e-05
18 *2694:A2 *2696:A2 4.50449e-05
19 *2694:A2 *2696:A3 2.05156e-05
20 *2694:A2 *3174:CLK 4.27914e-05
21 *2695:A3 *846:45 0.00048852
22 *352:19 *2694:B 3.02222e-05
23 *352:19 *2696:A1 6.87188e-05
24 *352:19 *2697:A1 0
25 *352:19 *785:64 0.000342984
26 *352:19 *825:10 0
27 *352:21 *2694:B 0.000288131
28 *352:21 *2696:A1 0.000371562
29 *352:36 *2692:B 4.97386e-06
30 *352:36 *3174:CLK 0.000292079
31 *2699:A3 *352:19 1.34641e-06
32 *3171:D *2690:A3 0.000206415
33 *3172:D *352:36 1.81888e-05
34 *3173:D *352:36 2.23477e-05
35 *3174:D *2695:A3 1.57671e-05
36 *217:18 *2690:A3 1.27895e-05
*RES
1 *2689:ZN *352:4 4.5 
2 *352:4 *2690:A3 6.096 
3 *352:4 *352:19 6.856 
4 *352:19 *352:21 2.052 
5 *352:21 *2694:A2 10.064 
6 *352:21 *352:36 7.464 
7 *352:36 *2691:A2 15.02 
8 *352:36 *2692:A2 4.5 
9 *352:19 *2695:A3 10.292 
*END

*D_NET *353 0.000250284
*CONN
*I *2692:B I *D gf180mcu_fd_sc_mcu7t5v0__oai21_1
*I *2691:ZN O *D gf180mcu_fd_sc_mcu7t5v0__aoi21_1
*CAP
1 *2692:B 0.000115604
2 *2691:ZN 0.000115604
3 *2692:B *846:8 1.15312e-05
4 *2691:A2 *2692:B 2.57058e-06
5 *352:36 *2692:B 4.97386e-06
*RES
1 *2691:ZN *2692:B 9.76 
*END

*D_NET *354 0.00147635
*CONN
*I *2693:I I *D gf180mcu_fd_sc_mcu7t5v0__clkinv_1
*I *2692:ZN O *D gf180mcu_fd_sc_mcu7t5v0__oai21_1
*CAP
1 *2693:I 0.000503908
2 *2692:ZN 0.000503908
3 *2693:I *3172:CLK 0.000386421
4 *2691:A2 *2693:I 4.07337e-05
5 *3172:D *2693:I 4.1381e-05
6 *3173:D *2693:I 0
*RES
1 *2692:ZN *2693:I 21.8 
*END

*D_NET *355 0.000485107
*CONN
*I *2696:A2 I *D gf180mcu_fd_sc_mcu7t5v0__nor3_1
*I *2694:ZN O *D gf180mcu_fd_sc_mcu7t5v0__aoi21_1
*CAP
1 *2696:A2 6.7414e-05
2 *2694:ZN 6.7414e-05
3 *2696:A2 *2696:A1 2.4397e-05
4 *2696:A2 *2696:A3 0.00026286
5 *2696:A2 *3174:CLK 1.07351e-05
6 *2694:A2 *2696:A2 4.50449e-05
7 *3172:D *2696:A2 7.24161e-06
*RES
1 *2694:ZN *2696:A2 9.912 
*END

*D_NET *356 0.00210555
*CONN
*I *2697:A2 I *D gf180mcu_fd_sc_mcu7t5v0__nor2_1
*I *2696:A3 I *D gf180mcu_fd_sc_mcu7t5v0__nor3_1
*I *2695:Z O *D gf180mcu_fd_sc_mcu7t5v0__and3_1
*CAP
1 *2697:A2 0
2 *2696:A3 0.000368975
3 *2695:Z 7.89496e-05
4 *356:8 0.000447925
5 *2696:A3 *2694:A1 0.000448201
6 *2696:A3 *2694:B 0.000132916
7 *2696:A3 *3172:CLK 5.24607e-05
8 *2696:A3 *3174:CLK 2.57058e-06
9 *356:8 *2694:B 7.20635e-05
10 *356:8 *2697:A1 0.000200822
11 *2694:A2 *2696:A3 2.05156e-05
12 *2696:A2 *2696:A3 0.00026286
13 *3173:D *2696:A3 1.72912e-05
*RES
1 *2695:Z *356:8 9.988 
2 *356:8 *2696:A3 12.648 
3 *356:8 *2697:A2 9 
*END

*D_NET *357 0.000271788
*CONN
*I *2700:A2 I *D gf180mcu_fd_sc_mcu7t5v0__nor3_1
*I *2697:ZN O *D gf180mcu_fd_sc_mcu7t5v0__nor2_1
*CAP
1 *2700:A2 0.000101895
2 *2697:ZN 0.000101895
3 *3174:D *2700:A2 6.79972e-05
*RES
1 *2697:ZN *2700:A2 9.684 
*END

*D_NET *358 0.00056372
*CONN
*I *2699:A4 I *D gf180mcu_fd_sc_mcu7t5v0__nor4_1
*I *2698:ZN O *D gf180mcu_fd_sc_mcu7t5v0__nand3_1
*CAP
1 *2699:A4 0.000217289
2 *2698:ZN 0.000217289
3 *2699:A4 *2558:A1 0
4 *2699:A4 *825:23 3.94662e-05
5 *2551:A1 *2699:A4 6.14386e-05
6 *216:19 *2699:A4 2.82366e-05
*RES
1 *2698:ZN *2699:A4 10.52 
*END

*D_NET *359 0.00544948
*CONN
*I *2700:A3 I *D gf180mcu_fd_sc_mcu7t5v0__nor3_1
*I *2702:A2 I *D gf180mcu_fd_sc_mcu7t5v0__and2_1
*I *2708:A4 I *D gf180mcu_fd_sc_mcu7t5v0__and4_1
*I *2701:A2 I *D gf180mcu_fd_sc_mcu7t5v0__nor2_1
*I *2699:ZN O *D gf180mcu_fd_sc_mcu7t5v0__nor4_1
*CAP
1 *2700:A3 7.3894e-05
2 *2702:A2 1.33745e-05
3 *2708:A4 0.000235819
4 *2701:A2 0.000294295
5 *2699:ZN 0.000409149
6 *359:14 0.000562918
7 *359:12 0.000399712
8 *359:8 0.000836577
9 *2701:A2 *2701:A1 0.000185989
10 *2701:A2 *2703:A2 2.05156e-05
11 *2701:A2 *2705:A1 0
12 *2701:A2 *826:23 0.000107509
13 *2702:A2 *826:23 2.6126e-05
14 *2702:A2 *826:32 4.98138e-05
15 *2708:A4 *2705:A1 0
16 *2708:A4 *2707:A1 0
17 *2708:A4 *2708:A3 0.000438681
18 *2708:A4 *826:32 7.53241e-05
19 *359:8 *2555:A1 9.13125e-05
20 *359:8 *3313:I 0.000340241
21 *359:8 *784:10 0.000136491
22 *359:8 *784:14 9.33883e-05
23 *359:12 *2561:A1 0.000142431
24 *359:12 *2708:A3 2.26535e-05
25 *359:12 *361:19 0.000174098
26 *359:12 *784:14 0.000672014
27 *2549:A1 *359:8 4.7151e-05
*RES
1 *2699:ZN *359:8 12.724 
2 *359:8 *359:12 9.136 
3 *359:12 *359:14 0.228 
4 *359:14 *2701:A2 6.856 
5 *359:14 *2708:A4 6.628 
6 *359:12 *2702:A2 4.88 
7 *359:8 *2700:A3 9.38 
*END

*D_NET *360 0.00145022
*CONN
*I *2703:A2 I *D gf180mcu_fd_sc_mcu7t5v0__nor3_1
*I *2701:ZN O *D gf180mcu_fd_sc_mcu7t5v0__nor2_1
*CAP
1 *2703:A2 0.000434706
2 *2701:ZN 0.000434706
3 *2703:A2 *2701:A1 0.000426195
4 *2703:A2 *826:23 8.70108e-05
5 *2701:A2 *2703:A2 2.05156e-05
6 *3175:D *2703:A2 4.70882e-05
*RES
1 *2701:ZN *2703:A2 11.964 
*END

*D_NET *361 0.00149733
*CONN
*I *2704:A2 I *D gf180mcu_fd_sc_mcu7t5v0__nor2_1
*I *2703:A3 I *D gf180mcu_fd_sc_mcu7t5v0__nor3_1
*I *2705:A2 I *D gf180mcu_fd_sc_mcu7t5v0__and2_1
*I *2702:Z O *D gf180mcu_fd_sc_mcu7t5v0__and2_1
*CAP
1 *2704:A2 0.000117968
2 *2703:A3 0
3 *2705:A2 0.000194946
4 *2702:Z 0
5 *361:19 0.000330353
6 *361:6 0.00040733
7 *2704:A2 *2704:A1 1.5015e-05
8 *2704:A2 *784:25 8.62664e-05
9 *2704:A2 *826:32 6.71845e-05
10 *2705:A2 *2705:A1 0
11 *2705:A2 *826:12 7.84072e-05
12 *361:19 *2705:A1 0
13 *361:19 *826:12 2.57651e-05
14 *359:12 *361:19 0.000174098
*RES
1 *2702:Z *361:6 9 
2 *361:6 *2705:A2 10.444 
3 *361:6 *361:19 5.944 
4 *361:19 *2703:A3 4.5 
5 *361:19 *2704:A2 5.488 
*END

*D_NET *362 0.00244615
*CONN
*I *2706:A2 I *D gf180mcu_fd_sc_mcu7t5v0__nor3_1
*I *2704:ZN O *D gf180mcu_fd_sc_mcu7t5v0__nor2_1
*CAP
1 *2706:A2 0.000468917
2 *2704:ZN 0.000468917
3 *2706:A2 *2564:A1 0.000753802
4 *2706:A2 *2704:A1 2.6126e-05
5 *2706:A2 *2708:A1 6.25143e-05
6 *2706:A2 *2708:A2 2.31659e-05
7 *2706:A2 *365:10 0.000181256
8 *2706:A2 *755:61 0.000204383
9 *2706:A2 *755:65 0.000151949
10 *2706:A2 *784:25 9.59442e-05
11 *2706:A2 *784:27 9.17274e-06
12 *2706:A2 *828:24 0
*RES
1 *2704:ZN *2706:A2 23.016 
*END

*D_NET *363 0.00182792
*CONN
*I *2707:A2 I *D gf180mcu_fd_sc_mcu7t5v0__nor2_1
*I *2706:A3 I *D gf180mcu_fd_sc_mcu7t5v0__nor3_1
*I *2705:Z O *D gf180mcu_fd_sc_mcu7t5v0__and2_1
*CAP
1 *2707:A2 0.000112772
2 *2706:A3 0
3 *2705:Z 0.00034129
4 *363:8 0.000454062
5 *2707:A2 *2707:A1 8.45062e-05
6 *2707:A2 *2709:A2 1.0313e-05
7 *2707:A2 *681:24 0
8 *363:8 *2705:A1 6.44359e-05
9 *363:8 *2707:A1 8.67574e-05
10 *363:8 *681:24 1.02823e-05
11 *363:8 *681:36 0
12 *3176:D *363:8 0.000663505
*RES
1 *2705:Z *363:8 7.692 
2 *363:8 *2706:A3 4.5 
3 *363:8 *2707:A2 5.336 
*END

*D_NET *364 0.000816533
*CONN
*I *2709:A2 I *D gf180mcu_fd_sc_mcu7t5v0__nor3_1
*I *2707:ZN O *D gf180mcu_fd_sc_mcu7t5v0__nor2_1
*CAP
1 *2709:A2 0.000210433
2 *2707:ZN 0.000210433
3 *2709:A2 *2707:A1 0
4 *2709:A2 *365:10 9.71855e-05
5 *2709:A2 *365:12 1.85312e-05
6 *2709:A2 *681:18 0.000196417
7 *2709:A2 *681:24 7.32209e-05
8 *2707:A2 *2709:A2 1.0313e-05
*RES
1 *2707:ZN *2709:A2 19.824 
*END

*D_NET *365 0.00537492
*CONN
*I *2709:A3 I *D gf180mcu_fd_sc_mcu7t5v0__nor3_1
*I *2710:A2 I *D gf180mcu_fd_sc_mcu7t5v0__nor2_1
*I *2716:A4 I *D gf180mcu_fd_sc_mcu7t5v0__nand4_1
*I *2711:A2 I *D gf180mcu_fd_sc_mcu7t5v0__and2_1
*I *2708:Z O *D gf180mcu_fd_sc_mcu7t5v0__and4_1
*CAP
1 *2709:A3 0
2 *2710:A2 0
3 *2716:A4 0.000393785
4 *2711:A2 0.000245215
5 *2708:Z 0.000371687
6 *365:14 0.000718249
7 *365:12 0.000383021
8 *365:10 0.000675459
9 *2711:A2 *681:74 5.17455e-05
10 *2711:A2 *784:31 0
11 *2716:A4 *829:24 0.00109484
12 *2716:A4 *831:8 0
13 *365:10 *2706:A1 6.12935e-05
14 *365:10 *2707:A1 1.53727e-05
15 *365:10 *2708:A1 6.63508e-06
16 *365:10 *755:61 2.9378e-06
17 *365:10 *784:27 0
18 *365:10 *828:24 3.2964e-05
19 *365:12 *681:61 0.00090738
20 *365:12 *681:74 2.45866e-05
21 *365:12 *784:27 0
22 *365:12 *784:31 0
23 *365:14 *681:74 3.40956e-05
24 *365:14 *784:31 0
25 *2706:A2 *365:10 0.000181256
26 *2709:A2 *365:10 9.71855e-05
27 *2709:A2 *365:12 1.85312e-05
28 *3176:D *365:10 4.32304e-05
29 *3178:D *2716:A4 1.54542e-05
*RES
1 *2708:Z *365:10 12.192 
2 *365:10 *365:12 2.812 
3 *365:12 *365:14 0.532 
4 *365:14 *2711:A2 10.14 
5 *365:14 *2716:A4 12.42 
6 *365:12 *2710:A2 9 
7 *365:10 *2709:A3 9 
*END

*D_NET *366 0.00121526
*CONN
*I *2712:A2 I *D gf180mcu_fd_sc_mcu7t5v0__nor3_1
*I *2710:ZN O *D gf180mcu_fd_sc_mcu7t5v0__nor2_1
*CAP
1 *2712:A2 0.000292022
2 *2710:ZN 0.000292022
3 *2712:A2 *2712:A3 0
4 *2712:A2 *3177:CLK 7.59985e-05
5 *2712:A2 *784:31 0.000555221
6 *3178:D *2712:A2 0
*RES
1 *2710:ZN *2712:A2 20.28 
*END

*D_NET *367 0.00347525
*CONN
*I *2712:A3 I *D gf180mcu_fd_sc_mcu7t5v0__nor3_1
*I *2714:A2 I *D gf180mcu_fd_sc_mcu7t5v0__and2_1
*I *2713:A2 I *D gf180mcu_fd_sc_mcu7t5v0__nor2_1
*I *2711:Z O *D gf180mcu_fd_sc_mcu7t5v0__and2_1
*CAP
1 *2712:A3 0.000371682
2 *2714:A2 0.000546608
3 *2713:A2 0
4 *2711:Z 0
5 *367:6 0.000630147
6 *367:4 0.000455221
7 *2712:A3 *2713:A1 0
8 *2714:A2 *2713:A1 0.000817901
9 *2714:A2 *681:74 0
10 *2714:A2 *830:19 0.000321458
11 *2714:A2 *830:32 0.000127047
12 *2712:A2 *2712:A3 0
13 *3178:D *2712:A3 0.000200166
14 *3178:D *2714:A2 0
15 *3178:D *367:6 5.01959e-06
*RES
1 *2711:Z *367:4 4.5 
2 *367:4 *367:6 0.532 
3 *367:6 *2713:A2 4.5 
4 *367:6 *2714:A2 17.908 
5 *367:4 *2712:A3 7.008 
*END

*D_NET *368 0.00055544
*CONN
*I *2715:A2 I *D gf180mcu_fd_sc_mcu7t5v0__nor3_1
*I *2713:ZN O *D gf180mcu_fd_sc_mcu7t5v0__nor2_1
*CAP
1 *2715:A2 0.000213141
2 *2713:ZN 0.000213141
3 *2715:A2 *2715:A1 4.51089e-05
4 *2715:A2 *681:80 3.77371e-05
5 *2715:A2 *784:37 4.63109e-05
*RES
1 *2713:ZN *2715:A2 19.52 
*END

*D_NET *369 0.00346243
*CONN
*I *2717:A2 I *D gf180mcu_fd_sc_mcu7t5v0__aoi21_1
*I *2715:A3 I *D gf180mcu_fd_sc_mcu7t5v0__nor3_1
*I *2718:A2 I *D gf180mcu_fd_sc_mcu7t5v0__oai21_1
*I *2714:Z O *D gf180mcu_fd_sc_mcu7t5v0__and2_1
*CAP
1 *2717:A2 0.000142156
2 *2715:A3 0.000177667
3 *2718:A2 0.000157408
4 *2714:Z 0.000298756
5 *369:14 0.000523332
6 *369:10 0.00062917
7 *2715:A3 *681:80 0
8 *2715:A3 *784:50 0.00032883
9 *2717:A2 *784:50 8.17308e-05
10 *2717:A2 *831:8 2.17248e-05
11 *2717:A2 *831:38 7.49908e-05
12 *2718:A2 *784:50 0.000126613
13 *369:10 *2713:A1 0.000101039
14 *369:10 *2716:A2 0.000193933
15 *369:10 *2718:A1 0
16 *369:10 *829:24 0.000193933
17 *369:10 *830:19 4.23191e-05
18 *369:10 *831:14 0.000236264
19 *369:14 *2713:A1 1.85312e-05
20 *369:14 *2718:A1 0
21 *3179:D *2715:A3 9.58397e-05
22 *3180:D *2718:A2 1.81888e-05
*RES
1 *2714:Z *369:10 11.736 
2 *369:10 *369:14 5.64 
3 *369:14 *2718:A2 5.868 
4 *369:14 *2715:A3 6.4 
5 *369:10 *2717:A2 10.292 
*END

*D_NET *370 0.00540112
*CONN
*I *2720:A2 I *D gf180mcu_fd_sc_mcu7t5v0__and2_1
*I *2721:A2 I *D gf180mcu_fd_sc_mcu7t5v0__nor2_1
*I *2727:A4 I *D gf180mcu_fd_sc_mcu7t5v0__nor4_1
*I *2716:ZN O *D gf180mcu_fd_sc_mcu7t5v0__nand4_1
*CAP
1 *2720:A2 0
2 *2721:A2 0.000108621
3 *2727:A4 0
4 *2716:ZN 0.00181248
5 *370:15 0.000210001
6 *370:8 0.00191386
7 *2721:A2 *2494:I 6.91944e-05
8 *2721:A2 *378:8 0
9 *370:8 *2576:A1 8.27642e-05
10 *370:8 *2588:A1 8.01993e-06
11 *370:8 *2733:A1 3.68791e-05
12 *370:8 *2733:A3 0
13 *370:8 *2735:A1 0
14 *370:8 *2737:A2 4.23467e-05
15 *370:8 *3131:CLK 0.000123108
16 *370:8 *688:22 1.31172e-05
17 *370:8 *755:30 0
18 *370:8 *829:24 0
19 *370:8 *834:8 2.20893e-05
20 *370:8 *836:8 6.73834e-05
21 *370:8 *837:19 3.52123e-05
22 *370:8 *838:8 3.52123e-05
23 *370:8 *839:8 0.000431535
24 *370:15 *834:8 2.07594e-05
25 *2584:A1 *370:8 0.000209369
26 *2593:A2 *370:8 0
27 *2727:A1 *370:8 3.40295e-05
28 *2727:A1 *370:15 2.57058e-06
29 *2727:A2 *2721:A2 4.07337e-05
30 *2727:A3 *370:15 8.18282e-05
*RES
1 *2716:ZN *370:8 16.508 
2 *370:8 *2727:A4 4.5 
3 *370:8 *370:15 0.836 
4 *370:15 *2721:A2 14.336 
5 *370:15 *2720:A2 4.5 
*END

*D_NET *371 0.000279804
*CONN
*I *2718:B I *D gf180mcu_fd_sc_mcu7t5v0__oai21_1
*I *2717:ZN O *D gf180mcu_fd_sc_mcu7t5v0__aoi21_1
*CAP
1 *2718:B 7.58391e-05
2 *2717:ZN 7.58391e-05
3 *2718:B *2717:B 0.000105105
4 *2718:B *784:50 2.22758e-05
5 *2718:B *831:38 7.45328e-07
*RES
1 *2717:ZN *2718:B 9.76 
*END

*D_NET *372 0.000192706
*CONN
*I *2719:I I *D gf180mcu_fd_sc_mcu7t5v0__clkinv_1
*I *2718:ZN O *D gf180mcu_fd_sc_mcu7t5v0__oai21_1
*CAP
1 *2719:I 9.63532e-05
2 *2718:ZN 9.63532e-05
3 *2719:I *2740:A2 0
*RES
1 *2718:ZN *2719:I 18.684 
*END

*D_NET *373 0.000854609
*CONN
*I *2722:A2 I *D gf180mcu_fd_sc_mcu7t5v0__nor3_1
*I *2720:Z O *D gf180mcu_fd_sc_mcu7t5v0__and2_1
*CAP
1 *2722:A2 0.000252073
2 *2720:Z 0.000252073
3 *2722:A2 *2722:A1 9.47538e-05
4 *2722:A2 *2722:A3 0.00010269
5 *2722:A2 *691:40 2.6126e-05
6 *215:20 *2722:A2 0.000126893
*RES
1 *2720:Z *2722:A2 10.976 
*END

*D_NET *374 0.0054728
*CONN
*I *2722:A3 I *D gf180mcu_fd_sc_mcu7t5v0__nor3_1
*I *2724:A2 I *D gf180mcu_fd_sc_mcu7t5v0__oai21_1
*I *2723:A2 I *D gf180mcu_fd_sc_mcu7t5v0__aoi21_1
*I *2726:A2 I *D gf180mcu_fd_sc_mcu7t5v0__aoi21_1
*I *2721:ZN O *D gf180mcu_fd_sc_mcu7t5v0__nor2_1
*CAP
1 *2722:A3 0.000100982
2 *2724:A2 0.000293068
3 *2723:A2 0
4 *2726:A2 7.65292e-05
5 *2721:ZN 3.28034e-05
6 *374:14 0.000234068
7 *374:12 0.000950975
8 *374:6 0.000634154
9 *2724:A2 *2507:A2 0
10 *2724:A2 *2724:A1 0.000653985
11 *2724:A2 *2724:B 0.000500399
12 *2724:A2 *2725:I 7.71175e-06
13 *2726:A2 *2726:A1 0.000125537
14 *2726:A2 *2728:A2 0.0002307
15 *2726:A2 *2728:A3 6.73926e-05
16 *374:12 *2494:I 0.0009946
17 *374:12 *2724:A1 1.2682e-05
18 *374:12 *691:40 1.94858e-05
19 *374:12 *736:22 0
20 *374:12 *784:62 0
21 *374:12 *833:8 5.5234e-06
22 *374:14 *2724:B 0.000221732
23 *374:14 *2726:A1 1.02578e-05
24 *374:14 *784:56 7.54445e-06
25 *374:14 *833:25 1.02578e-05
26 *2721:A1 *2722:A3 2.49331e-05
27 *2722:A2 *2722:A3 0.00010269
28 *3183:D *374:14 0
29 *215:10 *2722:A3 0
30 *215:20 *2722:A3 7.32209e-05
31 *215:20 *374:12 8.15645e-05
*RES
1 *2721:ZN *374:6 4.728 
2 *374:6 *374:12 12.116 
3 *374:12 *374:14 1.444 
4 *374:14 *2726:A2 5.64 
5 *374:14 *2723:A2 4.5 
6 *374:12 *2724:A2 7.996 
7 *374:6 *2722:A3 5.336 
*END

*D_NET *375 0.00232694
*CONN
*I *2724:B I *D gf180mcu_fd_sc_mcu7t5v0__oai21_1
*I *2723:ZN O *D gf180mcu_fd_sc_mcu7t5v0__aoi21_1
*CAP
1 *2724:B 0.000305514
2 *2723:ZN 0.000305514
3 *2724:B *833:23 0.000400645
4 *2724:B *833:25 0.000438681
5 *2724:A2 *2724:B 0.000500399
6 *3181:D *2724:B 0
7 *227:18 *2724:B 0.000154451
8 *374:14 *2724:B 0.000221732
*RES
1 *2723:ZN *2724:B 13.18 
*END

*D_NET *376 0.000463781
*CONN
*I *2725:I I *D gf180mcu_fd_sc_mcu7t5v0__clkinv_1
*I *2724:ZN O *D gf180mcu_fd_sc_mcu7t5v0__oai21_1
*CAP
1 *2725:I 9.66044e-05
2 *2724:ZN 9.66044e-05
3 *2725:I *2724:A1 0.00026286
4 *2724:A2 *2725:I 7.71175e-06
*RES
1 *2724:ZN *2725:I 9.912 
*END

*D_NET *377 0.00123867
*CONN
*I *2728:A2 I *D gf180mcu_fd_sc_mcu7t5v0__nor3_1
*I *2726:ZN O *D gf180mcu_fd_sc_mcu7t5v0__aoi21_1
*CAP
1 *2728:A2 0.000267114
2 *2726:ZN 0.000267114
3 *2728:A2 *2728:A3 0.000154451
4 *2728:A2 *378:14 0.000216231
5 *2728:A2 *784:56 0.000103064
6 *2726:A2 *2728:A2 0.0002307
*RES
1 *2726:ZN *2728:A2 11.888 
*END

*D_NET *378 0.00317927
*CONN
*I *2728:A3 I *D gf180mcu_fd_sc_mcu7t5v0__nor3_1
*I *2730:A2 I *D gf180mcu_fd_sc_mcu7t5v0__and2_1
*I *2733:A3 I *D gf180mcu_fd_sc_mcu7t5v0__and3_1
*I *2729:A2 I *D gf180mcu_fd_sc_mcu7t5v0__nor2_1
*I *2727:ZN O *D gf180mcu_fd_sc_mcu7t5v0__nor4_1
*CAP
1 *2728:A3 9.02587e-06
2 *2730:A2 0
3 *2733:A3 0.000233355
4 *2729:A2 8.36434e-05
5 *2727:ZN 0.000391444
6 *378:16 0.000316998
7 *378:14 0.000228146
8 *378:8 0.000628615
9 *2729:A2 *2729:A1 0.000197957
10 *2733:A3 *2726:B 1.75056e-06
11 *2733:A3 *2729:A1 6.38438e-05
12 *2733:A3 *836:25 0.000218418
13 *378:8 *2493:I 7.06791e-05
14 *378:8 *2494:I 0
15 *378:8 *2726:B 3.45616e-05
16 *378:8 *784:62 9.08305e-05
17 *378:14 *784:56 0.000171927
18 *2721:A2 *378:8 0
19 *2726:A2 *2728:A3 6.73926e-05
20 *2728:A2 *2728:A3 0.000154451
21 *2728:A2 *378:14 0.000216231
22 *370:8 *2733:A3 0
*RES
1 *2727:ZN *378:8 11.812 
2 *378:8 *378:14 6.172 
3 *378:14 *378:16 4.5 
4 *378:16 *2729:A2 9.988 
5 *378:16 *2733:A3 10.824 
6 *378:14 *2730:A2 4.5 
7 *378:8 *2728:A3 9.38 
*END

*D_NET *379 0.00223225
*CONN
*I *2731:A2 I *D gf180mcu_fd_sc_mcu7t5v0__nor3_1
*I *2729:ZN O *D gf180mcu_fd_sc_mcu7t5v0__nor2_1
*CAP
1 *2731:A2 0.000451505
2 *2729:ZN 0.000451505
3 *2731:A2 *2731:A3 0.000171055
4 *2731:A2 *2732:A1 1.26706e-05
5 *2731:A2 *2732:A2 0.000146317
6 *2731:A2 *2734:A2 3.60035e-05
7 *2731:A2 *2739:A3 8.55327e-05
8 *2731:A2 *3184:CLK 0.00012548
9 *2731:A2 *380:8 5.83634e-05
10 *2731:A2 *382:6 0.000246993
11 *2731:A2 *382:29 0
12 *2731:A2 *784:56 5.76749e-06
13 *3184:D *2731:A2 0.000441055
*RES
1 *2729:ZN *2731:A2 22.788 
*END

*D_NET *380 0.00268814
*CONN
*I *2731:A3 I *D gf180mcu_fd_sc_mcu7t5v0__nor3_1
*I *2732:A2 I *D gf180mcu_fd_sc_mcu7t5v0__nor2_1
*I *2730:Z O *D gf180mcu_fd_sc_mcu7t5v0__and2_1
*CAP
1 *2731:A3 0.000156438
2 *2732:A2 0.000139754
3 *2730:Z 7.66672e-05
4 *380:8 0.00037286
5 *2731:A3 *2732:A1 6.48268e-05
6 *2731:A3 *784:56 0.000187671
7 *2732:A2 *2732:A1 0.000111534
8 *2732:A2 *2734:A2 8.69929e-05
9 *380:8 *3184:CLK 8.50254e-05
10 *380:8 *784:56 0.000488219
11 *2731:A2 *2731:A3 0.000171055
12 *2731:A2 *2732:A2 0.000146317
13 *2731:A2 *380:8 5.83634e-05
14 *3184:D *2731:A3 0.000542413
*RES
1 *2730:Z *380:8 10.292 
2 *380:8 *2732:A2 10.368 
3 *380:8 *2731:A3 11.432 
*END

*D_NET *381 0.00127251
*CONN
*I *2734:A2 I *D gf180mcu_fd_sc_mcu7t5v0__nor3_1
*I *2732:ZN O *D gf180mcu_fd_sc_mcu7t5v0__nor2_1
*CAP
1 *2734:A2 0.000305512
2 *2732:ZN 0.000305512
3 *2734:A2 *2737:A1 0.00017557
4 *2734:A2 *3184:CLK 1.52595e-05
5 *2734:A2 *3185:CLK 0.000209639
6 *2734:A2 *786:38 7.02696e-05
7 *2731:A2 *2734:A2 3.60035e-05
8 *2732:A2 *2734:A2 8.69929e-05
9 *3185:D *2734:A2 6.77492e-05
*RES
1 *2732:ZN *2734:A2 21.192 
*END

*D_NET *382 0.0046406
*CONN
*I *2735:A2 I *D gf180mcu_fd_sc_mcu7t5v0__nor2_1
*I *2734:A3 I *D gf180mcu_fd_sc_mcu7t5v0__nor3_1
*I *2738:A2 I *D gf180mcu_fd_sc_mcu7t5v0__aoi21_1
*I *2736:A2 I *D gf180mcu_fd_sc_mcu7t5v0__and2_1
*I *2739:A3 I *D gf180mcu_fd_sc_mcu7t5v0__and3_1
*I *2733:Z O *D gf180mcu_fd_sc_mcu7t5v0__and3_1
*CAP
1 *2735:A2 0.000132428
2 *2734:A3 0
3 *2738:A2 1.27974e-05
4 *2736:A2 6.16149e-05
5 *2739:A3 0.000183806
6 *2733:Z 0.00037506
7 *382:35 0.000163405
8 *382:29 0.000252131
9 *382:25 0.000347619
10 *382:6 0.00061092
11 *2735:A2 *786:34 0.000321463
12 *2736:A2 *2736:A1 7.09482e-05
13 *2736:A2 *2737:A1 8.29507e-05
14 *2736:A2 *688:32 0
15 *2738:A2 *2736:A1 1.02578e-05
16 *2738:A2 *2737:A1 5.14116e-06
17 *2738:A2 *3184:CLK 5.4634e-05
18 *2738:A2 *688:26 3.08902e-05
19 *2739:A3 *2735:A1 3.58487e-05
20 *2739:A3 *2740:A1 0.00016176
21 *2739:A3 *784:56 2.53224e-06
22 *382:6 *2588:A1 0
23 *382:6 *2733:A1 0
24 *382:6 *2735:A1 1.15275e-05
25 *382:6 *784:56 0
26 *382:6 *836:14 4.1381e-05
27 *382:6 *837:19 0
28 *382:25 *2735:A1 1.19438e-05
29 *382:29 *786:34 8.75225e-05
30 *382:29 *786:36 0.00014967
31 *382:29 *786:38 0.000396904
32 *382:35 *2736:A1 8.64697e-06
33 *382:35 *2737:A1 4.29636e-06
34 *382:35 *3184:CLK 0.000131651
35 *382:35 *688:22 0.000151957
36 *382:35 *784:56 0.000300828
37 *382:35 *786:38 3.32987e-05
38 *2731:A2 *2739:A3 8.55327e-05
39 *2731:A2 *382:6 0.000246993
40 *2731:A2 *382:29 0
41 *3184:D *382:6 6.22405e-05
*RES
1 *2733:Z *382:6 7.464 
2 *382:6 *2739:A3 6.172 
3 *382:6 *382:25 4.956 
4 *382:25 *382:29 5.944 
5 *382:29 *382:35 5.868 
6 *382:35 *2736:A2 9.836 
7 *382:35 *2738:A2 9.228 
8 *382:29 *2734:A3 4.5 
9 *382:25 *2735:A2 9.988 
*END

*D_NET *383 0.00354805
*CONN
*I *2737:A2 I *D gf180mcu_fd_sc_mcu7t5v0__nor3_1
*I *2735:ZN O *D gf180mcu_fd_sc_mcu7t5v0__nor2_1
*CAP
1 *2737:A2 0.000891594
2 *2735:ZN 0.000891594
3 *2737:A2 *2735:A1 0.000760871
4 *2737:A2 *2736:A1 2.0537e-05
5 *2737:A2 *2740:A3 1.97747e-05
6 *2737:A2 *688:32 0.000406051
7 *2737:A2 *838:8 7.83779e-05
8 *2737:A2 *838:10 5.43763e-05
9 *2737:A2 *838:16 0.000356883
10 *2737:A2 *838:20 2.56448e-05
11 *370:8 *2737:A2 4.23467e-05
*RES
1 *2735:ZN *2737:A2 24.308 
*END

*D_NET *384 0.000546857
*CONN
*I *2737:A3 I *D gf180mcu_fd_sc_mcu7t5v0__nor3_1
*I *2736:Z O *D gf180mcu_fd_sc_mcu7t5v0__and2_1
*CAP
1 *2737:A3 0.000111108
2 *2736:Z 0.000111108
3 *2737:A3 *3185:CLK 0.00029375
4 *2737:A3 *3186:CLK 3.08902e-05
*RES
1 *2736:Z *2737:A3 10.064 
*END

*D_NET *385 0.00188207
*CONN
*I *2740:A2 I *D gf180mcu_fd_sc_mcu7t5v0__nor3_1
*I *2738:ZN O *D gf180mcu_fd_sc_mcu7t5v0__aoi21_1
*CAP
1 *2740:A2 0.000479903
2 *2738:ZN 0.000479903
3 *2740:A2 *2718:A1 0
4 *2740:A2 *2738:A1 2.6126e-05
5 *2740:A2 *3186:CLK 0
6 *2740:A2 *688:26 0.000317494
7 *2740:A2 *784:56 0.000503321
8 *2719:I *2740:A2 0
9 *3186:D *2740:A2 7.53241e-05
*RES
1 *2738:ZN *2740:A2 22.408 
*END

*D_NET *386 0.001567
*CONN
*I *2740:A3 I *D gf180mcu_fd_sc_mcu7t5v0__nor3_1
*I *2739:Z O *D gf180mcu_fd_sc_mcu7t5v0__and3_1
*CAP
1 *2740:A3 0.000481194
2 *2739:Z 0.000481194
3 *2740:A3 *2735:A1 0.00030072
4 *2740:A3 *2739:A2 1.91917e-06
5 *2740:A3 *2740:A1 0.000108815
6 *2740:A3 *838:8 0.000132001
7 *2740:A3 *838:16 4.13816e-05
8 *2737:A2 *2740:A3 1.97747e-05
*RES
1 *2739:Z *2740:A3 12.876 
*END

*D_NET *387 0.00244257
*CONN
*I *2758:A1 I *D gf180mcu_fd_sc_mcu7t5v0__nor4_1
*I *2741:Z O *D gf180mcu_fd_sc_mcu7t5v0__xor2_1
*CAP
1 *2758:A1 0.000307835
2 *2741:Z 0.000307835
3 *2758:A1 *2743:A1 0.0001032
4 *2758:A1 *2743:A2 5.56237e-05
5 *2758:A1 *2746:A2 0.000383666
6 *2758:A1 *2753:A1 0.000166805
7 *2758:A1 *2753:A2 0.000186897
8 *2758:A1 *2758:A2 0.000431535
9 *2758:A1 *2760:A3 0.000171721
10 *2758:A1 *2762:A3 1.94858e-05
11 *2758:A1 *2767:A1 0.000307966
*RES
1 *2741:Z *2758:A1 22.18 
*END

*D_NET *388 0.00214651
*CONN
*I *2755:A1 I *D gf180mcu_fd_sc_mcu7t5v0__nor4_1
*I *2742:Z O *D gf180mcu_fd_sc_mcu7t5v0__xor2_1
*CAP
1 *2755:A1 0.000197381
2 *2742:Z 0.000197381
3 *2755:A1 *2747:A2 0.000255712
4 *2755:A1 *2754:A2 0.000260558
5 *2755:A1 *2755:A2 2.49331e-05
6 *2755:A1 *2755:A4 0.000585918
7 *2755:A1 *2760:A1 5.48822e-05
8 *2755:A1 *2762:A1 7.32209e-05
9 *2755:A1 *3324:I 0.000496526
*RES
1 *2742:Z *2755:A1 21.344 
*END

*D_NET *389 0.0012433
*CONN
*I *2758:A2 I *D gf180mcu_fd_sc_mcu7t5v0__nor4_1
*I *2743:Z O *D gf180mcu_fd_sc_mcu7t5v0__xor2_1
*CAP
1 *2758:A2 0.000291761
2 *2743:Z 0.000291761
3 *2758:A2 *2743:A1 0.000121193
4 *2758:A2 *2760:A2 3.00299e-05
5 *2758:A2 *2760:A3 7.70229e-05
6 *2758:A2 *2762:A2 0
7 *2758:A2 *2762:A3 0
8 *2758:A1 *2758:A2 0.000431535
*RES
1 *2743:Z *2758:A2 11.736 
*END

*D_NET *390 0.00427184
*CONN
*I *2761:A1 I *D gf180mcu_fd_sc_mcu7t5v0__nor4_1
*I *2744:Z O *D gf180mcu_fd_sc_mcu7t5v0__xor2_1
*CAP
1 *2761:A1 0.000586392
2 *2744:Z 0.000586392
3 *2761:A1 *2744:A2 2.83071e-05
4 *2761:A1 *2761:A2 8.95196e-05
5 *2761:A1 *2764:A2 0.000260709
6 *2761:A1 *2816:A2 0
7 *2761:A1 *3372:I 0.000553126
8 *2761:A1 *447:12 0.000193933
9 *2761:A1 *713:19 0.000492181
10 *2761:A1 *769:43 6.17803e-05
11 *2761:A1 *806:8 0.000194624
12 *2761:A1 *806:16 0.000916903
13 *3203:D *2761:A1 0
14 *3258:D *2761:A1 0.000307974
*RES
1 *2744:Z *2761:A1 25.448 
*END

*D_NET *391 0.00321625
*CONN
*I *2760:A1 I *D gf180mcu_fd_sc_mcu7t5v0__nor3_1
*I *2745:Z O *D gf180mcu_fd_sc_mcu7t5v0__xor2_1
*CAP
1 *2760:A1 0.00062994
2 *2745:Z 0.00062994
3 *2760:A1 *2747:A2 0.000134162
4 *2760:A1 *2752:A2 0
5 *2760:A1 *2760:A2 0.000751351
6 *2760:A1 *2762:A2 0.000696708
7 *2760:A1 *2762:A3 2.7014e-05
8 *2760:A1 *3324:I 0.00019545
9 *2760:A1 *408:10 0
10 *2760:A1 *792:40 9.68048e-05
11 *2755:A1 *2760:A1 5.48822e-05
*RES
1 *2745:Z *2760:A1 23.624 
*END

*D_NET *392 0.000681838
*CONN
*I *2758:A3 I *D gf180mcu_fd_sc_mcu7t5v0__nor4_1
*I *2746:Z O *D gf180mcu_fd_sc_mcu7t5v0__xor2_1
*CAP
1 *2758:A3 9.07143e-05
2 *2746:Z 9.07143e-05
3 *2758:A3 *2741:A1 0.000126964
4 *2758:A3 *2758:A4 1.97205e-05
5 *2758:A3 *2759:A3 0.000213194
6 *2758:A3 *2762:A3 0.000140531
*RES
1 *2746:Z *2758:A3 19.292 
*END

*D_NET *393 0.0014905
*CONN
*I *2755:A2 I *D gf180mcu_fd_sc_mcu7t5v0__nor4_1
*I *2747:Z O *D gf180mcu_fd_sc_mcu7t5v0__xor2_1
*CAP
1 *2755:A2 0.000206279
2 *2747:Z 0.000206279
3 *2755:A2 *2747:A1 0
4 *2755:A2 *2747:A2 1.66121e-06
5 *2755:A2 *2752:A1 0.000417311
6 *2755:A2 *2755:A3 0.000190899
7 *2755:A2 *2762:A1 0.000443139
8 *2755:A2 *2768:A1 0
9 *2755:A1 *2755:A2 2.49331e-05
*RES
1 *2747:Z *2755:A2 11.736 
*END

*D_NET *394 0.000286065
*CONN
*I *2761:A2 I *D gf180mcu_fd_sc_mcu7t5v0__nor4_1
*I *2748:Z O *D gf180mcu_fd_sc_mcu7t5v0__xor2_1
*CAP
1 *2761:A2 5.33691e-05
2 *2748:Z 5.33691e-05
3 *2761:A2 *2756:A1 7.53241e-05
4 *2761:A2 *2764:A2 1.44832e-05
5 *2761:A1 *2761:A2 8.95196e-05
*RES
1 *2748:Z *2761:A2 9.684 
*END

*D_NET *395 0.000182211
*CONN
*I *2759:A1 I *D gf180mcu_fd_sc_mcu7t5v0__nand3_1
*I *2749:ZN O *D gf180mcu_fd_sc_mcu7t5v0__xnor2_1
*CAP
1 *2759:A1 9.11056e-05
2 *2749:ZN 9.11056e-05
3 *2759:A1 *2759:A2 0
*RES
1 *2749:ZN *2759:A1 9.532 
*END

*D_NET *396 0.000574915
*CONN
*I *2761:A3 I *D gf180mcu_fd_sc_mcu7t5v0__nor4_1
*I *2750:Z O *D gf180mcu_fd_sc_mcu7t5v0__xor2_1
*CAP
1 *2761:A3 0.000195545
2 *2750:Z 0.000195545
3 *2761:A3 *2748:A2 0
4 *2761:A3 *447:12 0.000170883
5 *3203:D *2761:A3 1.29413e-05
*RES
1 *2750:Z *2761:A3 10.52 
*END

*D_NET *397 0.000923263
*CONN
*I *2758:A4 I *D gf180mcu_fd_sc_mcu7t5v0__nor4_1
*I *2751:Z O *D gf180mcu_fd_sc_mcu7t5v0__xor2_1
*CAP
1 *2758:A4 0.000345446
2 *2751:Z 0.000345446
3 *2758:A4 *2741:A1 0.000159384
4 *2758:A4 *2762:A3 5.3266e-05
5 *2758:A3 *2758:A4 1.97205e-05
*RES
1 *2751:Z *2758:A4 20.736 
*END

*D_NET *398 0.00053663
*CONN
*I *2755:A3 I *D gf180mcu_fd_sc_mcu7t5v0__nor4_1
*I *2752:Z O *D gf180mcu_fd_sc_mcu7t5v0__xor2_1
*CAP
1 *2755:A3 8.94946e-05
2 *2752:Z 8.94946e-05
3 *2755:A3 *2747:A2 0.000135062
4 *2755:A3 *2768:B 3.16796e-05
5 *2755:A2 *2755:A3 0.000190899
*RES
1 *2752:Z *2755:A3 9.912 
*END

*D_NET *399 0.00154057
*CONN
*I *2760:A2 I *D gf180mcu_fd_sc_mcu7t5v0__nor3_1
*I *2753:Z O *D gf180mcu_fd_sc_mcu7t5v0__xor2_1
*CAP
1 *2760:A2 0.000108312
2 *2753:Z 0.000108312
3 *2760:A2 *2760:A3 0.000542569
4 *2758:A2 *2760:A2 3.00299e-05
5 *2760:A1 *2760:A2 0.000751351
*RES
1 *2753:Z *2760:A2 11.28 
*END

*D_NET *400 0.00170085
*CONN
*I *2755:A4 I *D gf180mcu_fd_sc_mcu7t5v0__nor4_1
*I *2754:Z O *D gf180mcu_fd_sc_mcu7t5v0__xor2_1
*CAP
1 *2755:A4 0.00025827
2 *2754:Z 0.00025827
3 *2755:A4 *2754:A2 0.000161663
4 *2755:A4 *2768:B 0.000378363
5 *2755:A4 *792:34 5.83634e-05
6 *2755:A1 *2755:A4 0.000585918
*RES
1 *2754:Z *2755:A4 12.344 
*END

*D_NET *401 0.00181372
*CONN
*I *2762:A1 I *D gf180mcu_fd_sc_mcu7t5v0__nand3_1
*I *2755:ZN O *D gf180mcu_fd_sc_mcu7t5v0__nor4_1
*CAP
1 *2762:A1 0.000286044
2 *2755:ZN 0.000286044
3 *2762:A1 *2752:A1 0.000127814
4 *2762:A1 *2752:A2 7.66156e-05
5 *2762:A1 *2762:A2 0.000262549
6 *2762:A1 *2768:A1 0
7 *2762:A1 *2768:A2 2.57058e-06
8 *2762:A1 *408:10 0.000255722
9 *2755:A1 *2762:A1 7.32209e-05
10 *2755:A2 *2762:A1 0.000443139
*RES
1 *2755:ZN *2762:A1 12.876 
*END

*D_NET *402 0.000528768
*CONN
*I *2761:A4 I *D gf180mcu_fd_sc_mcu7t5v0__nor4_1
*I *2756:Z O *D gf180mcu_fd_sc_mcu7t5v0__xor2_1
*CAP
1 *2761:A4 1.1246e-05
2 *2756:Z 1.1246e-05
3 *2761:A4 *2756:A1 0.000340241
4 *2761:A4 *2762:A3 0.000166035
*RES
1 *2756:Z *2761:A4 18.836 
*END

*D_NET *403 0.00059794
*CONN
*I *2759:A2 I *D gf180mcu_fd_sc_mcu7t5v0__nand3_1
*I *2757:Z O *D gf180mcu_fd_sc_mcu7t5v0__xor2_1
*CAP
1 *2759:A2 0.000177337
2 *2757:Z 0.000177337
3 *2759:A2 *2741:A1 5.84368e-05
4 *2759:A2 *2746:A1 0
5 *2759:A2 *2751:A2 4.90714e-05
6 *2759:A2 *2753:A2 0.000135759
7 *2759:A1 *2759:A2 0
*RES
1 *2757:Z *2759:A2 10.444 
*END

*D_NET *404 0.00158996
*CONN
*I *2759:A3 I *D gf180mcu_fd_sc_mcu7t5v0__nand3_1
*I *2758:ZN O *D gf180mcu_fd_sc_mcu7t5v0__nor4_1
*CAP
1 *2759:A3 6.58551e-05
2 *2758:ZN 6.58551e-05
3 *2759:A3 *2741:A1 0.000432776
4 *2759:A3 *2746:A2 0.000360997
5 *2759:A3 *2762:A3 0.00045128
6 *2758:A3 *2759:A3 0.000213194
*RES
1 *2758:ZN *2759:A3 20.128 
*END

*D_NET *405 0.00226627
*CONN
*I *2760:A3 I *D gf180mcu_fd_sc_mcu7t5v0__nor3_1
*I *2759:ZN O *D gf180mcu_fd_sc_mcu7t5v0__nand3_1
*CAP
1 *2760:A3 0.000488992
2 *2759:ZN 0.000488992
3 *2760:A3 *2743:A1 3.84832e-06
4 *2760:A3 *2743:A2 8.59996e-05
5 *2760:A3 *2753:A1 6.98996e-05
6 *2760:A3 *2753:A2 0.00015813
7 *2760:A3 *2762:A3 0
8 *2760:A3 *3324:I 0.000174507
9 *2760:A3 *721:32 4.58601e-06
10 *2758:A1 *2760:A3 0.000171721
11 *2758:A2 *2760:A3 7.70229e-05
12 *2760:A2 *2760:A3 0.000542569
*RES
1 *2759:ZN *2760:A3 22.712 
*END

*D_NET *406 0.0023953
*CONN
*I *2762:A2 I *D gf180mcu_fd_sc_mcu7t5v0__nand3_1
*I *2760:ZN O *D gf180mcu_fd_sc_mcu7t5v0__nor3_1
*CAP
1 *2762:A2 0.00057823
2 *2760:ZN 0.00057823
3 *2762:A2 *2752:A2 9.88736e-06
4 *2762:A2 *2762:A3 0.000269699
5 *2758:A2 *2762:A2 0
6 *2760:A1 *2762:A2 0.000696708
7 *2762:A1 *2762:A2 0.000262549
*RES
1 *2760:ZN *2762:A2 14.472 
*END

*D_NET *407 0.0033531
*CONN
*I *2762:A3 I *D gf180mcu_fd_sc_mcu7t5v0__nand3_1
*I *2761:ZN O *D gf180mcu_fd_sc_mcu7t5v0__nor4_1
*CAP
1 *2762:A3 0.000915835
2 *2761:ZN 0.000915835
3 *2762:A3 *2741:A1 8.59272e-06
4 *2762:A3 *2753:A1 0.000295319
5 *2762:A3 *2756:A1 7.09751e-05
6 *2762:A3 *3324:I 0
7 *2762:A3 *447:12 8.04367e-06
8 *2757:A1 *2762:A3 0
9 *2758:A1 *2762:A3 1.94858e-05
10 *2758:A2 *2762:A3 0
11 *2758:A3 *2762:A3 0.000140531
12 *2758:A4 *2762:A3 5.3266e-05
13 *2759:A3 *2762:A3 0.00045128
14 *2760:A1 *2762:A3 2.7014e-05
15 *2760:A3 *2762:A3 0
16 *2761:A4 *2762:A3 0.000166035
17 *2762:A2 *2762:A3 0.000269699
18 *3203:D *2762:A3 1.11891e-05
*RES
1 *2761:ZN *2762:A3 25.6 
*END

*D_NET *408 0.00485028
*CONN
*I *2768:B I *D gf180mcu_fd_sc_mcu7t5v0__aoi21_1
*I *2776:A1 I *D gf180mcu_fd_sc_mcu7t5v0__oai21_1
*I *2762:ZN O *D gf180mcu_fd_sc_mcu7t5v0__nand3_1
*CAP
1 *2768:B 0.000570811
2 *2776:A1 0.000587883
3 *2762:ZN 0.000272723
4 *408:10 0.00143142
5 *2768:B *2747:A2 0.000656894
6 *2768:B *2752:A2 0
7 *2768:B *2754:A2 4.90683e-05
8 *2768:B *2768:A1 3.81579e-05
9 *2768:B *2768:A2 0
10 *2768:B *718:36 6.55544e-05
11 *2776:A1 *2742:A2 0
12 *2776:A1 *416:6 3.23271e-05
13 *2776:A1 *707:58 1.45141e-05
14 *2776:A1 *792:40 8.15894e-05
15 *2776:A1 *792:51 0.00012247
16 *408:10 *2752:A1 0.000255722
17 *408:10 *792:40 5.38563e-06
18 *2755:A3 *2768:B 3.16796e-05
19 *2755:A4 *2768:B 0.000378363
20 *2760:A1 *408:10 0
21 *2762:A1 *408:10 0.000255722
*RES
1 *2762:ZN *408:10 10.976 
2 *408:10 *2776:A1 12.952 
3 *408:10 *2768:B 14.016 
*END

*D_NET *409 0.00312287
*CONN
*I *2767:A1 I *D gf180mcu_fd_sc_mcu7t5v0__and3_1
*I *2763:ZN O *D gf180mcu_fd_sc_mcu7t5v0__nor4_1
*CAP
1 *2767:A1 0.000186348
2 *2763:ZN 0.000186348
3 *2767:A1 *2743:A2 5.76749e-06
4 *2767:A1 *2746:A2 0.000547681
5 *2767:A1 *2748:A2 0.000913741
6 *2767:A1 *2767:A2 0.000922888
7 *2767:A1 *710:20 2.6126e-05
8 *2767:A1 *721:32 2.60034e-05
9 *2758:A1 *2767:A1 0.000307966
*RES
1 *2763:ZN *2767:A1 22.104 
*END

*D_NET *410 0.00424819
*CONN
*I *2767:A2 I *D gf180mcu_fd_sc_mcu7t5v0__and3_1
*I *2764:ZN O *D gf180mcu_fd_sc_mcu7t5v0__nor4_1
*CAP
1 *2767:A2 0.000281306
2 *2764:ZN 0.000281306
3 *2767:A2 *2748:A2 0.000364091
4 *2767:A2 *2751:A2 0.000954609
5 *2767:A2 *2757:A2 0.000742688
6 *2767:A2 *3324:I 0.000701299
7 *2767:A1 *2767:A2 0.000922888
*RES
1 *2764:ZN *2767:A2 24.46 
*END

*D_NET *411 0.000757399
*CONN
*I *2768:A1 I *D gf180mcu_fd_sc_mcu7t5v0__aoi21_1
*I *2765:ZN O *D gf180mcu_fd_sc_mcu7t5v0__nor4_1
*CAP
1 *2768:A1 0.000194496
2 *2765:ZN 0.000194496
3 *2768:A1 *2768:A2 0.000188055
4 *2768:A1 *414:14 0.000142194
5 *2755:A2 *2768:A1 0
6 *2762:A1 *2768:A1 0
7 *2768:B *2768:A1 3.81579e-05
*RES
1 *2765:ZN *2768:A1 10.824 
*END

*D_NET *412 0.00199555
*CONN
*I *2767:A3 I *D gf180mcu_fd_sc_mcu7t5v0__and3_1
*I *2766:ZN O *D gf180mcu_fd_sc_mcu7t5v0__nor4_1
*CAP
1 *2767:A3 9.7886e-05
2 *2766:ZN 9.7886e-05
3 *2767:A3 *2748:A2 0.00125883
4 *2767:A3 *3324:I 0.000452526
5 *2767:A3 *715:10 8.8425e-05
*RES
1 *2766:ZN *2767:A3 21.268 
*END

*D_NET *413 0.00114183
*CONN
*I *2768:A2 I *D gf180mcu_fd_sc_mcu7t5v0__aoi21_1
*I *2767:Z O *D gf180mcu_fd_sc_mcu7t5v0__and3_1
*CAP
1 *2768:A2 0.000158698
2 *2767:Z 0.000158698
3 *2768:A2 *2752:A2 0.000174123
4 *2768:A2 *414:14 0.000142194
5 *2768:A2 *719:30 0.000317494
6 *2762:A1 *2768:A2 2.57058e-06
7 *2768:A1 *2768:A2 0.000188055
8 *2768:B *2768:A2 0
*RES
1 *2767:Z *2768:A2 11.128 
*END

*D_NET *414 0.00621963
*CONN
*I *2772:A1 I *D gf180mcu_fd_sc_mcu7t5v0__nor2_1
*I *2769:A2 I *D gf180mcu_fd_sc_mcu7t5v0__nor2_1
*I *2768:ZN O *D gf180mcu_fd_sc_mcu7t5v0__aoi21_1
*CAP
1 *2772:A1 0.000214246
2 *2769:A2 0.000597494
3 *2768:ZN 0.000735485
4 *414:14 0.00154723
5 *2769:A2 *2769:A1 0.000941183
6 *2769:A2 *2779:A1 0
7 *2769:A2 *2838:A1 9.42485e-06
8 *2769:A2 *3324:I 0
9 *2772:A1 *2774:A2 0.000154451
10 *2772:A1 *2778:A1 0.000193448
11 *2772:A1 *2778:A3 0.000398439
12 *2772:A1 *708:19 3.73843e-05
13 *2772:A1 *708:25 9.52957e-06
14 *414:14 *2748:A2 0
15 *414:14 *2765:A3 6.06919e-05
16 *414:14 *2765:A4 0.000104378
17 *414:14 *2778:A3 3.25235e-05
18 *414:14 *2779:A1 5.9337e-05
19 *414:14 *420:10 0.000189288
20 *414:14 *420:18 0.000177219
21 *414:14 *715:10 0
22 *414:14 *715:16 0
23 *2768:A1 *414:14 0.000142194
24 *2768:A2 *414:14 0.000142194
25 *3190:D *2772:A1 3.07734e-05
26 *3190:D *414:14 0.000196417
27 *212:10 *2769:A2 0
28 *212:23 *2772:A1 0.000102466
29 *212:23 *414:14 0.000143837
*RES
1 *2768:ZN *414:14 20.112 
2 *414:14 *2769:A2 17.984 
3 *414:14 *2772:A1 7.16 
*END

*D_NET *415 0.000749718
*CONN
*I *2770:A2 I *D gf180mcu_fd_sc_mcu7t5v0__nor2_1
*I *2769:ZN O *D gf180mcu_fd_sc_mcu7t5v0__nor2_1
*CAP
1 *2770:A2 0.00024142
2 *2769:ZN 0.00024142
3 *2770:A2 *3367:I 2.68724e-05
4 *2770:A2 *695:43 0.000116899
5 *2770:A2 *785:12 0.000123108
*RES
1 *2769:ZN *2770:A2 11.128 
*END

*D_NET *416 0.000517778
*CONN
*I *2776:A2 I *D gf180mcu_fd_sc_mcu7t5v0__oai21_1
*I *2772:A2 I *D gf180mcu_fd_sc_mcu7t5v0__nor2_1
*I *2771:ZN O *D gf180mcu_fd_sc_mcu7t5v0__nand2_1
*CAP
1 *2776:A2 4.92051e-05
2 *2772:A2 1.83866e-05
3 *2771:ZN 9.19177e-05
4 *416:6 0.000159509
5 *2772:A2 *2778:A1 4.50449e-05
6 *416:6 *2778:A1 3.73535e-05
7 *416:6 *707:58 9.88736e-06
8 *416:6 *707:60 7.41459e-05
9 *2776:A1 *416:6 3.23271e-05
*RES
1 *2771:ZN *416:6 5.184 
2 *416:6 *2772:A2 4.728 
3 *416:6 *2776:A2 4.88 
*END

*D_NET *417 0.000660359
*CONN
*I *2774:A2 I *D gf180mcu_fd_sc_mcu7t5v0__oai21_1
*I *2772:ZN O *D gf180mcu_fd_sc_mcu7t5v0__nor2_1
*CAP
1 *2774:A2 0.000135182
2 *2772:ZN 0.000135182
3 *2774:A2 *2774:A1 9.60518e-06
4 *2774:A2 *2775:A2 4.69752e-05
5 *2774:A2 *2778:A1 2.23385e-05
6 *2774:A2 *707:60 6.42585e-05
7 *2774:A2 *708:25 1.72912e-05
8 *2772:A1 *2774:A2 0.000154451
9 *212:29 *2774:A2 7.50749e-05
*RES
1 *2772:ZN *2774:A2 10.368 
*END

*D_NET *418 0.00228541
*CONN
*I *2775:A1 I *D gf180mcu_fd_sc_mcu7t5v0__nor2_1
*I *2779:A2 I *D gf180mcu_fd_sc_mcu7t5v0__nor2_1
*I *2773:Z O *D gf180mcu_fd_sc_mcu7t5v0__and3_1
*CAP
1 *2775:A1 0.00010996
2 *2779:A2 0.000214335
3 *2773:Z 0
4 *418:4 0.000324295
5 *2775:A1 *2665:A1 8.62306e-05
6 *2775:A1 *2775:A2 0.000197178
7 *2775:A1 *3324:I 5.48099e-05
8 *2775:A1 *3368:I 0.000116414
9 *2779:A2 *3190:CLK 7.21203e-05
10 *2779:A2 *3368:I 0.00100952
11 *2779:A2 *793:53 2.6126e-05
12 *212:23 *2775:A1 2.97523e-05
13 *212:23 *2779:A2 4.46661e-05
*RES
1 *2773:Z *418:4 4.5 
2 *418:4 *2779:A2 7.16 
3 *418:4 *2775:A1 14.868 
*END

*D_NET *419 0.00153666
*CONN
*I *2775:A2 I *D gf180mcu_fd_sc_mcu7t5v0__nor2_1
*I *2774:ZN O *D gf180mcu_fd_sc_mcu7t5v0__oai21_1
*CAP
1 *2775:A2 0.000173098
2 *2774:ZN 0.000173098
3 *2775:A2 *2665:A1 0.000614417
4 *2775:A2 *2773:A1 9.52854e-05
5 *2775:A2 *2774:A1 0.00020657
6 *2775:A2 *3324:I 2.26999e-05
7 *2775:A2 *708:25 7.33934e-06
8 *2774:A2 *2775:A2 4.69752e-05
9 *2775:A1 *2775:A2 0.000197178
*RES
1 *2774:ZN *2775:A2 20.28 
*END

*D_NET *420 0.0107027
*CONN
*I *3299:I I *D gf180mcu_fd_sc_mcu7t5v0__dlyb_1
*I *2815:A1 I *D gf180mcu_fd_sc_mcu7t5v0__nor3_1
*I *2812:C I *D gf180mcu_fd_sc_mcu7t5v0__aoi211_1
*I *2807:A1 I *D gf180mcu_fd_sc_mcu7t5v0__nor3_1
*I *2776:ZN O *D gf180mcu_fd_sc_mcu7t5v0__oai21_1
*CAP
1 *3299:I 0
2 *2815:A1 0
3 *2812:C 0
4 *2807:A1 0.000619726
5 *2776:ZN 0.000691974
6 *420:26 0.00071645
7 *420:18 0.00166
8 *420:10 0.00225525
9 *2807:A1 *2804:A1 3.65169e-05
10 *2807:A1 *2807:A3 1.95729e-05
11 *2807:A1 *2809:A2 1.91917e-06
12 *2807:A1 *2810:A1 1.62709e-05
13 *2807:A1 *2810:A2 0.00024032
14 *2807:A1 *2812:A2 3.84832e-06
15 *2807:A1 *3198:CLK 0.000221732
16 *2807:A1 *711:21 1.3758e-05
17 *2807:A1 *794:52 0.000229594
18 *2807:A1 *794:56 0.000366797
19 *420:10 *2745:A2 0
20 *420:10 *2766:A3 0
21 *420:10 *2766:A4 1.54665e-06
22 *420:10 *2778:A1 0.00031292
23 *420:10 *715:16 2.25184e-05
24 *420:10 *716:42 0
25 *420:10 *754:8 2.30587e-05
26 *420:18 *2752:A2 0.000325641
27 *420:18 *2756:A2 0
28 *420:18 *2763:A3 6.3814e-05
29 *420:18 *2765:A3 0
30 *420:18 *2814:A3 0.000199473
31 *420:18 *2815:A2 4.21332e-05
32 *420:18 *442:30 7.43203e-06
33 *420:18 *711:21 0.000310356
34 *420:18 *712:14 2.41128e-05
35 *420:26 *2809:A2 0.000262996
36 *420:26 *442:30 0.000105686
37 *420:26 *710:14 3.19219e-05
38 *420:26 *711:12 0.00020862
39 *420:26 *711:21 0.00041486
40 *3199:D *2807:A1 0.000105022
41 *3200:D *2807:A1 3.81109e-05
42 *3201:D *2807:A1 0.000486519
43 *3202:D *420:18 0.000255714
44 *414:14 *420:10 0.000189288
45 *414:14 *420:18 0.000177219
*RES
1 *2776:ZN *420:10 14.32 
2 *420:10 *420:18 16.888 
3 *420:18 *420:26 10.824 
4 *420:26 *2807:A1 19.352 
5 *420:26 *2812:C 4.5 
6 *420:18 *2815:A1 4.5 
7 *420:10 *3299:I 9 
*END

*D_NET *421 0.00296109
*CONN
*I *2817:B I *D gf180mcu_fd_sc_mcu7t5v0__oai21_1
*I *2819:B I *D gf180mcu_fd_sc_mcu7t5v0__oai21_1
*I *2809:B I *D gf180mcu_fd_sc_mcu7t5v0__oai21_1
*I *2777:ZN O *D gf180mcu_fd_sc_mcu7t5v0__clkinv_1
*CAP
1 *2817:B 0.000322108
2 *2819:B 0
3 *2809:B 0.000189798
4 *2777:ZN 0
5 *421:23 0.000796457
6 *421:4 0.000664148
7 *2809:B *2777:I 0.000249496
8 *2809:B *2820:A2 0
9 *2809:B *2820:B 2.17248e-05
10 *2817:B *2819:A1 6.22304e-05
11 *2817:B *714:10 0.000147313
12 *2817:B *802:8 4.97712e-06
13 *421:23 *711:12 0
14 *3343:I *421:23 0.000502835
*RES
1 *2777:ZN *421:4 4.5 
2 *421:4 *2809:B 6.248 
3 *421:4 *421:23 12.496 
4 *421:23 *2819:B 4.5 
5 *421:23 *2817:B 6.704 
*END

*D_NET *422 0.00466189
*CONN
*I *2780:A2 I *D gf180mcu_fd_sc_mcu7t5v0__nor3_1
*I *2787:A4 I *D gf180mcu_fd_sc_mcu7t5v0__and4_1
*I *2781:A2 I *D gf180mcu_fd_sc_mcu7t5v0__and2_1
*I *2782:A2 I *D gf180mcu_fd_sc_mcu7t5v0__nor2_1
*I *2778:Z O *D gf180mcu_fd_sc_mcu7t5v0__and4_1
*CAP
1 *2780:A2 0
2 *2787:A4 0.000159196
3 *2781:A2 0
4 *2782:A2 0.000160112
5 *2778:Z 0.000202669
6 *422:29 0.000196701
7 *422:16 0.000378786
8 *422:12 0.000383839
9 *2782:A2 *2786:A2 5.35754e-05
10 *2782:A2 *2786:A3 2.35105e-05
11 *2782:A2 *716:20 0.000633952
12 *2787:A4 *2784:A2 9.88736e-06
13 *2787:A4 *2787:A3 4.22754e-05
14 *2787:A4 *426:10 0.00044639
15 *2787:A4 *716:20 0.00011914
16 *2787:A4 *716:31 0.000314329
17 *2787:A4 *754:8 0.00013063
18 *422:12 *2778:A3 0
19 *422:12 *2780:A3 0.000469926
20 *422:12 *754:21 5.76373e-06
21 *422:12 *793:53 5.3266e-05
22 *422:16 *2780:A1 0.000141897
23 *422:16 *2789:A3 0.000131642
24 *422:16 *426:10 0
25 *422:16 *754:21 1.2339e-05
26 *422:16 *793:16 0
27 *422:16 *793:53 0
28 *422:29 *2786:A2 5.13643e-06
29 *422:29 *426:10 8.64281e-06
30 *422:29 *716:20 0.000200822
31 *3192:D *422:12 7.71175e-06
32 *3192:D *422:16 0.000369754
*RES
1 *2778:Z *422:12 6.78 
2 *422:12 *422:16 6.4 
3 *422:16 *2782:A2 10.976 
4 *422:16 *422:29 0.532 
5 *422:29 *2781:A2 9 
6 *422:29 *2787:A4 11.28 
7 *422:12 *2780:A2 4.5 
*END

*D_NET *423 0.00111457
*CONN
*I *2780:A3 I *D gf180mcu_fd_sc_mcu7t5v0__nor3_1
*I *2779:ZN O *D gf180mcu_fd_sc_mcu7t5v0__nor2_1
*CAP
1 *2780:A3 0.000204854
2 *2779:ZN 0.000204854
3 *2780:A3 *3190:CLK 4.50449e-05
4 *2780:A3 *793:53 2.88155e-05
5 *2778:A4 *2780:A3 8.55242e-05
6 *3190:D *2780:A3 7.55562e-05
7 *422:12 *2780:A3 0.000469926
*RES
1 *2779:ZN *2780:A3 11.432 
*END

*D_NET *424 0.00481004
*CONN
*I *2784:A2 I *D gf180mcu_fd_sc_mcu7t5v0__and2_1
*I *2783:A2 I *D gf180mcu_fd_sc_mcu7t5v0__nor3_1
*I *2785:A2 I *D gf180mcu_fd_sc_mcu7t5v0__nor2_1
*I *2781:Z O *D gf180mcu_fd_sc_mcu7t5v0__and2_1
*CAP
1 *2784:A2 0.000494409
2 *2783:A2 0.000105259
3 *2785:A2 0.000402603
4 *2781:Z 4.71266e-05
5 *424:10 0.000594037
6 *424:8 0.000627709
7 *2783:A2 *754:21 1.38099e-05
8 *2783:A2 *793:16 5.26555e-05
9 *2784:A2 *2784:A1 6.68164e-05
10 *2784:A2 *2787:A3 9.88736e-06
11 *2784:A2 *426:10 0.000180023
12 *2784:A2 *717:21 0
13 *2784:A2 *717:32 0.000113206
14 *2784:A2 *754:12 7.55104e-05
15 *2784:A2 *754:43 4.86263e-06
16 *2784:A2 *793:10 0.000224874
17 *2784:A2 *793:107 0
18 *2785:A2 *2783:A3 1.79748e-05
19 *2785:A2 *2785:A1 1.02578e-05
20 *2785:A2 *2786:A3 0.000142747
21 *2785:A2 *3369:I 2.22746e-05
22 *2785:A2 *716:12 0.000433376
23 *2785:A2 *717:21 0
24 *2785:A2 *793:10 8.36287e-05
25 *2785:A2 *793:16 0.000197036
26 *424:8 *2789:A3 0.000129608
27 *424:10 *754:12 3.01019e-05
28 *424:10 *793:10 0.000349747
29 DAT_O[3] *2785:A2 0
30 *2787:A4 *2784:A2 9.88736e-06
31 *3191:D *2783:A2 5.91685e-05
32 *3192:D *2783:A2 5.76749e-06
33 *3192:D *424:8 0.000305671
*RES
1 *2781:Z *424:8 9.836 
2 *424:8 *424:10 0.988 
3 *424:10 *2785:A2 12.572 
4 *424:10 *2783:A2 9.836 
5 *424:8 *2784:A2 12.8 
*END

*D_NET *425 0.000480339
*CONN
*I *2783:A3 I *D gf180mcu_fd_sc_mcu7t5v0__nor3_1
*I *2782:ZN O *D gf180mcu_fd_sc_mcu7t5v0__nor2_1
*CAP
1 *2783:A3 7.12012e-05
2 *2782:ZN 7.12012e-05
3 *2783:A3 *716:20 0.000319962
4 *2785:A2 *2783:A3 1.79748e-05
*RES
1 *2782:ZN *2783:A3 18.836 
*END

*D_NET *426 0.0032629
*CONN
*I *2788:A2 I *D gf180mcu_fd_sc_mcu7t5v0__nor2_1
*I *2786:A2 I *D gf180mcu_fd_sc_mcu7t5v0__nor3_1
*I *2784:Z O *D gf180mcu_fd_sc_mcu7t5v0__and2_1
*CAP
1 *2788:A2 0
2 *2786:A2 0.000149169
3 *2784:Z 0.000515791
4 *426:10 0.00066496
5 *2786:A2 *2780:A1 0.00026757
6 *2786:A2 *754:21 8.55327e-05
7 *2786:A2 *793:16 1.15244e-05
8 *426:10 *2780:A1 9.52854e-05
9 *426:10 *2788:A1 0.000342519
10 *426:10 *2789:A3 0
11 *426:10 *3191:CLK 3.83835e-06
12 *426:10 *428:8 0.00026094
13 *426:10 *754:8 0.000154348
14 *426:10 *793:103 1.76575e-05
15 *2782:A2 *2786:A2 5.35754e-05
16 *2784:A2 *426:10 0.000180023
17 *2787:A4 *426:10 0.00044639
18 *422:16 *426:10 0
19 *422:29 *2786:A2 5.13643e-06
20 *422:29 *426:10 8.64281e-06
*RES
1 *2784:Z *426:10 14.168 
2 *426:10 *2786:A2 10.216 
3 *426:10 *2788:A2 9 
*END

*D_NET *427 0.00202554
*CONN
*I *2786:A3 I *D gf180mcu_fd_sc_mcu7t5v0__nor3_1
*I *2785:ZN O *D gf180mcu_fd_sc_mcu7t5v0__nor2_1
*CAP
1 *2786:A3 0.000730855
2 *2785:ZN 0.000730855
3 *2786:A3 *3369:I 0
4 *2786:A3 *716:20 0
5 *2786:A3 *793:20 0.000397569
6 *2782:A2 *2786:A3 2.35105e-05
7 *2785:A2 *2786:A3 0.000142747
*RES
1 *2785:ZN *2786:A3 23.472 
*END

*D_NET *428 0.00863347
*CONN
*I *2797:A4 I *D gf180mcu_fd_sc_mcu7t5v0__and4_1
*I *2790:A2 I *D gf180mcu_fd_sc_mcu7t5v0__nor2_1
*I *2791:A2 I *D gf180mcu_fd_sc_mcu7t5v0__and2_1
*I *2789:A2 I *D gf180mcu_fd_sc_mcu7t5v0__nor3_1
*I *2787:Z O *D gf180mcu_fd_sc_mcu7t5v0__and4_1
*CAP
1 *2797:A4 0.000137717
2 *2790:A2 0.000150942
3 *2791:A2 0.000133389
4 *2789:A2 0.000247564
5 *2787:Z 0.000177438
6 *428:32 0.000378915
7 *428:23 0.000445698
8 *428:8 0.000647055
9 *2789:A2 *2789:A1 0.000263389
10 *2789:A2 *2789:A3 0.000142175
11 *2789:A2 *718:10 0
12 *2790:A2 *2790:A1 5.70962e-05
13 *2790:A2 *2793:A2 0.000886823
14 *2790:A2 *2794:A1 0
15 *2790:A2 *719:12 5.96987e-05
16 *2790:A2 *720:16 0.000712243
17 *2791:A2 *2791:A1 0.000194266
18 *2791:A2 *2792:A3 0
19 *2791:A2 *431:15 0
20 *2797:A4 *2791:A1 9.74225e-05
21 *2797:A4 *3321:I 0.000371929
22 *2797:A4 *719:21 0.000105398
23 *428:8 *2784:A1 0
24 *428:8 *2789:A3 7.24161e-06
25 *428:8 *718:10 0
26 *428:8 *793:6 9.4764e-05
27 *428:8 *793:103 0.000314853
28 *428:23 *2792:A2 0
29 *428:23 *2795:A2 0.000393624
30 *428:23 *3195:CLK 0
31 *428:23 *3321:I 0.00150514
32 *428:23 *717:21 4.81124e-05
33 *428:32 *2791:A1 0.000143734
34 *428:32 *3321:I 0.000129087
35 *428:32 *431:15 0
36 *3195:D *2791:A2 8.55327e-05
37 *3195:D *428:23 2.47642e-05
38 *3196:D *2797:A4 0.000416521
39 *426:10 *428:8 0.00026094
*RES
1 *2787:Z *428:8 6.628 
2 *428:8 *2789:A2 6.78 
3 *428:8 *428:23 13.028 
4 *428:23 *2791:A2 5.64 
5 *428:23 *428:32 0.988 
6 *428:32 *2790:A2 16.464 
7 *428:32 *2797:A4 6.856 
*END

*D_NET *429 0.00268429
*CONN
*I *2789:A3 I *D gf180mcu_fd_sc_mcu7t5v0__nor3_1
*I *2788:ZN O *D gf180mcu_fd_sc_mcu7t5v0__nor2_1
*CAP
1 *2789:A3 0.000791867
2 *2788:ZN 0.000791867
3 *2789:A3 *3191:CLK 1.97747e-05
4 *2789:A3 *3193:CLK 0
5 *2789:A3 *793:6 0.00049857
6 *2789:A2 *2789:A3 0.000142175
7 *3192:D *2789:A3 0.000104721
8 *3193:D *2789:A3 6.68265e-05
9 *422:16 *2789:A3 0.000131642
10 *424:8 *2789:A3 0.000129608
11 *426:10 *2789:A3 0
12 *428:8 *2789:A3 7.24161e-06
*RES
1 *2788:ZN *2789:A3 15.384 
*END

*D_NET *430 0.00204968
*CONN
*I *2792:A2 I *D gf180mcu_fd_sc_mcu7t5v0__nor3_1
*I *2790:ZN O *D gf180mcu_fd_sc_mcu7t5v0__nor2_1
*CAP
1 *2792:A2 0.000908005
2 *2790:ZN 0.000908005
3 *2792:A2 *2795:A2 0
4 *2792:A2 *437:8 0
5 *2792:A2 *720:8 0.000141888
6 *2792:A2 *723:8 0
7 *3195:D *2792:A2 9.17802e-05
8 *428:23 *2792:A2 0
*RES
1 *2790:ZN *2792:A2 24.384 
*END

*D_NET *431 0.00355543
*CONN
*I *2794:A2 I *D gf180mcu_fd_sc_mcu7t5v0__nor2_1
*I *2793:A2 I *D gf180mcu_fd_sc_mcu7t5v0__and2_1
*I *2792:A3 I *D gf180mcu_fd_sc_mcu7t5v0__nor3_1
*I *2791:Z O *D gf180mcu_fd_sc_mcu7t5v0__and2_1
*CAP
1 *2794:A2 0.000208306
2 *2793:A2 0.000247281
3 *2792:A3 3.97262e-05
4 *2791:Z 9.84103e-05
5 *431:15 0.000690297
6 *431:6 0.000372847
7 *2792:A3 *2792:A1 5.1289e-05
8 *2793:A2 *2794:A1 0
9 *2793:A2 *2795:A2 0.000369423
10 *2794:A2 *2795:A3 5.05453e-05
11 *2794:A2 *3195:CLK 0.000116414
12 *2794:A2 *3321:I 7.1776e-05
13 *431:15 *2792:A1 1.41392e-05
14 *431:15 *3195:CLK 0.000307983
15 *431:15 *3321:I 2.79319e-05
16 *2790:A2 *2793:A2 0.000886823
17 *2791:A2 *2792:A3 0
18 *2791:A2 *431:15 0
19 *3194:D *431:15 0
20 *3195:D *431:15 2.23598e-06
21 *428:32 *431:15 0
*RES
1 *2791:Z *431:6 5.184 
2 *431:6 *2792:A3 4.88 
3 *431:6 *431:15 1.596 
4 *431:15 *2793:A2 16.768 
5 *431:15 *2794:A2 6.172 
*END

*D_NET *432 0.0027073
*CONN
*I *2796:A2 I *D gf180mcu_fd_sc_mcu7t5v0__nor2_1
*I *2795:A2 I *D gf180mcu_fd_sc_mcu7t5v0__nor3_1
*I *2793:Z O *D gf180mcu_fd_sc_mcu7t5v0__and2_1
*CAP
1 *2796:A2 0.000541238
2 *2795:A2 0.000395126
3 *2793:Z 0
4 *432:4 0.000936364
5 *2795:A2 *2791:A1 0
6 *2795:A2 *3195:CLK 6.03845e-05
7 *2795:A2 *720:8 0
8 *2796:A2 *3196:CLK 1.54747e-06
9 *2796:A2 *719:8 0
10 *2796:A2 *720:8 9.59587e-06
11 *2796:A2 *720:16 0
12 *2796:A2 *720:29 0
13 *2796:A2 *721:8 0
14 *2792:A2 *2795:A2 0
15 *2793:A2 *2795:A2 0.000369423
16 *428:23 *2795:A2 0.000393624
*RES
1 *2793:Z *432:4 4.5 
2 *432:4 *2795:A2 17.756 
3 *432:4 *2796:A2 7.312 
*END

*D_NET *433 0.000811557
*CONN
*I *2795:A3 I *D gf180mcu_fd_sc_mcu7t5v0__nor3_1
*I *2794:ZN O *D gf180mcu_fd_sc_mcu7t5v0__nor2_1
*CAP
1 *2795:A3 0.000219146
2 *2794:ZN 0.000219146
3 *2795:A3 *3195:CLK 5.48455e-05
4 *2795:A3 *3196:CLK 0
5 *2795:A3 *754:47 0.000148325
6 *2794:A2 *2795:A3 5.05453e-05
7 *3194:D *2795:A3 0.00011955
*RES
1 *2794:ZN *2795:A3 11.052 
*END

*D_NET *434 0.00198093
*CONN
*I *2798:A2 I *D gf180mcu_fd_sc_mcu7t5v0__nor3_1
*I *2796:ZN O *D gf180mcu_fd_sc_mcu7t5v0__nor2_1
*CAP
1 *2798:A2 0.000118233
2 *2796:ZN 0.000118233
3 *2798:A2 *2790:A1 0
4 *2798:A2 *2794:A1 5.64786e-06
5 *2798:A2 *3196:CLK 0.00068261
6 *2798:A2 *754:97 0.00105621
*RES
1 *2796:ZN *2798:A2 20.812 
*END

*D_NET *435 0.00576058
*CONN
*I *2799:A2 I *D gf180mcu_fd_sc_mcu7t5v0__nor2_1
*I *2800:A2 I *D gf180mcu_fd_sc_mcu7t5v0__and2_1
*I *2806:A4 I *D gf180mcu_fd_sc_mcu7t5v0__and4_1
*I *2798:A3 I *D gf180mcu_fd_sc_mcu7t5v0__nor3_1
*I *2797:Z O *D gf180mcu_fd_sc_mcu7t5v0__and4_1
*CAP
1 *2799:A2 4.17989e-05
2 *2800:A2 0.000284176
3 *2806:A4 1.88515e-05
4 *2798:A3 5.46724e-05
5 *2797:Z 0
6 *435:25 0.000764185
7 *435:17 0.00118935
8 *435:4 0.000741066
9 *2799:A2 *722:14 4.76719e-05
10 *2799:A2 *722:23 3.08902e-05
11 *2799:A2 *723:28 1.96579e-05
12 *2800:A2 *2800:A1 0.000186337
13 *2800:A2 *2801:A3 8.78534e-05
14 *2800:A2 *2806:A1 2.6126e-05
15 *2800:A2 *437:8 5.1289e-05
16 *2800:A2 *709:14 0.000305928
17 *2800:A2 *709:20 6.817e-05
18 *2806:A4 *2806:A3 1.75512e-05
19 *2806:A4 *709:14 8.25105e-05
20 *435:17 *2797:A1 0.0001908
21 *435:17 *3321:I 0.000248663
22 *435:17 *710:20 8.78018e-05
23 *435:17 *721:12 0.000200335
24 *435:17 *754:97 2.75746e-05
25 *435:17 *794:25 0.000214157
26 *435:25 *2806:A3 5.36581e-05
27 *435:25 *3197:CLK 8.01724e-06
28 *435:25 *441:16 0
29 *435:25 *709:14 7.83779e-05
30 *435:25 *710:20 4.38664e-05
31 *435:25 *723:28 1.17512e-05
32 *435:25 *794:25 0.0004577
33 *3196:D *435:17 0.000119798
34 *3197:D *2800:A2 0
*RES
1 *2797:Z *435:4 4.5 
2 *435:4 *2798:A3 4.88 
3 *435:4 *435:17 10.276 
4 *435:17 *435:25 7.464 
5 *435:25 *2806:A4 4.728 
6 *435:25 *2800:A2 15.932 
7 *435:17 *2799:A2 9.38 
*END

*D_NET *436 0.00144758
*CONN
*I *2801:A2 I *D gf180mcu_fd_sc_mcu7t5v0__nor3_1
*I *2799:ZN O *D gf180mcu_fd_sc_mcu7t5v0__nor2_1
*CAP
1 *2801:A2 0.000145056
2 *2799:ZN 0.000145056
3 *2801:A2 *2800:A1 7.14164e-06
4 *2801:A2 *2806:A1 1.91917e-06
5 *2801:A2 *709:20 0.000737587
6 *2801:A2 *722:14 0.000361006
7 *2801:A2 *722:23 4.98138e-05
*RES
1 *2799:ZN *2801:A2 11.052 
*END

*D_NET *437 0.00148606
*CONN
*I *2801:A3 I *D gf180mcu_fd_sc_mcu7t5v0__nor3_1
*I *2802:A2 I *D gf180mcu_fd_sc_mcu7t5v0__nor2_1
*I *2803:A2 I *D gf180mcu_fd_sc_mcu7t5v0__and2_1
*I *2800:Z O *D gf180mcu_fd_sc_mcu7t5v0__and2_1
*CAP
1 *2801:A3 0.000114332
2 *2802:A2 0
3 *2803:A2 0.000203733
4 *2800:Z 0
5 *437:8 0.000397965
6 *437:4 0.000308563
7 *2803:A2 *2804:A2 0.000294876
8 *437:8 *720:8 0
9 *437:8 *723:21 2.07594e-05
10 *2792:A2 *437:8 0
11 *2800:A2 *2801:A3 8.78534e-05
12 *2800:A2 *437:8 5.1289e-05
13 *3197:D *2801:A3 6.69011e-06
*RES
1 *2800:Z *437:4 4.5 
2 *437:4 *437:8 1.368 
3 *437:8 *2803:A2 14.792 
4 *437:8 *2802:A2 4.5 
5 *437:4 *2801:A3 5.336 
*END

*D_NET *438 0.00152327
*CONN
*I *2804:A2 I *D gf180mcu_fd_sc_mcu7t5v0__nor3_1
*I *2802:ZN O *D gf180mcu_fd_sc_mcu7t5v0__nor2_1
*CAP
1 *2804:A2 0.000312578
2 *2802:ZN 0.000312578
3 *2804:A2 *2807:A2 0.00021548
4 *2804:A2 *439:10 0.000387757
5 *2803:A2 *2804:A2 0.000294876
*RES
1 *2802:ZN *2804:A2 20.508 
*END

*D_NET *439 0.00168425
*CONN
*I *2804:A3 I *D gf180mcu_fd_sc_mcu7t5v0__nor3_1
*I *2805:A2 I *D gf180mcu_fd_sc_mcu7t5v0__nor2_1
*I *2803:Z O *D gf180mcu_fd_sc_mcu7t5v0__and2_1
*CAP
1 *2804:A3 0
2 *2805:A2 0.000149583
3 *2803:Z 9.36003e-05
4 *439:10 0.000243184
5 *2805:A2 *2807:A2 0.000734805
6 *2805:A2 *3198:CLK 0
7 *2804:A2 *439:10 0.000387757
8 *3198:D *2805:A2 7.53241e-05
*RES
1 *2803:Z *439:10 14.488 
2 *439:10 *2805:A2 6.4 
3 *439:10 *2804:A3 4.5 
*END

*D_NET *440 0.00214833
*CONN
*I *2807:A2 I *D gf180mcu_fd_sc_mcu7t5v0__nor3_1
*I *2805:ZN O *D gf180mcu_fd_sc_mcu7t5v0__nor2_1
*CAP
1 *2807:A2 0.000380631
2 *2805:ZN 0.000380631
3 *2807:A2 *2804:A1 1.91917e-06
4 *2807:A2 *2805:A1 0.000413792
5 *2807:A2 *3198:CLK 1.51256e-05
6 *2807:A2 *3199:CLK 5.94709e-06
7 *2804:A2 *2807:A2 0.00021548
8 *2805:A2 *2807:A2 0.000734805
*RES
1 *2805:ZN *2807:A2 22.256 
*END

*D_NET *441 0.00539548
*CONN
*I *2807:A3 I *D gf180mcu_fd_sc_mcu7t5v0__nor3_1
*I *2809:A2 I *D gf180mcu_fd_sc_mcu7t5v0__oai21_1
*I *2808:A2 I *D gf180mcu_fd_sc_mcu7t5v0__and2_1
*I *2806:Z O *D gf180mcu_fd_sc_mcu7t5v0__and4_1
*CAP
1 *2807:A3 0.000515439
2 *2809:A2 0.000214555
3 *2808:A2 0
4 *2806:Z 0.000129049
5 *441:16 0.000688583
6 *441:8 0.00111852
7 *2807:A3 *2777:I 0.000531637
8 *2807:A3 *3198:CLK 1.2682e-05
9 *2807:A3 *3199:CLK 3.8202e-05
10 *2807:A3 *754:112 2.21707e-05
11 *2807:A3 *794:52 1.99693e-05
12 *2807:A3 *794:56 9.26907e-05
13 *2809:A2 *2777:I 1.15244e-05
14 *2809:A2 *2812:B 0.000449002
15 *2809:A2 *710:14 0.000104631
16 *2809:A2 *711:12 0.000157232
17 *441:8 *754:112 4.37956e-05
18 *441:16 *2804:A1 1.52768e-05
19 *441:16 *3197:CLK 2.22657e-05
20 *441:16 *709:14 0
21 *441:16 *710:14 4.4998e-05
22 *441:16 *710:20 0.000333388
23 *441:16 *754:112 1.72894e-05
24 *441:16 *794:40 8.02751e-06
25 *441:16 *794:52 6.13836e-05
26 *441:16 *794:94 7.22665e-05
27 *2807:A1 *2807:A3 1.95729e-05
28 *2807:A1 *2809:A2 1.91917e-06
29 *3199:D *2807:A3 0.000386421
30 *420:26 *2809:A2 0.000262996
31 *435:25 *441:16 0
*RES
1 *2806:Z *441:8 9.836 
2 *441:8 *441:16 12.496 
3 *441:16 *2808:A2 9 
4 *441:16 *2809:A2 11.736 
5 *441:8 *2807:A3 13.256 
*END

*D_NET *442 0.00393498
*CONN
*I *2812:A2 I *D gf180mcu_fd_sc_mcu7t5v0__aoi211_1
*I *2813:A2 I *D gf180mcu_fd_sc_mcu7t5v0__aoi21_1
*I *2814:A3 I *D gf180mcu_fd_sc_mcu7t5v0__and3_1
*I *2811:A2 I *D gf180mcu_fd_sc_mcu7t5v0__nor2_1
*I *2810:A1 I *D gf180mcu_fd_sc_mcu7t5v0__nor2_1
*I *2808:Z O *D gf180mcu_fd_sc_mcu7t5v0__and2_1
*CAP
1 *2812:A2 6.55929e-05
2 *2813:A2 0
3 *2814:A3 0.000107993
4 *2811:A2 0.00015124
5 *2810:A1 0.00021926
6 *2808:Z 0
7 *442:30 0.000267707
8 *442:28 0.000253052
9 *442:8 0.000442702
10 *442:4 9.99474e-05
11 *2810:A1 *2804:A1 0.000136163
12 *2810:A1 *754:112 0.000236514
13 *2810:A1 *794:40 8.55242e-05
14 *2810:A1 *794:52 4.03405e-05
15 *2810:A1 *794:94 0.00019583
16 *2811:A2 *2812:B 8.95196e-05
17 *2811:A2 *794:94 8.52658e-05
18 *2812:A2 *711:21 1.5015e-05
19 *2814:A3 *2815:A2 7.82924e-06
20 *2814:A3 *712:10 4.08125e-05
21 *2814:A3 *712:14 4.32371e-05
22 *442:30 *2811:A1 2.74753e-05
23 *442:30 *2812:B 0.000193942
24 *442:30 *2815:A2 0.000310356
25 *442:30 *711:21 7.24161e-06
26 *442:30 *794:94 0
27 *2807:A1 *2810:A1 1.62709e-05
28 *2807:A1 *2812:A2 3.84832e-06
29 *3200:D *2810:A1 0.000323699
30 *3200:D *442:8 1.76656e-05
31 *3200:D *442:28 3.77294e-06
32 *3201:D *2812:A2 2.9378e-06
33 *3201:D *442:8 0
34 *3202:D *442:30 0.000131633
35 *420:18 *2814:A3 0.000199473
36 *420:18 *442:30 7.43203e-06
37 *420:26 *442:30 0.000105686
*RES
1 *2808:Z *442:4 4.5 
2 *442:4 *442:8 0.608 
3 *442:8 *2810:A1 6.932 
4 *442:8 *2811:A2 6.02 
5 *442:4 *442:28 0.228 
6 *442:28 *442:30 2.356 
7 *442:30 *2814:A3 14.488 
8 *442:30 *2813:A2 4.5 
9 *442:28 *2812:A2 5.108 
*END

*D_NET *443 0.00238269
*CONN
*I *2810:A2 I *D gf180mcu_fd_sc_mcu7t5v0__nor2_1
*I *2809:ZN O *D gf180mcu_fd_sc_mcu7t5v0__oai21_1
*CAP
1 *2810:A2 0.000378389
2 *2809:ZN 0.000378389
3 *2810:A2 *2777:I 0.0011904
4 *2810:A2 *794:52 0.000195189
5 *2807:A1 *2810:A2 0.00024032
6 *3201:D *2810:A2 0
*RES
1 *2809:ZN *2810:A2 22.256 
*END

*D_NET *444 0.00101087
*CONN
*I *2812:B I *D gf180mcu_fd_sc_mcu7t5v0__aoi211_1
*I *2811:ZN O *D gf180mcu_fd_sc_mcu7t5v0__nor2_1
*CAP
1 *2812:B 0.000109244
2 *2811:ZN 0.000109244
3 *2812:B *2815:A2 5.99167e-05
4 *2809:A2 *2812:B 0.000449002
5 *2811:A2 *2812:B 8.95196e-05
6 *442:30 *2812:B 0.000193942
*RES
1 *2811:ZN *2812:B 19.672 
*END

*D_NET *445 0.000967081
*CONN
*I *2815:A2 I *D gf180mcu_fd_sc_mcu7t5v0__nor3_1
*I *2813:ZN O *D gf180mcu_fd_sc_mcu7t5v0__aoi21_1
*CAP
1 *2815:A2 0.000171315
2 *2813:ZN 0.000171315
3 *2815:A2 *2811:A1 0.000193933
4 *2815:A2 *794:94 1.02823e-05
5 *2812:B *2815:A2 5.99167e-05
6 *2814:A3 *2815:A2 7.82924e-06
7 *420:18 *2815:A2 4.21332e-05
8 *442:30 *2815:A2 0.000310356
*RES
1 *2813:ZN *2815:A2 19.824 
*END

*D_NET *446 0.00519453
*CONN
*I *2817:A2 I *D gf180mcu_fd_sc_mcu7t5v0__oai21_1
*I *2816:A2 I *D gf180mcu_fd_sc_mcu7t5v0__and2_1
*I *2815:A3 I *D gf180mcu_fd_sc_mcu7t5v0__nor3_1
*I *2814:Z O *D gf180mcu_fd_sc_mcu7t5v0__and3_1
*CAP
1 *2817:A2 0.000227352
2 *2816:A2 0.000244114
3 *2815:A3 0.000199804
4 *2814:Z 0
5 *446:25 0.000901857
6 *446:4 0.000630194
7 *2815:A3 *2820:A2 2.30549e-05
8 *2815:A3 *711:21 0.000106782
9 *2815:A3 *711:34 7.50749e-05
10 *2816:A2 *2750:A1 0.000602496
11 *2816:A2 *2818:A2 0.00019722
12 *2816:A2 *3203:CLK 8.05934e-05
13 *2816:A2 *806:16 0
14 *2817:A2 *2818:A2 0.00031409
15 *446:25 *3203:CLK 4.97386e-06
16 *446:25 *3324:I 0.000146666
17 *446:25 *3332:I 0
18 *446:25 *711:34 5.73066e-06
19 *446:25 *711:50 0
20 *446:25 *794:109 1.01183e-05
21 *446:25 *806:16 8.55242e-05
22 *2761:A1 *2816:A2 0
23 *3202:D *446:25 0
24 *3203:D *2816:A2 0.000523959
25 *3204:D *2815:A3 8.94741e-05
26 *3204:D *446:25 0.000725454
*RES
1 *2814:Z *446:4 4.5 
2 *446:4 *2815:A3 6.476 
3 *446:4 *446:25 8.528 
4 *446:25 *2816:A2 12.192 
5 *446:25 *2817:A2 11.356 
*END

*D_NET *447 0.00671454
*CONN
*I *2819:A2 I *D gf180mcu_fd_sc_mcu7t5v0__oai21_1
*I *2820:A2 I *D gf180mcu_fd_sc_mcu7t5v0__aoi21_1
*I *2818:A1 I *D gf180mcu_fd_sc_mcu7t5v0__nor2_1
*I *2816:Z O *D gf180mcu_fd_sc_mcu7t5v0__and2_1
*CAP
1 *2819:A2 0.000150578
2 *2820:A2 0.000112616
3 *2818:A1 3.28034e-05
4 *2816:Z 0.00014097
5 *447:25 0.00100971
6 *447:12 0.000920288
7 *2819:A2 *2820:B 0.000185131
8 *2819:A2 *712:10 8.59527e-06
9 *2819:A2 *714:12 0.000167793
10 *2819:A2 *714:18 1.28891e-05
11 *2820:A2 *2820:A1 0.000911397
12 *447:12 *2756:A1 2.40654e-06
13 *447:12 *2764:A2 0.000718919
14 *447:12 *2818:A2 0.00034938
15 *447:12 *3324:I 2.11881e-05
16 *447:25 *2748:A2 8.48036e-05
17 *447:25 *2756:A2 0
18 *447:25 *2757:A2 5.69191e-05
19 *447:25 *2764:A2 0
20 *447:25 *711:34 6.74911e-05
21 *447:25 *712:10 2.62902e-05
22 *447:25 *712:14 2.69281e-06
23 *447:25 *712:25 0
24 *447:25 *714:18 0.000130243
25 *447:25 *794:109 0.000217466
26 *2761:A1 *447:12 0.000193933
27 *2761:A3 *447:12 0.000170883
28 *2762:A3 *447:12 8.04367e-06
29 *2809:B *2820:A2 0
30 *2815:A3 *2820:A2 2.30549e-05
31 *3203:D *447:12 0.000138436
32 *3204:D *2820:A2 0.000849617
*RES
1 *2816:Z *447:12 16.54 
2 *447:12 *2818:A1 4.728 
3 *447:12 *447:25 9.972 
4 *447:25 *2820:A2 11.888 
5 *447:25 *2819:A2 10.9 
*END

*D_NET *448 0.00215738
*CONN
*I *2818:A2 I *D gf180mcu_fd_sc_mcu7t5v0__nor2_1
*I *2817:ZN O *D gf180mcu_fd_sc_mcu7t5v0__oai21_1
*CAP
1 *2818:A2 0.00051317
2 *2817:ZN 0.00051317
3 *2818:A2 *3324:I 0.000237595
4 *2818:A2 *714:12 0
5 *2818:A2 *714:18 0
6 *2816:A2 *2818:A2 0.00019722
7 *2817:A2 *2818:A2 0.00031409
8 *3203:D *2818:A2 3.27593e-05
9 *447:12 *2818:A2 0.00034938
*RES
1 *2817:ZN *2818:A2 23.244 
*END

*D_NET *449 0.0015144
*CONN
*I *2820:B I *D gf180mcu_fd_sc_mcu7t5v0__aoi21_1
*I *2819:ZN O *D gf180mcu_fd_sc_mcu7t5v0__oai21_1
*CAP
1 *2820:B 0.000299249
2 *2819:ZN 0.000299249
3 *2820:B *2820:A1 0.000335478
4 *2820:B *3332:I 0.000308746
5 *2820:B *712:10 6.48268e-05
6 *2820:B *714:12 0
7 *2809:B *2820:B 2.17248e-05
8 *2819:A2 *2820:B 0.000185131
*RES
1 *2819:ZN *2820:B 21.496 
*END

*D_NET *450 0.0019554
*CONN
*I *2822:A2 I *D gf180mcu_fd_sc_mcu7t5v0__nand2_1
*I *2933:A1 I *D gf180mcu_fd_sc_mcu7t5v0__nor2_1
*I *2821:Z O *D gf180mcu_fd_sc_mcu7t5v0__and2_1
*CAP
1 *2822:A2 9.26766e-05
2 *2933:A1 0.00031364
3 *2821:Z 0
4 *450:4 0.000406316
5 *2822:A2 *469:22 1.91917e-06
6 *2822:A2 *702:50 3.08902e-05
7 *2822:A2 *702:65 0.000255714
8 *2933:A1 *2653:A1 0
9 *2933:A1 *2839:A1 7.2647e-05
10 *2933:A1 *2841:A1 0
11 *2933:A1 *702:65 0
12 *2821:A2 *2933:A1 0.000141888
13 *2823:A2 *2933:A1 1.72827e-05
14 *2929:A1 *2933:A1 2.09451e-05
15 *2935:C *2822:A2 2.23477e-05
16 *2935:C *2933:A1 0.000441055
17 *241:27 *2822:A2 0.000116355
18 *241:27 *2933:A1 2.17248e-05
*RES
1 *2821:Z *450:4 4.5 
2 *450:4 *2933:A1 16.236 
3 *450:4 *2822:A2 5.716 
*END

*D_NET *451 0.000109345
*CONN
*I *2840:A1 I *D gf180mcu_fd_sc_mcu7t5v0__and2_1
*I *2822:ZN O *D gf180mcu_fd_sc_mcu7t5v0__nand2_1
*CAP
1 *2840:A1 5.46724e-05
2 *2822:ZN 5.46724e-05
*RES
1 *2822:ZN *2840:A1 9.38 
*END

*D_NET *452 0.00258883
*CONN
*I *2839:C I *D gf180mcu_fd_sc_mcu7t5v0__oai211_1
*I *2933:A2 I *D gf180mcu_fd_sc_mcu7t5v0__nor2_1
*I *2841:A2 I *D gf180mcu_fd_sc_mcu7t5v0__and4_1
*I *2934:A2 I *D gf180mcu_fd_sc_mcu7t5v0__aoi221_1
*I *2823:ZN O *D gf180mcu_fd_sc_mcu7t5v0__nor2_1
*CAP
1 *2839:C 0.000136511
2 *2933:A2 0
3 *2841:A2 0
4 *2934:A2 0.000113459
5 *2823:ZN 0.000383613
6 *452:10 0.000215487
7 *452:8 0.00034913
8 *2839:C *2839:A1 0.00037834
9 *2839:C *2841:A1 7.83779e-05
10 *2839:C *3229:CLK 0.000431651
11 *2839:C *469:22 8.27561e-05
12 *2839:C *702:65 2.6126e-05
13 *2934:A2 *2839:A1 0
14 *2934:A2 *2841:A1 0.000195828
15 *2934:A2 *2841:A3 1.5015e-05
16 *2934:A2 *2934:B1 7.88344e-05
17 *2934:A2 *3015:C2 2.17248e-05
18 *452:8 *2823:A1 2.11364e-05
19 *452:8 *2839:A1 3.56179e-05
20 *452:8 *2841:A3 4.22854e-06
21 *452:8 *469:22 0
22 *452:10 *2934:A1 0
23 *2661:A2 *452:8 1.84255e-05
24 *2661:A2 *452:10 2.57058e-06
*RES
1 *2823:ZN *452:8 6.324 
2 *452:8 *452:10 0.684 
3 *452:10 *2934:A2 5.64 
4 *452:10 *2841:A2 4.5 
5 *452:8 *2933:A2 4.5 
6 *2823:ZN *2839:C 11.356 
*END

*D_NET *453 0.000650811
*CONN
*I *2832:A1 I *D gf180mcu_fd_sc_mcu7t5v0__aoi21_1
*I *2824:ZN O *D gf180mcu_fd_sc_mcu7t5v0__nor2_1
*CAP
1 *2832:A1 0.000265446
2 *2824:ZN 0.000265446
3 *2832:A1 *2831:A1 0
4 *2832:A1 *2832:A2 9.77277e-05
5 *2832:A1 *2900:B 2.21907e-05
*RES
1 *2824:ZN *2832:A1 10.976 
*END

*D_NET *454 0.00373241
*CONN
*I *2826:A2 I *D gf180mcu_fd_sc_mcu7t5v0__aoi21_1
*I *2825:ZN O *D gf180mcu_fd_sc_mcu7t5v0__oai211_1
*CAP
1 *2826:A2 0.000380619
2 *2825:ZN 0.000380619
3 *2826:A2 *2605:A1 0.000376901
4 *2826:A2 *2611:C 0.000521063
5 *2826:A2 *2853:A1 0
6 *2826:A2 *2853:A2 0
7 *2826:A2 *3145:CLK 0.000374234
8 *2826:A2 *750:18 0.000371311
9 *2826:A2 *750:78 0.00118833
10 *2826:A2 *890:8 0.000139333
11 *2609:A1 *2826:A2 0
*RES
1 *2825:ZN *2826:A2 15.688 
*END

*D_NET *455 0.00303026
*CONN
*I *2828:A1 I *D gf180mcu_fd_sc_mcu7t5v0__oai211_1
*I *2826:ZN O *D gf180mcu_fd_sc_mcu7t5v0__aoi21_1
*CAP
1 *2828:A1 0.000680812
2 *2826:ZN 0.000680812
3 *2828:A1 *2611:A2 0.0004462
4 *2828:A1 *2615:A1 0
5 *2828:A1 *2617:A1 8.78761e-05
6 *2828:A1 *2843:B 0.000357108
7 *2828:A1 *758:26 0
8 *2828:A1 *758:30 0
9 *2611:B *2828:A1 1.72856e-05
10 *2625:A1 *2828:A1 0.000308957
11 *2826:A1 *2828:A1 0.000396904
12 *2862:A1 *2828:A1 5.43087e-05
*RES
1 *2826:ZN *2828:A1 25.448 
*END

*D_NET *456 0.000251488
*CONN
*I *2828:A2 I *D gf180mcu_fd_sc_mcu7t5v0__oai211_1
*I *2827:Z O *D gf180mcu_fd_sc_mcu7t5v0__or3_1
*CAP
1 *2828:A2 3.98111e-05
2 *2827:Z 3.98111e-05
3 *2828:A2 *2618:A1 0.000143649
4 *2828:A2 *758:30 0
5 *2617:A2 *2828:A2 1.70277e-05
6 *2625:A1 *2828:A2 1.11891e-05
*RES
1 *2827:Z *2828:A2 18.684 
*END

*D_NET *457 0.00408058
*CONN
*I *2832:A2 I *D gf180mcu_fd_sc_mcu7t5v0__aoi21_1
*I *2828:ZN O *D gf180mcu_fd_sc_mcu7t5v0__oai211_1
*CAP
1 *2832:A2 0.0011436
2 *2828:ZN 0.0011436
3 *2832:A2 *2487:I 0
4 *2832:A2 *2488:I 0.000116786
5 *2832:A2 *2618:A1 0.00033338
6 *2832:A2 *2621:A1 0.000835055
7 *2832:A2 *2900:B 9.86761e-05
8 *2832:A2 *694:47 5.83567e-05
9 *2832:A2 *758:12 0
10 *2832:A2 *758:14 0
11 *2832:A2 *758:20 0
12 *2832:A2 *788:20 7.37597e-05
13 *2832:A2 *788:30 0.000168381
14 *2832:A2 *874:21 1.12495e-05
15 *2832:A1 *2832:A2 9.77277e-05
*RES
1 *2828:ZN *2832:A2 28.488 
*END

*D_NET *458 0.000246235
*CONN
*I *2830:A3 I *D gf180mcu_fd_sc_mcu7t5v0__nor3_1
*I *2829:ZN O *D gf180mcu_fd_sc_mcu7t5v0__nand2_1
*CAP
1 *2830:A3 5.9692e-05
2 *2829:ZN 5.9692e-05
3 *2830:A3 *2645:A1 4.56408e-05
4 *2830:A3 *3374:I 8.12105e-05
*RES
1 *2829:ZN *2830:A3 9.532 
*END

*D_NET *459 0.00282493
*CONN
*I *2831:A4 I *D gf180mcu_fd_sc_mcu7t5v0__nand4_1
*I *2830:ZN O *D gf180mcu_fd_sc_mcu7t5v0__nor3_1
*CAP
1 *2831:A4 0.00025892
2 *2830:ZN 0.00025892
3 *2831:A4 *2642:A1 0
4 *2831:A4 *2836:C 0.00059252
5 *2831:A4 *788:20 0.00112529
6 *2831:A4 *880:21 0.000506345
7 *206:10 *2831:A4 8.29357e-05
*RES
1 *2830:ZN *2831:A4 22.788 
*END

*D_NET *460 0.000273277
*CONN
*I *2832:B I *D gf180mcu_fd_sc_mcu7t5v0__aoi21_1
*I *2831:ZN O *D gf180mcu_fd_sc_mcu7t5v0__nand4_1
*CAP
1 *2832:B 0.000136639
2 *2831:ZN 0.000136639
*RES
1 *2831:ZN *2832:B 9.836 
*END

*D_NET *461 0.00609532
*CONN
*I *2836:C I *D gf180mcu_fd_sc_mcu7t5v0__aoi211_1
*I *2832:ZN O *D gf180mcu_fd_sc_mcu7t5v0__aoi21_1
*CAP
1 *2836:C 0.00103841
2 *2832:ZN 0.00103841
3 *2836:C *2834:A2 0.000293456
4 *2836:C *2836:B 0
5 *2836:C *2923:A1 1.22507e-05
6 *2836:C *3297:I 0.000145953
7 *2836:C *471:20 0.000291887
8 *2836:C *471:24 0.00169114
9 *2836:C *788:20 0.000271421
10 *2836:C *880:21 0.000673596
11 *2836:C *882:25 4.6268e-05
12 *2831:A4 *2836:C 0.00059252
*RES
1 *2832:ZN *2836:C 30.54 
*END

*D_NET *462 0.00210222
*CONN
*I *2836:B I *D gf180mcu_fd_sc_mcu7t5v0__aoi211_1
*I *2833:Z O *D gf180mcu_fd_sc_mcu7t5v0__or4_1
*CAP
1 *2836:B 0.0005889
2 *2833:Z 0.0005889
3 *2836:B *2651:A1 0.000119798
4 *2836:B *2660:A1 3.7437e-05
5 *2836:B *2833:A4 0.00022677
6 *2836:B *3317:I 6.5393e-05
7 *2836:B *685:10 0.000208599
8 *2836:B *759:58 0.000266424
9 *2836:B *759:64 0
10 *2836:C *2836:B 0
*RES
1 *2833:Z *2836:B 23.472 
*END

*D_NET *463 0.000524688
*CONN
*I *2835:I I *D gf180mcu_fd_sc_mcu7t5v0__clkinv_1
*I *2834:ZN O *D gf180mcu_fd_sc_mcu7t5v0__aoi21_1
*CAP
1 *2835:I 0.000189344
2 *2834:ZN 0.000189344
3 *2835:I *2836:A2 4.92131e-05
4 *2835:I *3365:I 7.37283e-05
5 *2835:I *753:21 5.76749e-06
6 *2835:I *881:49 1.72912e-05
*RES
1 *2834:ZN *2835:I 10.444 
*END

*D_NET *464 0.00045453
*CONN
*I *2836:A2 I *D gf180mcu_fd_sc_mcu7t5v0__aoi211_1
*I *2835:ZN O *D gf180mcu_fd_sc_mcu7t5v0__clkinv_1
*CAP
1 *2836:A2 0.000172818
2 *2835:ZN 0.000172818
3 *2836:A2 *3365:I 0
4 *2836:A2 *753:21 5.9681e-05
5 *2835:I *2836:A2 4.92131e-05
*RES
1 *2835:ZN *2836:A2 10.216 
*END

*D_NET *465 0.00458388
*CONN
*I *2837:I I *D gf180mcu_fd_sc_mcu7t5v0__clkinv_1
*I *2841:A3 I *D gf180mcu_fd_sc_mcu7t5v0__and4_1
*I *2836:ZN O *D gf180mcu_fd_sc_mcu7t5v0__aoi211_1
*CAP
1 *2837:I 0
2 *2841:A3 6.62092e-05
3 *2836:ZN 0.00045117
4 *465:12 0.000517379
5 *2841:A3 *2839:A1 0.00020108
6 *2841:A3 *3015:C2 0.000189138
7 *465:12 *3015:C2 8.42896e-05
8 *465:12 *3297:I 0.000385032
9 *465:12 *471:20 0.00177245
10 *465:12 *680:228 0.000181554
11 *2661:A2 *2841:A3 0.000105307
12 *2661:A2 *465:12 0.000611026
13 *2934:A2 *2841:A3 1.5015e-05
14 *452:8 *2841:A3 4.22854e-06
*RES
1 *2836:ZN *465:12 11.188 
2 *465:12 *2841:A3 5.64 
3 *465:12 *2837:I 4.5 
*END

*D_NET *466 0.0017726
*CONN
*I *2839:A1 I *D gf180mcu_fd_sc_mcu7t5v0__oai211_1
*I *2837:ZN O *D gf180mcu_fd_sc_mcu7t5v0__clkinv_1
*CAP
1 *2839:A1 0.000375798
2 *2837:ZN 0.000375798
3 *2839:A1 *2653:A1 0.00010639
4 *2839:A1 *2841:A1 5.22519e-05
5 *2839:A1 *2934:A1 4.58601e-06
6 *2839:A1 *2934:B1 0.000125433
7 *2839:A1 *702:65 2.6126e-05
8 *2661:A2 *2839:A1 1.85312e-05
9 *2839:C *2839:A1 0.00037834
10 *2841:A3 *2839:A1 0.00020108
11 *2933:A1 *2839:A1 7.2647e-05
12 *2934:A2 *2839:A1 0
13 *452:8 *2839:A1 3.56179e-05
*RES
1 *2837:ZN *2839:A1 21.724 
*END

*D_NET *467 0.0139662
*CONN
*I *2839:A2 I *D gf180mcu_fd_sc_mcu7t5v0__oai211_1
*I *2841:A4 I *D gf180mcu_fd_sc_mcu7t5v0__and4_1
*I *2838:ZN O *D gf180mcu_fd_sc_mcu7t5v0__nand2_1
*CAP
1 *2839:A2 0.000174415
2 *2841:A4 0.000109707
3 *2838:ZN 0.00141932
4 *467:36 0.0013207
5 *467:30 0.0024559
6 *2839:A2 *2935:A2 0.000199473
7 *2839:A2 *469:22 1.11891e-05
8 *2839:A2 *536:12 0
9 *2841:A4 *2485:I 6.35733e-05
10 *2841:A4 *3015:C2 0.000536039
11 *2841:A4 *707:16 7.83779e-05
12 *467:30 *3002:A1 8.92063e-06
13 *467:30 *3002:A2 0.000295669
14 *467:30 *3004:A1 0.000415593
15 *467:30 *3005:B2 0
16 *467:30 *3011:B2 0.000439917
17 *467:30 *3109:A2 1.22367e-05
18 *467:30 *3112:A2 9.88479e-05
19 *467:30 *3259:CLK 0.00032883
20 *467:30 *3277:I 0.000119152
21 *467:30 *3290:I 9.12619e-05
22 *467:30 *3291:I 0.000108027
23 *467:30 *3368:I 0.000442477
24 *467:30 *3369:I 0.000212199
25 *467:30 *680:120 9.82987e-06
26 *467:30 *695:10 4.47565e-05
27 *467:30 *695:16 6.54978e-05
28 *467:30 *696:6 1.4689e-05
29 *467:30 *696:86 6.94603e-05
30 *467:30 *800:59 3.36949e-05
31 *467:30 *817:10 0.000202974
32 *467:36 *2935:A2 0.000269848
33 *467:36 *3015:C2 2.57058e-06
34 *467:36 *3229:CLK 0.000512859
35 *467:36 *3291:I 0.00026552
36 *467:36 *680:31 0.000178091
37 *467:36 *696:86 0.000115207
38 *467:36 *696:93 0.000696561
39 *467:36 *707:16 0.000150768
40 *2935:C *2839:A2 0.00044959
41 *2935:C *467:36 2.47727e-05
42 *3110:A1 *467:30 1.26327e-05
43 *3267:D *467:30 9.88736e-06
44 *212:29 *467:30 1.5015e-05
45 *212:58 *467:30 0
46 *242:16 *2841:A4 0
47 *242:16 *467:36 0.00101397
48 *242:48 *467:36 0.000866163
*RES
1 *2838:ZN *467:30 44.496 
2 *467:30 *467:36 17.572 
3 *467:36 *2841:A4 10.444 
4 *467:36 *2839:A2 10.9 
*END

*D_NET *468 0.00110996
*CONN
*I *2840:A2 I *D gf180mcu_fd_sc_mcu7t5v0__and2_1
*I *2932:A2 I *D gf180mcu_fd_sc_mcu7t5v0__nand2_1
*I *2839:ZN O *D gf180mcu_fd_sc_mcu7t5v0__oai211_1
*CAP
1 *2840:A2 5.46951e-05
2 *2932:A2 8.94784e-05
3 *2839:ZN 8.90047e-05
4 *468:8 0.000233178
5 *2840:A2 *3229:CLK 9.26705e-05
6 *2932:A2 *2934:A1 4.06693e-05
7 *2932:A2 *3229:CLK 0.000119883
8 *2932:A2 *469:22 6.00599e-05
9 *468:8 *2934:A1 4.26303e-05
10 *468:8 *3229:CLK 3.30388e-05
11 *468:8 *469:22 0.000157209
12 *468:8 *702:65 1.5015e-05
13 *2932:A1 *2932:A2 8.24292e-05
*RES
1 *2839:ZN *468:8 5.412 
2 *468:8 *2932:A2 5.792 
3 *468:8 *2840:A2 5.108 
*END

*D_NET *469 0.0149573
*CONN
*I *2925:A3 I *D gf180mcu_fd_sc_mcu7t5v0__and3_1
*I *2928:A3 I *D gf180mcu_fd_sc_mcu7t5v0__and3_1
*I *2927:A3 I *D gf180mcu_fd_sc_mcu7t5v0__and3_1
*I *2926:A3 I *D gf180mcu_fd_sc_mcu7t5v0__and3_1
*I *3296:I I *D gf180mcu_fd_sc_mcu7t5v0__dlyb_1
*I *2840:Z O *D gf180mcu_fd_sc_mcu7t5v0__and2_1
*CAP
1 *2925:A3 0
2 *2928:A3 0.000286059
3 *2927:A3 0.000466363
4 *2926:A3 0
5 *3296:I 0
6 *2840:Z 0.0014359
7 *469:69 0.000449334
8 *469:47 0.000975936
9 *469:32 0.00107458
10 *469:22 0.00216418
11 *2927:A3 *2926:A1 0
12 *2927:A3 *2926:A2 0.000154451
13 *2927:A3 *2927:A2 0.000379283
14 *2927:A3 *3226:CLK 0
15 *2927:A3 *3227:CLK 0.000144303
16 *2928:A3 *2660:A1 2.96621e-05
17 *2928:A3 *2833:A1 0.000137466
18 *2928:A3 *2833:A4 0.000103763
19 *2928:A3 *2925:A2 5.82583e-05
20 *2928:A3 *3317:I 0.000260436
21 *2928:A3 *791:45 0.000751793
22 *2928:A3 *888:12 1.97747e-05
23 *469:22 *2651:A1 5.27846e-05
24 *469:22 *2653:A1 6.40724e-05
25 *469:22 *2823:A1 2.11447e-05
26 *469:22 *2929:A2 3.73627e-05
27 *469:22 *2931:C 0.000555095
28 *469:22 *2934:A1 0.000272327
29 *469:22 *3040:C2 0
30 *469:22 *3160:CLK 0
31 *469:22 *3229:CLK 0.000649313
32 *469:22 *3280:I 0.000240139
33 *469:22 *3297:I 0
34 *469:22 *702:65 0.000104422
35 *469:22 *759:64 0.000141897
36 *469:22 *912:12 9.65141e-05
37 *469:32 *2923:B 0.000369754
38 *469:32 *2924:A1 1.01183e-05
39 *469:32 *2924:B 0.000191454
40 *469:32 *2924:C 0
41 *469:32 *3280:I 4.09395e-06
42 *469:32 *3297:I 3.50658e-05
43 *469:32 *685:10 0.000433369
44 *469:47 *2921:B 2.28663e-05
45 *469:47 *2924:A1 0
46 *469:47 *2924:A2 3.52909e-05
47 *469:47 *2924:B 2.23385e-05
48 *469:47 *3227:CLK 1.3758e-05
49 *469:47 *3297:I 0.000105022
50 *469:47 *685:36 0.000133171
51 *469:47 *789:10 0.000336682
52 *469:47 *789:12 9.09842e-05
53 *469:69 *2651:A1 1.20889e-05
54 *469:69 *2833:A4 2.93981e-05
55 *469:69 *2925:A2 8.9355e-05
56 *469:69 *685:10 0.000409317
57 *2653:A2 *469:22 5.88975e-06
58 *2662:A2 *469:22 0.000255714
59 *2662:A3 *469:22 0
60 *2822:A2 *469:22 1.91917e-06
61 *2839:A2 *469:22 1.11891e-05
62 *2839:C *469:22 8.27561e-05
63 *2929:A1 *469:22 4.72409e-05
64 *2932:A1 *469:22 0
65 *2932:A2 *469:22 6.00599e-05
66 *2935:C *469:22 0.000249619
67 *3160:D *469:22 0.000255714
68 *3225:D *2928:A3 8.9355e-05
69 *3226:D *2927:A3 0
70 *3226:D *469:47 0.000269857
71 *3227:D *2927:A3 0
72 *3316:I *469:22 0
73 *452:8 *469:22 0
74 *468:8 *469:22 0.000157209
*RES
1 *2840:Z *469:22 30.768 
2 *469:22 *469:32 9.212 
3 *469:32 *3296:I 4.5 
4 *469:32 *469:47 13.636 
5 *469:47 *2926:A3 4.5 
6 *469:47 *2927:A3 17.376 
7 *469:22 *469:69 1.596 
8 *469:69 *2928:A3 12.724 
9 *469:69 *2925:A3 9 
*END

*D_NET *470 0.0156229
*CONN
*I *3298:I I *D gf180mcu_fd_sc_mcu7t5v0__dlyb_1
*I *3297:I I *D gf180mcu_fd_sc_mcu7t5v0__dlyb_1
*I *2841:Z O *D gf180mcu_fd_sc_mcu7t5v0__and4_1
*CAP
1 *3298:I 3.28034e-05
2 *3297:I 0.00154804
3 *2841:Z 0.000379943
4 *470:14 0.00196079
5 *3297:I *2894:B1 0
6 *3297:I *2896:A2 0.000144611
7 *3297:I *2902:I 0.00088679
8 *3297:I *2905:A1 0.00023179
9 *3297:I *2909:A1 0.00063272
10 *3297:I *2915:A2 0.000369843
11 *3297:I *2917:A2 0.000174107
12 *3297:I *2921:A2 0.00125664
13 *3297:I *2923:A2 0.000137785
14 *3297:I *2924:B 0.000956738
15 *3297:I *3040:C2 0.00016061
16 *3297:I *3217:CLK 0.000184382
17 *3297:I *3280:I 9.40099e-06
18 *3297:I *471:20 2.37745e-05
19 *3297:I *680:228 0.000174226
20 *3297:I *685:36 0.000147305
21 *3297:I *685:59 0.000301794
22 *3297:I *751:101 1.24993e-05
23 *3297:I *753:31 9.10106e-05
24 *3297:I *753:37 0
25 *3297:I *789:12 0.000707424
26 *3297:I *789:18 0.0022112
27 *3297:I *876:25 7.71175e-06
28 *3297:I *879:10 7.11539e-05
29 *3297:I *879:25 4.02664e-05
30 *3297:I *883:12 8.06718e-06
31 *470:14 *2653:A1 0.000228407
32 *470:14 *2929:A2 5.23626e-05
33 *470:14 *3015:C2 7.30524e-05
34 *470:14 *3040:C2 3.73627e-05
35 *470:14 *3279:I 0
36 *470:14 *471:8 5.07443e-05
37 *2661:A2 *3297:I 0.000275427
38 *2661:A2 *3298:I 0
39 *2661:A2 *470:14 0.000360235
40 *2662:A3 *3297:I 0.000768034
41 *2836:C *3297:I 0.000145953
42 *3223:D *3297:I 0.000134928
43 *10:16 *3297:I 6.10752e-05
44 *242:16 *470:14 4.68103e-05
45 *465:12 *3297:I 0.000385032
46 *469:22 *3297:I 0
47 *469:32 *3297:I 3.50658e-05
48 *469:47 *3297:I 0.000105022
*RES
1 *2841:Z *470:14 16.92 
2 *470:14 *3297:I 37.896 
3 *470:14 *3298:I 4.728 
*END

*D_NET *471 0.024116
*CONN
*I *2929:A2 I *D gf180mcu_fd_sc_mcu7t5v0__aoi21_1
*I *2920:A1 I *D gf180mcu_fd_sc_mcu7t5v0__nor2_1
*I *2884:A1 I *D gf180mcu_fd_sc_mcu7t5v0__nor2_1
*I *2844:A2 I *D gf180mcu_fd_sc_mcu7t5v0__aoi21_1
*I *2842:ZN O *D gf180mcu_fd_sc_mcu7t5v0__clkinv_1
*CAP
1 *2929:A2 0.00024905
2 *2920:A1 1.00214e-05
3 *2884:A1 0.00025234
4 *2844:A2 0.00177162
5 *2842:ZN 7.94851e-05
6 *471:24 0.00396984
7 *471:20 0.00242949
8 *471:8 0.000802127
9 *2844:A2 *2491:I 0
10 *2844:A2 *2616:A1 0.000386421
11 *2844:A2 *2619:A1 9.02111e-05
12 *2844:A2 *2844:B 0.000276717
13 *2844:A2 *3140:CLK 3.02222e-05
14 *2844:A2 *3143:CLK 0.000486169
15 *2844:A2 *3148:CLK 9.77285e-05
16 *2844:A2 *3295:I 0.000129437
17 *2844:A2 *680:47 3.24054e-05
18 *2844:A2 *680:49 7.64758e-05
19 *2844:A2 *693:14 1.75634e-05
20 *2844:A2 *693:18 9.17565e-06
21 *2844:A2 *694:39 0.000324704
22 *2844:A2 *694:89 1.91466e-05
23 *2844:A2 *750:18 0
24 *2844:A2 *764:44 8.05744e-05
25 *2844:A2 *764:78 0.000890637
26 *2844:A2 *764:89 0.000161672
27 *2844:A2 *799:105 0.000173033
28 *2884:A1 *2626:A1 7.50749e-05
29 *2884:A1 *2885:B 0.00020588
30 *2884:A1 *2886:B 6.68164e-05
31 *2884:A1 *2886:C 2.19722e-05
32 *2884:A1 *2887:A2 6.73926e-05
33 *2884:A1 *2888:A2 3.62081e-05
34 *2884:A1 *3295:I 1.92104e-05
35 *2884:A1 *694:89 6.86356e-05
36 *2884:A1 *788:30 1.12959e-05
37 *2920:A1 *753:21 7.88136e-05
38 *2920:A1 *883:12 7.88136e-05
39 *2929:A2 *2653:A1 4.56746e-05
40 *2929:A2 *2823:A1 2.77603e-05
41 *2929:A2 *3031:C2 0.000113193
42 *2929:A2 *3040:C2 0.000442141
43 *471:8 *2653:A1 1.70277e-05
44 *471:8 *3040:C2 0.000387757
45 *471:20 *2923:A1 2.28332e-05
46 *471:20 *3015:C2 0.000813856
47 *471:20 *753:21 0.000130225
48 *471:20 *883:12 0.000655294
49 *471:20 *883:20 0.000147313
50 *471:20 *909:14 5.18896e-05
51 *471:24 *2824:A1 0.000169698
52 *471:24 *2831:A1 0.000588402
53 *471:24 *2831:A3 4.23617e-05
54 *471:24 *2893:A1 0.000479093
55 *471:24 *2913:A2 7.49887e-05
56 *471:24 *2923:A1 5.49957e-05
57 *471:24 *3218:CLK 2.00139e-05
58 *471:24 *694:95 0.000187772
59 *471:24 *788:12 0.000232955
60 *471:24 *788:20 3.749e-05
61 *471:24 *788:30 0.000380056
62 *471:24 *877:10 0.000167195
63 *471:24 *879:52 0.000110826
64 *2617:A3 *2844:A2 0.000316011
65 *2620:A2 *2844:A2 0.000226811
66 *2625:B *2844:A2 2.6771e-05
67 *2836:C *471:20 0.000291887
68 *2836:C *471:24 0.00169114
69 *3150:D *2844:A2 0.000298074
70 *3163:D *471:20 0.000246194
71 *3215:D *2844:A2 7.93006e-05
72 *3215:D *2884:A1 2.59625e-05
73 *3297:I *471:20 2.37745e-05
74 *465:12 *471:20 0.00177245
75 *469:22 *2929:A2 3.73627e-05
76 *470:14 *2929:A2 5.23626e-05
77 *470:14 *471:8 5.07443e-05
*RES
1 *2842:ZN *471:8 9.988 
2 *471:8 *471:20 17.056 
3 *471:20 *471:24 22.056 
4 *471:24 *2844:A2 30.372 
5 *471:24 *2884:A1 7.464 
6 *471:20 *2920:A1 9.228 
7 *471:8 *2929:A2 11.736 
*END

*D_NET *472 0.00039428
*CONN
*I *2844:B I *D gf180mcu_fd_sc_mcu7t5v0__aoi21_1
*I *2843:ZN O *D gf180mcu_fd_sc_mcu7t5v0__oai21_1
*CAP
1 *2844:B 3.26081e-05
2 *2843:ZN 3.26081e-05
3 *2844:B *680:49 5.23469e-05
4 *2844:A2 *2844:B 0.000276717
*RES
1 *2843:ZN *2844:B 18.684 
*END

*D_NET *473 0.000404368
*CONN
*I *2850:A2 I *D gf180mcu_fd_sc_mcu7t5v0__xnor2_1
*I *2845:ZN O *D gf180mcu_fd_sc_mcu7t5v0__nand2_1
*CAP
1 *2850:A2 0.000192384
2 *2845:ZN 0.000192384
3 *2850:A2 *2845:A2 4.58601e-06
4 *2850:A2 *2851:B2 1.5015e-05
5 *2850:A2 *873:26 0
*RES
1 *2845:ZN *2850:A2 9.988 
*END

*D_NET *474 0.00215834
*CONN
*I *2847:B2 I *D gf180mcu_fd_sc_mcu7t5v0__aoi22_1
*I *2846:Z O *D gf180mcu_fd_sc_mcu7t5v0__xor2_1
*CAP
1 *2847:B2 0.00048556
2 *2846:Z 0.00048556
3 *2847:B2 *2847:A1 6.92047e-06
4 *2847:B2 *2848:A2 0.000103272
5 *2847:B2 *2851:B2 0
6 *2847:B2 *2854:A2 7.53241e-05
7 *2847:B2 *788:56 0.000486169
8 *2847:B2 *884:77 0.000368389
9 *2847:B2 *890:21 3.78408e-05
10 *3208:D *2847:B2 0.000109303
*RES
1 *2846:Z *2847:B2 13.94 
*END

*D_NET *475 0.00311349
*CONN
*I *2848:A2 I *D gf180mcu_fd_sc_mcu7t5v0__nor2_1
*I *2847:ZN O *D gf180mcu_fd_sc_mcu7t5v0__aoi22_1
*CAP
1 *2848:A2 0.000645986
2 *2847:ZN 0.000645986
3 *2848:A2 *2847:A1 0.000358477
4 *2848:A2 *2848:A1 0.000171927
5 *2848:A2 *2851:B2 7.8928e-05
6 *2848:A2 *3208:CLK 3.17732e-05
7 *2848:A2 *692:10 0
8 *2848:A2 *692:12 0
9 *2848:A2 *884:10 0.000244154
10 *2848:A2 *884:77 0.000770399
11 *2848:A2 *889:10 6.25877e-05
12 *2847:B2 *2848:A2 0.000103272
*RES
1 *2847:ZN *2848:A2 23.7 
*END

*D_NET *476 0.00138304
*CONN
*I *2854:A2 I *D gf180mcu_fd_sc_mcu7t5v0__xnor2_1
*I *2849:ZN O *D gf180mcu_fd_sc_mcu7t5v0__nand3_1
*CAP
1 *2854:A2 0.000113633
2 *2849:ZN 0.000113633
3 *2854:A2 *2849:A1 0.000300828
4 *2854:A2 *692:10 4.725e-05
5 *2854:A2 *884:18 0.000346011
6 *2854:A2 *884:28 0.000300828
7 *2854:A2 *890:21 8.55327e-05
8 *2847:B2 *2854:A2 7.53241e-05
*RES
1 *2849:ZN *2854:A2 11.052 
*END

*D_NET *477 0.00202156
*CONN
*I *2851:B2 I *D gf180mcu_fd_sc_mcu7t5v0__aoi22_1
*I *2850:ZN O *D gf180mcu_fd_sc_mcu7t5v0__xnor2_1
*CAP
1 *2851:B2 0.000305366
2 *2850:ZN 0.000305366
3 *2851:B2 *2848:A1 0
4 *2851:B2 *2851:A1 0.000376901
5 *2851:B2 *3208:CLK 6.73834e-05
6 *2851:B2 *884:10 8.55242e-05
7 *2851:B2 *889:10 0.000787074
8 *2847:B2 *2851:B2 0
9 *2848:A2 *2851:B2 7.8928e-05
10 *2850:A2 *2851:B2 1.5015e-05
*RES
1 *2850:ZN *2851:B2 12.496 
*END

*D_NET *478 0.000664979
*CONN
*I *2852:A2 I *D gf180mcu_fd_sc_mcu7t5v0__nor2_1
*I *2851:ZN O *D gf180mcu_fd_sc_mcu7t5v0__aoi22_1
*CAP
1 *2852:A2 0.000136421
2 *2851:ZN 0.000136421
3 *2852:A2 *2851:A2 0
4 *2852:A2 *2852:A1 8.8425e-05
5 *2852:A2 *788:60 0.000303713
*RES
1 *2851:ZN *2852:A2 18.988 
*END

*D_NET *479 0.00539441
*CONN
*I *2861:A3 I *D gf180mcu_fd_sc_mcu7t5v0__nand3_1
*I *2865:A4 I *D gf180mcu_fd_sc_mcu7t5v0__and4_1
*I *2857:A2 I *D gf180mcu_fd_sc_mcu7t5v0__nand2_1
*I *2858:A2 I *D gf180mcu_fd_sc_mcu7t5v0__xor2_1
*I *2853:Z O *D gf180mcu_fd_sc_mcu7t5v0__and4_1
*CAP
1 *2861:A3 9.46052e-05
2 *2865:A4 0
3 *2857:A2 0
4 *2858:A2 9.96754e-06
5 *2853:Z 0.000700545
6 *479:40 0.000210294
7 *479:29 0.000214099
8 *479:20 0.000808923
9 *2858:A2 *752:38 5.94067e-05
10 *2861:A3 *891:57 0.000483042
11 *2861:A3 *893:10 9.81155e-05
12 *2861:A3 *893:45 2.62889e-05
13 *479:20 *2855:A1 5.23685e-05
14 *479:20 *2859:A2 0.000447767
15 *479:20 *2859:B2 0
16 *479:20 *2862:A2 0
17 *479:20 *2864:A2 0.000190102
18 *479:20 *752:38 0.000673025
19 *479:20 *752:53 0.000236736
20 *479:20 *788:56 6.97365e-05
21 *479:20 *890:21 0.000193942
22 *479:29 *2867:B2 0
23 *479:40 *2865:A1 7.45328e-07
24 *479:40 *2867:A1 7.52312e-05
25 *479:40 *891:35 8.84331e-05
26 *479:40 *891:44 0.000467288
27 *479:40 *891:57 0.00014967
28 *479:40 *893:10 4.40785e-05
*RES
1 *2853:Z *479:20 20.492 
2 *479:20 *2858:A2 4.728 
3 *479:20 *479:29 0.684 
4 *479:29 *2857:A2 4.5 
5 *479:29 *479:40 6.324 
6 *479:40 *2865:A4 9 
7 *479:40 *2861:A3 10.596 
*END

*D_NET *480 0.0018377
*CONN
*I *2855:B2 I *D gf180mcu_fd_sc_mcu7t5v0__aoi22_1
*I *2854:ZN O *D gf180mcu_fd_sc_mcu7t5v0__xnor2_1
*CAP
1 *2855:B2 0.000217911
2 *2854:ZN 0.000217911
3 *2855:B2 *2853:A1 7.88344e-05
4 *2855:B2 *2853:A2 2.74753e-05
5 *2855:B2 *2853:A4 0.000751411
6 *2855:B2 *2855:A1 8.02751e-06
7 *2855:B2 *2856:A2 5.5493e-05
8 *2855:B2 *692:10 0.000441055
9 *2855:B2 *890:21 3.9584e-05
*RES
1 *2854:ZN *2855:B2 11.964 
*END

*D_NET *481 0.000738031
*CONN
*I *2856:A2 I *D gf180mcu_fd_sc_mcu7t5v0__nor2_1
*I *2855:ZN O *D gf180mcu_fd_sc_mcu7t5v0__aoi22_1
*CAP
1 *2856:A2 0.00011352
2 *2855:ZN 0.00011352
3 *2856:A2 *2853:A1 1.81333e-05
4 *2856:A2 *2853:A3 0.000134113
5 *2856:A2 *2855:A1 8.55327e-05
6 *2856:A2 *750:22 3.16765e-06
7 *2856:A2 *750:24 2.77542e-05
8 *2856:A2 *890:21 0.000186796
9 *2855:B2 *2856:A2 5.5493e-05
*RES
1 *2855:ZN *2856:A2 19.368 
*END

*D_NET *482 0.000684868
*CONN
*I *2862:A2 I *D gf180mcu_fd_sc_mcu7t5v0__xor2_1
*I *2857:ZN O *D gf180mcu_fd_sc_mcu7t5v0__nand2_1
*CAP
1 *2862:A2 0.000277745
2 *2857:ZN 0.000277745
3 *2862:A2 *2863:B2 4.71447e-05
4 *2862:A2 *2865:A2 8.22324e-05
5 *479:20 *2862:A2 0
*RES
1 *2857:ZN *2862:A2 10.976 
*END

*D_NET *483 0.00160308
*CONN
*I *2859:B2 I *D gf180mcu_fd_sc_mcu7t5v0__aoi22_1
*I *2858:Z O *D gf180mcu_fd_sc_mcu7t5v0__xor2_1
*CAP
1 *2859:B2 0.000357752
2 *2858:Z 0.000357752
3 *2859:B2 *2859:A1 8.69862e-05
4 *2859:B2 *2860:A2 8.69862e-05
5 *2859:B2 *2864:A2 3.16765e-06
6 *2859:B2 *2867:A2 0.000235476
7 *2859:B2 *752:38 1.33342e-06
8 *2859:B2 *788:40 0.000291377
9 *2859:B2 *788:54 0.000137776
10 *2859:B2 *891:12 1.02655e-05
11 *2859:B2 *891:31 3.4212e-05
12 *479:20 *2859:B2 0
*RES
1 *2858:Z *2859:B2 20.888 
*END

*D_NET *484 0.00155878
*CONN
*I *2860:A2 I *D gf180mcu_fd_sc_mcu7t5v0__nor2_1
*I *2859:ZN O *D gf180mcu_fd_sc_mcu7t5v0__aoi22_1
*CAP
1 *2860:A2 0.000423287
2 *2859:ZN 0.000423287
3 *2860:A2 *2859:A1 7.3084e-05
4 *2860:A2 *2867:A2 0.000148766
5 *2860:A2 *692:72 2.76941e-05
6 *2860:A2 *891:12 0.00037568
7 *2859:B2 *2860:A2 8.69862e-05
*RES
1 *2859:ZN *2860:A2 20.964 
*END

*D_NET *485 0.00118969
*CONN
*I *2866:A2 I *D gf180mcu_fd_sc_mcu7t5v0__xnor2_1
*I *2861:ZN O *D gf180mcu_fd_sc_mcu7t5v0__nand3_1
*CAP
1 *2866:A2 0.000230111
2 *2861:ZN 0.000230111
3 *2866:A2 *488:6 0.000245488
4 *2866:A2 *893:8 1.3758e-05
5 *2866:A2 *893:10 0.00047022
*RES
1 *2861:ZN *2866:A2 19.976 
*END

*D_NET *486 0.000451801
*CONN
*I *2863:B2 I *D gf180mcu_fd_sc_mcu7t5v0__aoi22_1
*I *2862:Z O *D gf180mcu_fd_sc_mcu7t5v0__xor2_1
*CAP
1 *2863:B2 7.9773e-05
2 *2862:Z 7.9773e-05
3 *2863:B2 *2863:A1 1.76898e-05
4 *2863:B2 *2864:A2 0.000141888
5 *2863:B2 *2865:A2 8.55327e-05
6 *2862:A2 *2863:B2 4.71447e-05
*RES
1 *2862:Z *2863:B2 9.988 
*END

*D_NET *487 0.00204493
*CONN
*I *2864:A2 I *D gf180mcu_fd_sc_mcu7t5v0__nor2_1
*I *2863:ZN O *D gf180mcu_fd_sc_mcu7t5v0__aoi22_1
*CAP
1 *2864:A2 0.000498803
2 *2863:ZN 0.000498803
3 *2864:A2 *2859:A2 9.26705e-05
4 *2864:A2 *2863:A1 2.6126e-05
5 *2864:A2 *750:78 0.000486749
6 *2859:B2 *2864:A2 3.16765e-06
7 *2862:A1 *2864:A2 0.000106621
8 *2863:B2 *2864:A2 0.000141888
9 *479:20 *2864:A2 0.000190102
*RES
1 *2863:ZN *2864:A2 22.788 
*END

*D_NET *488 0.00284961
*CONN
*I *2872:A2 I *D gf180mcu_fd_sc_mcu7t5v0__oai21_1
*I *2869:A2 I *D gf180mcu_fd_sc_mcu7t5v0__and2_1
*I *2865:Z O *D gf180mcu_fd_sc_mcu7t5v0__and4_1
*CAP
1 *2872:A2 0.0001947
2 *2869:A2 0.000151853
3 *2865:Z 0.000131323
4 *488:6 0.000477876
5 *2869:A2 *750:95 0.000145599
6 *2869:A2 *752:24 0
7 *2869:A2 *788:34 0.000358048
8 *2872:A2 *2869:A1 0
9 *2872:A2 *3213:CLK 0.000275755
10 *2872:A2 *893:8 2.9378e-06
11 *488:6 *3145:CLK 0.000694178
12 *488:6 *3213:CLK 8.55327e-05
13 *488:6 *893:8 8.63231e-05
14 *2866:A2 *488:6 0.000245488
*RES
1 *2865:Z *488:6 6.552 
2 *488:6 *2869:A2 15.552 
3 *488:6 *2872:A2 6.096 
*END

*D_NET *489 0.000163493
*CONN
*I *2867:B2 I *D gf180mcu_fd_sc_mcu7t5v0__aoi22_1
*I *2866:ZN O *D gf180mcu_fd_sc_mcu7t5v0__xnor2_1
*CAP
1 *2867:B2 8.17466e-05
2 *2866:ZN 8.17466e-05
3 *479:29 *2867:B2 0
*RES
1 *2866:ZN *2867:B2 9.532 
*END

*D_NET *490 0.0014625
*CONN
*I *2868:A2 I *D gf180mcu_fd_sc_mcu7t5v0__nor2_1
*I *2867:ZN O *D gf180mcu_fd_sc_mcu7t5v0__aoi22_1
*CAP
1 *2868:A2 0.00031118
2 *2867:ZN 0.00031118
3 *2868:A2 *692:72 7.66741e-05
4 *2868:A2 *692:78 3.2964e-05
5 *2868:A2 *752:34 0.000700693
6 *2868:A2 *752:38 2.98136e-05
*RES
1 *2867:ZN *2868:A2 20.736 
*END

*D_NET *491 0.00451583
*CONN
*I *2883:A4 I *D gf180mcu_fd_sc_mcu7t5v0__and4_1
*I *2870:I I *D gf180mcu_fd_sc_mcu7t5v0__clkinv_1
*I *2874:A2 I *D gf180mcu_fd_sc_mcu7t5v0__and2_1
*I *2877:A2 I *D gf180mcu_fd_sc_mcu7t5v0__oai21_1
*I *2869:Z O *D gf180mcu_fd_sc_mcu7t5v0__and2_1
*CAP
1 *2883:A4 0.000141025
2 *2870:I 2.50935e-05
3 *2874:A2 0.000175015
4 *2877:A2 0
5 *2869:Z 0.000171009
6 *491:30 0.000199889
7 *491:19 0.000290766
8 *491:10 0.00025299
9 *2870:I *2871:B2 7.83779e-05
10 *2870:I *694:47 1.3758e-05
11 *2874:A2 *2871:B2 3.73627e-05
12 *2874:A2 *2877:B 7.83779e-05
13 *2874:A2 *3214:CLK 9.81111e-06
14 *2874:A2 *694:47 2.40328e-06
15 *2874:A2 *895:10 7.2087e-05
16 *2883:A4 *2843:B 3.28428e-06
17 *2883:A4 *2886:A2 0.000292783
18 *2883:A4 *2887:A4 8.50198e-05
19 *2883:A4 *2888:A1 0.000816439
20 *2883:A4 *895:44 3.33979e-05
21 *2883:A4 *896:20 0.000202899
22 *2883:A4 *896:26 0.000317948
23 *2883:A4 *896:55 6.96334e-06
24 *491:10 *2869:A1 3.36949e-05
25 *491:10 *2872:B 1.47007e-05
26 *491:10 *3146:CLK 0.000266206
27 *491:10 *694:53 0.000102192
28 *491:10 *750:95 1.52768e-05
29 *491:10 *750:106 1.23313e-05
30 *491:10 *752:20 0.000246194
31 *491:10 *894:40 8.30464e-05
32 *491:19 *2871:B2 7.11472e-05
33 *491:19 *694:53 0.000181256
34 *491:19 *894:40 1.46914e-05
35 *491:30 *2871:B2 2.65777e-05
36 *491:30 *2888:A1 8.15645e-05
37 *491:30 *694:53 5.43087e-05
38 *491:30 *895:44 5.94709e-06
*RES
1 *2869:Z *491:10 11.28 
2 *491:10 *2877:A2 9 
3 *491:10 *491:19 0.988 
4 *491:19 *2874:A2 10.14 
5 *491:19 *491:30 0.532 
6 *491:30 *2870:I 9.228 
7 *491:30 *2883:A4 11.888 
*END

*D_NET *492 0.00411887
*CONN
*I *2888:A1 I *D gf180mcu_fd_sc_mcu7t5v0__nor2_1
*I *2871:B2 I *D gf180mcu_fd_sc_mcu7t5v0__aoi22_1
*I *2870:ZN O *D gf180mcu_fd_sc_mcu7t5v0__clkinv_1
*CAP
1 *2888:A1 0.000273471
2 *2871:B2 0.000222566
3 *2870:ZN 0
4 *492:4 0.000496037
5 *2871:B2 *694:47 3.74244e-05
6 *2871:B2 *894:40 0.000269857
7 *2871:B2 *895:14 1.1971e-05
8 *2871:B2 *895:20 8.78761e-05
9 *2871:B2 *895:44 0.000200343
10 *2888:A1 *2886:A2 0.000342519
11 *2888:A1 *2887:A1 0.000177838
12 *2888:A1 *3216:CLK 2.22758e-05
13 *2888:A1 *502:8 0
14 *2888:A1 *694:53 0.000262996
15 *2888:A1 *752:12 0.000294119
16 *2888:A1 *789:123 0.000140539
17 *2888:A1 *874:31 9.45347e-06
18 *2888:A1 *875:21 1.11891e-05
19 *2888:A1 *896:14 0
20 *2888:A1 *896:20 0.00014693
21 *2870:I *2871:B2 7.83779e-05
22 *2874:A2 *2871:B2 3.73627e-05
23 *2883:A4 *2888:A1 0.000816439
24 *491:19 *2871:B2 7.11472e-05
25 *491:30 *2871:B2 2.65777e-05
26 *491:30 *2888:A1 8.15645e-05
*RES
1 *2870:ZN *492:4 4.5 
2 *492:4 *2871:B2 16.084 
3 *492:4 *2888:A1 18.364 
*END

*D_NET *493 0.00126584
*CONN
*I *2873:A1 I *D gf180mcu_fd_sc_mcu7t5v0__nor2_1
*I *2871:ZN O *D gf180mcu_fd_sc_mcu7t5v0__aoi22_1
*CAP
1 *2873:A1 0.000195916
2 *2871:ZN 0.000195916
3 *2873:A1 *2876:A2 0.000147313
4 *2873:A1 *2876:B1 2.21476e-05
5 *2873:A1 *750:106 0.000258524
6 *2873:A1 *752:20 0.000431543
7 *3212:D *2873:A1 1.44832e-05
*RES
1 *2871:ZN *2873:A1 11.432 
*END

*D_NET *494 0.00110469
*CONN
*I *2873:A2 I *D gf180mcu_fd_sc_mcu7t5v0__nor2_1
*I *2872:ZN O *D gf180mcu_fd_sc_mcu7t5v0__oai21_1
*CAP
1 *2873:A2 0.000339922
2 *2872:ZN 0.000339922
3 *2873:A2 *3213:CLK 6.22405e-05
4 *2873:A2 *750:106 0
5 *2873:A2 *894:12 0.000362608
6 *3212:D *2873:A2 0
*RES
1 *2872:ZN *2873:A2 11.584 
*END

*D_NET *495 0.00145575
*CONN
*I *2879:A2 I *D gf180mcu_fd_sc_mcu7t5v0__nand2_1
*I *2881:A2 I *D gf180mcu_fd_sc_mcu7t5v0__oai21_1
*I *2875:I I *D gf180mcu_fd_sc_mcu7t5v0__clkinv_1
*I *2874:Z O *D gf180mcu_fd_sc_mcu7t5v0__and2_1
*CAP
1 *2879:A2 0.000140724
2 *2881:A2 4.69853e-05
3 *2875:I 0
4 *2874:Z 0.000177021
5 *495:21 0.000355343
6 *495:8 0.000344655
7 *2879:A2 *2879:A1 7.24052e-05
8 *2881:A2 *2879:A1 4.90368e-05
9 *495:8 *2876:B2 5.48085e-05
10 *495:8 *2879:A1 0
11 *495:8 *895:6 1.19403e-05
12 *495:8 *896:37 1.62408e-05
13 *495:21 *2878:A1 0
14 *495:21 *895:6 2.9378e-06
15 *10:16 *495:21 0.00018365
*RES
1 *2874:Z *495:8 5.868 
2 *495:8 *2875:I 4.5 
3 *495:8 *495:21 10.368 
4 *495:21 *2881:A2 5.032 
5 *495:21 *2879:A2 5.564 
*END

*D_NET *496 0.000719355
*CONN
*I *2876:B2 I *D gf180mcu_fd_sc_mcu7t5v0__aoi22_1
*I *2875:ZN O *D gf180mcu_fd_sc_mcu7t5v0__clkinv_1
*CAP
1 *2876:B2 0.000178582
2 *2875:ZN 0.000178582
3 *2876:B2 *2876:A1 9.50338e-05
4 *2876:B2 *2878:A2 8.8425e-05
5 *2876:B2 *2880:A2 5.70962e-05
6 *2876:B2 *895:6 6.68265e-05
7 *2876:B2 *896:37 0
8 *10:16 *2876:B2 0
9 *495:8 *2876:B2 5.48085e-05
*RES
1 *2875:ZN *2876:B2 19.672 
*END

*D_NET *497 0.0013112
*CONN
*I *2878:A1 I *D gf180mcu_fd_sc_mcu7t5v0__nor2_1
*I *2876:ZN O *D gf180mcu_fd_sc_mcu7t5v0__aoi22_1
*CAP
1 *2878:A1 0.000450409
2 *2876:ZN 0.000450409
3 *2878:A1 *2876:A1 8.55327e-05
4 *2878:A1 *2876:B1 8.55327e-05
5 *2878:A1 *2878:A2 0.000184101
6 *2878:A1 *895:6 2.22533e-05
7 *10:16 *2878:A1 3.2964e-05
8 *495:21 *2878:A1 0
*RES
1 *2876:ZN *2878:A1 21.344 
*END

*D_NET *498 0.00172907
*CONN
*I *2878:A2 I *D gf180mcu_fd_sc_mcu7t5v0__nor2_1
*I *2877:ZN O *D gf180mcu_fd_sc_mcu7t5v0__oai21_1
*CAP
1 *2878:A2 0.000542486
2 *2877:ZN 0.000542486
3 *2878:A2 *2876:A1 6.13775e-05
4 *2878:A2 *2876:B1 6.46651e-05
5 *2878:A2 *2880:A2 1.04779e-05
6 *2878:A2 *750:106 1.28891e-05
7 *2878:A2 *752:20 2.40654e-06
8 *2878:A2 *895:6 6.95885e-05
9 *2878:A2 *895:10 0.000113695
10 *2876:B2 *2878:A2 8.8425e-05
11 *2878:A1 *2878:A2 0.000184101
12 *3213:D *2878:A2 0
13 *10:16 *2878:A2 3.64733e-05
*RES
1 *2877:ZN *2878:A2 22.028 
*END

*D_NET *499 0.00343497
*CONN
*I *2880:B2 I *D gf180mcu_fd_sc_mcu7t5v0__aoi22_1
*I *2886:A2 I *D gf180mcu_fd_sc_mcu7t5v0__aoi211_1
*I *2879:ZN O *D gf180mcu_fd_sc_mcu7t5v0__nand2_1
*CAP
1 *2880:B2 0
2 *2886:A2 0.000257754
3 *2879:ZN 0.000283412
4 *499:6 0.000541166
5 *2886:A2 *2843:B 3.15187e-06
6 *2886:A2 *2887:A4 3.66303e-05
7 *2886:A2 *3295:I 9.026e-05
8 *2886:A2 *751:107 3.70116e-05
9 *2886:A2 *752:12 0.000161264
10 *2886:A2 *895:44 9.17202e-06
11 *2886:A2 *896:59 7.28389e-05
12 *499:6 *2843:B 8.55242e-05
13 *499:6 *2879:A1 0.000234192
14 *499:6 *2881:B 0.00031512
15 *499:6 *2882:A1 0
16 *499:6 *751:107 0
17 *499:6 *789:102 0.000653985
18 *499:6 *896:14 0
19 *2883:A4 *2886:A2 0.000292783
20 *2888:A1 *2886:A2 0.000342519
21 *3214:D *499:6 1.81888e-05
*RES
1 *2879:ZN *499:6 7.768 
2 *499:6 *2886:A2 16.54 
3 *499:6 *2880:B2 4.5 
*END

*D_NET *500 0.00192689
*CONN
*I *2882:A1 I *D gf180mcu_fd_sc_mcu7t5v0__nor2_1
*I *2880:ZN O *D gf180mcu_fd_sc_mcu7t5v0__aoi22_1
*CAP
1 *2882:A1 0.000309419
2 *2880:ZN 0.000309419
3 *2882:A1 *2880:B1 7.83779e-05
4 *2882:A1 *2882:A2 1.48449e-05
5 *2882:A1 *752:12 0.000106153
6 *2882:A1 *752:16 9.50296e-06
7 *2882:A1 *789:102 0.000124318
8 *2882:A1 *896:37 0.000369754
9 *3214:D *2882:A1 0.000605102
10 *10:16 *2882:A1 0
11 *499:6 *2882:A1 0
*RES
1 *2880:ZN *2882:A1 21.42 
*END

*D_NET *501 0.000586361
*CONN
*I *2882:A2 I *D gf180mcu_fd_sc_mcu7t5v0__nor2_1
*I *2881:ZN O *D gf180mcu_fd_sc_mcu7t5v0__oai21_1
*CAP
1 *2882:A2 0.000114089
2 *2881:ZN 0.000114089
3 *2882:A1 *2882:A2 1.48449e-05
4 *3214:D *2882:A2 5.91499e-05
5 *10:16 *2882:A2 0.000284188
*RES
1 *2881:ZN *2882:A2 19.444 
*END

*D_NET *502 0.00492558
*CONN
*I *2897:A4 I *D gf180mcu_fd_sc_mcu7t5v0__and4_1
*I *2891:A2 I *D gf180mcu_fd_sc_mcu7t5v0__oai21_1
*I *2884:A2 I *D gf180mcu_fd_sc_mcu7t5v0__nor2_1
*I *2883:Z O *D gf180mcu_fd_sc_mcu7t5v0__and4_1
*CAP
1 *2897:A4 0.000276306
2 *2891:A2 0.000362838
3 *2884:A2 0
4 *2883:Z 0.000285211
5 *502:17 0.000801801
6 *502:8 0.000447867
7 *2891:A2 *2890:A2 0.000194469
8 *2891:A2 *2891:A1 0.00012233
9 *2891:A2 *2892:A1 0.000108196
10 *2891:A2 *2893:A2 0.000153198
11 *2891:A2 *2895:A2 2.49912e-05
12 *2891:A2 *875:51 0.00035097
13 *2897:A4 *2824:A2 2.22758e-05
14 *2897:A4 *2894:A1 0.000333388
15 *2897:A4 *2897:A1 0.00033338
16 *2897:A4 *2899:A1 2.23783e-05
17 *2897:A4 *3218:CLK 2.64584e-05
18 *2897:A4 *694:95 1.54006e-05
19 *2897:A4 *875:19 0.000139026
20 *2897:A4 *877:31 7.83779e-05
21 *502:8 *2887:A1 6.84221e-05
22 *502:8 *694:89 0.000142809
23 *502:8 *874:31 0.000267578
24 *502:8 *875:21 1.14482e-05
25 *502:17 *694:89 0.000120187
26 *502:17 *694:95 5.86602e-05
27 *502:17 *875:19 8.03759e-06
28 *502:17 *875:21 0.000137555
29 *2888:A1 *502:8 0
30 *3216:D *2891:A2 1.2018e-05
*RES
1 *2883:Z *502:8 11.052 
2 *502:8 *2884:A2 9 
3 *502:8 *502:17 1.9 
4 *502:17 *2891:A2 12.648 
5 *502:17 *2897:A4 12.04 
*END

*D_NET *503 0.000386071
*CONN
*I *2885:B I *D gf180mcu_fd_sc_mcu7t5v0__aoi21_1
*I *2884:ZN O *D gf180mcu_fd_sc_mcu7t5v0__nor2_1
*CAP
1 *2885:B 8.16701e-05
2 *2884:ZN 8.16701e-05
3 *2885:B *2626:A1 9.60894e-06
4 *2885:B *694:89 7.24161e-06
5 *2884:A1 *2885:B 0.00020588
*RES
1 *2884:ZN *2885:B 9.912 
*END

*D_NET *504 0.000370196
*CONN
*I *2886:B I *D gf180mcu_fd_sc_mcu7t5v0__aoi211_1
*I *2885:ZN O *D gf180mcu_fd_sc_mcu7t5v0__aoi21_1
*CAP
1 *2886:B 9.57606e-05
2 *2885:ZN 9.57606e-05
3 *2886:B *3295:I 0.000111858
4 *2884:A1 *2886:B 6.68164e-05
*RES
1 *2885:ZN *2886:B 9.912 
*END

*D_NET *505 0.000115823
*CONN
*I *2888:A2 I *D gf180mcu_fd_sc_mcu7t5v0__nor2_1
*I *2887:ZN O *D gf180mcu_fd_sc_mcu7t5v0__nand4_1
*CAP
1 *2888:A2 3.98076e-05
2 *2887:ZN 3.98076e-05
3 *2884:A1 *2888:A2 3.62081e-05
*RES
1 *2887:ZN *2888:A2 9.38 
*END

*D_NET *506 0.00422015
*CONN
*I *2895:A2 I *D gf180mcu_fd_sc_mcu7t5v0__oai21_1
*I *2893:A2 I *D gf180mcu_fd_sc_mcu7t5v0__nand2_1
*I *2889:I I *D gf180mcu_fd_sc_mcu7t5v0__clkinv_1
*I *2888:ZN O *D gf180mcu_fd_sc_mcu7t5v0__nor2_1
*CAP
1 *2895:A2 0.000386437
2 *2893:A2 0.000392766
3 *2889:I 3.50078e-05
4 *2888:ZN 0.000242683
5 *506:21 0.0011075
6 *506:10 0.00060599
7 *2889:I *2892:A2 1.15312e-05
8 *2889:I *896:14 4.58601e-06
9 *2893:A2 *2894:B2 0.000216407
10 *2893:A2 *3153:CLK 2.6126e-05
11 *2893:A2 *752:10 4.70024e-05
12 *2893:A2 *876:25 0
13 *2895:A2 *2895:A1 1.76898e-05
14 *2895:A2 *2896:A2 0.000235666
15 *2895:A2 *751:101 5.58328e-05
16 *2895:A2 *752:10 2.6126e-05
17 *2895:A2 *876:10 1.42069e-05
18 *2895:A2 *876:25 0
19 *506:10 *2892:A2 0
20 *506:10 *751:107 8.61081e-05
21 *506:10 *896:14 0.000159942
22 *506:21 *751:101 0.000142065
23 *506:21 *751:107 0.000228286
24 *2891:A2 *2893:A2 0.000153198
25 *2891:A2 *2895:A2 2.49912e-05
26 *10:16 *2895:A2 0
27 *10:16 *506:10 0
28 *10:16 *506:21 0
*RES
1 *2888:ZN *506:10 10.52 
2 *506:10 *2889:I 9.228 
3 *506:10 *506:21 2.204 
4 *506:21 *2893:A2 12.116 
5 *506:21 *2895:A2 11.964 
*END

*D_NET *507 0.000158486
*CONN
*I *2890:B2 I *D gf180mcu_fd_sc_mcu7t5v0__aoi22_1
*I *2889:ZN O *D gf180mcu_fd_sc_mcu7t5v0__clkinv_1
*CAP
1 *2890:B2 7.17357e-05
2 *2889:ZN 7.17357e-05
3 *2890:B2 *2892:A2 1.5015e-05
*RES
1 *2889:ZN *2890:B2 9.532 
*END

*D_NET *508 0.001526
*CONN
*I *2892:A1 I *D gf180mcu_fd_sc_mcu7t5v0__nor2_1
*I *2890:ZN O *D gf180mcu_fd_sc_mcu7t5v0__aoi22_1
*CAP
1 *2892:A1 9.65655e-05
2 *2890:ZN 9.65655e-05
3 *2892:A1 *2890:B1 0.000239827
4 *2892:A1 *2891:A1 0
5 *2892:A1 *2892:A2 5.82395e-05
6 *2892:A1 *875:51 0.000548938
7 *2891:A2 *2892:A1 0.000108196
8 *3216:D *2892:A1 0.000377672
*RES
1 *2890:ZN *2892:A1 11.356 
*END

*D_NET *509 0.00169311
*CONN
*I *2892:A2 I *D gf180mcu_fd_sc_mcu7t5v0__nor2_1
*I *2891:ZN O *D gf180mcu_fd_sc_mcu7t5v0__oai21_1
*CAP
1 *2892:A2 0.000388489
2 *2891:ZN 0.000388489
3 *2892:A2 *2890:B1 0.000299234
4 *2892:A2 *2891:A1 0.000238794
5 *2892:A2 *2891:B 9.26705e-05
6 *2892:A2 *3216:CLK 5.97938e-05
7 *2889:I *2892:A2 1.15312e-05
8 *2890:B2 *2892:A2 1.5015e-05
9 *2892:A1 *2892:A2 5.82395e-05
10 *3216:D *2892:A2 0.000140853
11 *506:10 *2892:A2 0
*RES
1 *2891:ZN *2892:A2 12.8 
*END

*D_NET *510 0.00234904
*CONN
*I *2900:A2 I *D gf180mcu_fd_sc_mcu7t5v0__aoi211_1
*I *2894:B2 I *D gf180mcu_fd_sc_mcu7t5v0__aoi22_1
*I *2893:ZN O *D gf180mcu_fd_sc_mcu7t5v0__nand2_1
*CAP
1 *2900:A2 0.000260582
2 *2894:B2 0.000399139
3 *2893:ZN 0
4 *510:4 0.000659721
5 *2894:B2 *2824:A2 0.000146817
6 *2894:B2 *751:101 0.000142431
7 *2894:B2 *752:10 6.04444e-06
8 *2894:B2 *875:19 0.000199471
9 *2894:B2 *876:25 1.59321e-05
10 *2894:B2 *876:27 1.17762e-05
11 *2894:B2 *876:29 1.985e-05
12 *2900:A2 *2629:A1 2.98136e-05
13 *2900:A2 *3153:CLK 1.64194e-05
14 *2900:A2 *876:29 1.26804e-05
15 *2900:A2 *876:31 0.000211959
16 *2893:A2 *2894:B2 0.000216407
*RES
1 *2893:ZN *510:4 4.5 
2 *510:4 *2894:B2 17.452 
3 *510:4 *2900:A2 6.476 
*END

*D_NET *511 0.000544671
*CONN
*I *2896:A1 I *D gf180mcu_fd_sc_mcu7t5v0__nor2_1
*I *2894:ZN O *D gf180mcu_fd_sc_mcu7t5v0__aoi22_1
*CAP
1 *2896:A1 0.000173054
2 *2894:ZN 0.000173054
3 *2896:A1 *2896:A2 7.50749e-05
4 *2896:A1 *3217:CLK 9.26705e-05
5 *2896:A1 *751:89 3.1394e-06
6 *2896:A1 *751:101 2.76775e-05
*RES
1 *2894:ZN *2896:A1 10.368 
*END

*D_NET *512 0.00193863
*CONN
*I *2896:A2 I *D gf180mcu_fd_sc_mcu7t5v0__nor2_1
*I *2895:ZN O *D gf180mcu_fd_sc_mcu7t5v0__oai21_1
*CAP
1 *2896:A2 0.000529066
2 *2895:ZN 0.000529066
3 *2896:A2 *2895:A1 2.6126e-05
4 *2896:A2 *2895:B 5.87561e-06
5 *2896:A2 *3217:CLK 7.4219e-06
6 *2896:A2 *751:101 0
7 *2896:A2 *876:25 6.47067e-05
8 *2895:A2 *2896:A2 0.000235666
9 *2896:A1 *2896:A2 7.50749e-05
10 *3217:D *2896:A2 0.000127484
11 *3297:I *2896:A2 0.000144611
12 *10:16 *2896:A2 0.000193533
*RES
1 *2895:ZN *2896:A2 22.636 
*END

*D_NET *513 0.00559877
*CONN
*I *2910:A4 I *D gf180mcu_fd_sc_mcu7t5v0__and4_1
*I *2901:A2 I *D gf180mcu_fd_sc_mcu7t5v0__and2_1
*I *2904:A2 I *D gf180mcu_fd_sc_mcu7t5v0__oai21_1
*I *2898:I I *D gf180mcu_fd_sc_mcu7t5v0__clkinv_1
*I *2897:Z O *D gf180mcu_fd_sc_mcu7t5v0__and4_1
*CAP
1 *2910:A4 0.000153579
2 *2901:A2 0
3 *2904:A2 0.000520791
4 *2898:I 0
5 *2897:Z 0.000181679
6 *513:32 0.000196842
7 *513:17 0.00069773
8 *513:8 0.000315355
9 *2904:A2 *2903:B2 0.000149579
10 *2904:A2 *2904:A1 0.00108498
11 *2904:A2 *2905:A2 1.14309e-05
12 *2904:A2 *2906:A2 2.25184e-05
13 *2904:A2 *516:10 0.000105902
14 *2904:A2 *879:10 5.97012e-05
15 *2910:A4 *2907:A2 5.93437e-05
16 *2910:A4 *2910:A1 0.000213194
17 *2910:A4 *2913:A2 0
18 *2910:A4 *878:12 9.98921e-06
19 *2910:A4 *878:48 0.000110145
20 *2910:A4 *879:37 0.000118153
21 *513:8 *2894:A1 6.31034e-05
22 *513:8 *2899:A1 0.00026757
23 *513:8 *751:83 0.000128852
24 *513:8 *877:10 5.62195e-05
25 *513:17 *2831:A3 4.08161e-05
26 *513:17 *751:83 0.000195697
27 *513:17 *877:10 1.78413e-05
28 *513:17 *878:48 0.000151957
29 *513:32 *751:83 6.12154e-05
30 *513:32 *753:43 1.80204e-05
31 *513:32 *878:48 0.000372003
32 *3219:D *2904:A2 0.0001321
33 *10:16 *2910:A4 7.12079e-05
34 *10:16 *513:32 1.12495e-05
*RES
1 *2897:Z *513:8 10.9 
2 *513:8 *2898:I 9 
3 *513:8 *513:17 1.9 
4 *513:17 *2904:A2 13.788 
5 *513:17 *513:32 0.988 
6 *513:32 *2901:A2 9 
7 *513:32 *2910:A4 10.748 
*END

*D_NET *514 0.000153083
*CONN
*I *2899:B2 I *D gf180mcu_fd_sc_mcu7t5v0__aoi22_1
*I *2898:ZN O *D gf180mcu_fd_sc_mcu7t5v0__clkinv_1
*CAP
1 *2899:B2 7.65413e-05
2 *2898:ZN 7.65413e-05
*RES
1 *2898:ZN *2899:B2 9.532 
*END

*D_NET *515 0.0015936
*CONN
*I *2900:B I *D gf180mcu_fd_sc_mcu7t5v0__aoi211_1
*I *2899:ZN O *D gf180mcu_fd_sc_mcu7t5v0__aoi22_1
*CAP
1 *2900:B 0.000364879
2 *2899:ZN 0.000364879
3 *2900:B *2487:I 2.23843e-05
4 *2900:B *2824:A2 0.000261262
5 *2900:B *2894:A1 8.55327e-05
6 *2900:B *788:20 0.000373799
7 *2832:A1 *2900:B 2.21907e-05
8 *2832:A2 *2900:B 9.86761e-05
*RES
1 *2899:ZN *2900:B 21.344 
*END

*D_NET *516 0.00569046
*CONN
*I *2906:A2 I *D gf180mcu_fd_sc_mcu7t5v0__nand2_1
*I *2908:A2 I *D gf180mcu_fd_sc_mcu7t5v0__oai21_1
*I *2902:I I *D gf180mcu_fd_sc_mcu7t5v0__clkinv_1
*I *2901:Z O *D gf180mcu_fd_sc_mcu7t5v0__and2_1
*CAP
1 *2906:A2 0.00028405
2 *2908:A2 0.00021748
3 *2902:I 1.76319e-05
4 *2901:Z 0
5 *516:10 0.000389752
6 *516:4 0.00043869
7 *2902:I *3217:CLK 0.00034938
8 *2902:I *685:59 0.000578319
9 *2906:A2 *2831:A3 1.52691e-05
10 *2906:A2 *2907:B2 0.000123176
11 *2906:A2 *2913:A2 2.89664e-05
12 *2906:A2 *878:48 1.71121e-05
13 *2908:A2 *2904:A1 0.000722851
14 *2908:A2 *2904:B 5.97012e-05
15 *2908:A2 *2905:A1 0.000239048
16 *2908:A2 *2908:A1 1.12256e-05
17 *2908:A2 *789:22 7.26556e-05
18 *2908:A2 *789:24 6.54978e-05
19 *516:10 *2904:A1 0.000486169
20 *516:10 *2905:A1 0.000431526
21 *516:10 *2907:B2 4.45157e-06
22 *516:10 *751:75 1.24603e-05
23 *516:10 *751:83 7.47525e-05
24 *2904:A2 *2906:A2 2.25184e-05
25 *2904:A2 *516:10 0.000105902
26 *3297:I *2902:I 0.00088679
27 *10:16 *2908:A2 2.62421e-05
28 *10:16 *516:10 8.83672e-06
*RES
1 *2901:Z *516:4 4.5 
2 *516:4 *516:10 2.356 
3 *516:10 *2902:I 15.704 
4 *516:10 *2908:A2 16.236 
5 *516:4 *2906:A2 6.704 
*END

*D_NET *517 0.000809156
*CONN
*I *2903:B2 I *D gf180mcu_fd_sc_mcu7t5v0__aoi22_1
*I *2902:ZN O *D gf180mcu_fd_sc_mcu7t5v0__clkinv_1
*CAP
1 *2903:B2 0.000292324
2 *2902:ZN 0.000292324
3 *2904:A2 *2903:B2 0.000149579
4 *3219:D *2903:B2 7.49285e-05
*RES
1 *2902:ZN *2903:B2 11.508 
*END

*D_NET *518 0.00200156
*CONN
*I *2905:A1 I *D gf180mcu_fd_sc_mcu7t5v0__nor2_1
*I *2903:ZN O *D gf180mcu_fd_sc_mcu7t5v0__aoi22_1
*CAP
1 *2905:A1 0.000222816
2 *2903:ZN 0.000222816
3 *2905:A1 *751:75 3.08902e-05
4 *2905:A1 *879:10 0.000315078
5 *2908:A2 *2905:A1 0.000239048
6 *3297:I *2905:A1 0.00023179
7 *10:16 *2905:A1 0.000307597
8 *516:10 *2905:A1 0.000431526
*RES
1 *2903:ZN *2905:A1 21.648 
*END

*D_NET *519 0.000857121
*CONN
*I *2905:A2 I *D gf180mcu_fd_sc_mcu7t5v0__nor2_1
*I *2904:ZN O *D gf180mcu_fd_sc_mcu7t5v0__oai21_1
*CAP
1 *2905:A2 0.000224389
2 *2904:ZN 0.000224389
3 *2905:A2 *789:24 0.000396912
4 *2904:A2 *2905:A2 1.14309e-05
*RES
1 *2904:ZN *2905:A2 19.672 
*END

*D_NET *520 0.00185889
*CONN
*I *2913:A2 I *D gf180mcu_fd_sc_mcu7t5v0__aoi211_1
*I *2907:B2 I *D gf180mcu_fd_sc_mcu7t5v0__aoi22_1
*I *2906:ZN O *D gf180mcu_fd_sc_mcu7t5v0__nand2_1
*CAP
1 *2913:A2 0.000349977
2 *2907:B2 0.000254888
3 *2906:ZN 0
4 *520:4 0.000604865
5 *2907:B2 *753:43 2.96621e-05
6 *2907:B2 *879:27 1.07039e-05
7 *2913:A2 *2910:A1 2.97354e-06
8 *2913:A2 *2913:B 3.20359e-06
9 *2913:A2 *879:37 4.72461e-05
10 *2913:A2 *879:52 9.50723e-06
11 *2906:A2 *2907:B2 0.000123176
12 *2906:A2 *2913:A2 2.89664e-05
13 *2910:A4 *2913:A2 0
14 *3221:D *2913:A2 2.25114e-05
15 *3275:I *2907:B2 0.000124491
16 *3275:I *2913:A2 0.000100299
17 *10:16 *2907:B2 6.69811e-05
18 *471:24 *2913:A2 7.49887e-05
19 *516:10 *2907:B2 4.45157e-06
*RES
1 *2906:ZN *520:4 4.5 
2 *520:4 *2907:B2 6.78 
3 *520:4 *2913:A2 15.932 
*END

*D_NET *521 0.00175147
*CONN
*I *2909:A1 I *D gf180mcu_fd_sc_mcu7t5v0__nor2_1
*I *2907:ZN O *D gf180mcu_fd_sc_mcu7t5v0__aoi22_1
*CAP
1 *2909:A1 0.000174262
2 *2907:ZN 0.000174262
3 *2909:A1 *3221:CLK 9.4764e-05
4 *2909:A1 *685:46 9.17202e-06
5 *2909:A1 *685:59 0.00020862
6 *2909:A1 *751:75 2.6126e-05
7 *2909:A1 *753:37 0
8 *2909:A1 *879:25 0.000431543
9 *3297:I *2909:A1 0.00063272
*RES
1 *2907:ZN *2909:A1 20.736 
*END

*D_NET *522 0.00202433
*CONN
*I *2909:A2 I *D gf180mcu_fd_sc_mcu7t5v0__nor2_1
*I *2908:ZN O *D gf180mcu_fd_sc_mcu7t5v0__oai21_1
*CAP
1 *2909:A2 0.000626506
2 *2908:ZN 0.000626506
3 *2909:A2 *3221:CLK 5.76063e-06
4 *2909:A2 *685:46 7.22364e-05
5 *2909:A2 *789:18 0
6 *2909:A2 *789:22 0.000269857
7 *2909:A2 *878:10 1.02578e-05
8 *3220:D *2909:A2 0.000413203
*RES
1 *2908:ZN *2909:A2 22.408 
*END

*D_NET *523 0.00243263
*CONN
*I *2911:I I *D gf180mcu_fd_sc_mcu7t5v0__clkinv_1
*I *2918:A3 I *D gf180mcu_fd_sc_mcu7t5v0__nand3_1
*I *2914:A2 I *D gf180mcu_fd_sc_mcu7t5v0__nand2_1
*I *2916:A2 I *D gf180mcu_fd_sc_mcu7t5v0__oai21_1
*I *2910:Z O *D gf180mcu_fd_sc_mcu7t5v0__and4_1
*CAP
1 *2911:I 0
2 *2918:A3 0.000177687
3 *2914:A2 2.22888e-05
4 *2916:A2 3.90161e-05
5 *2910:Z 0.000111221
6 *523:14 0.000187391
7 *523:10 0.000427031
8 *523:6 0.000234479
9 *2914:A2 *2912:B2 0
10 *2914:A2 *3374:I 5.09739e-06
11 *2914:A2 *526:10 4.58601e-06
12 *2914:A2 *881:12 3.08902e-05
13 *2916:A2 *526:10 0.000140663
14 *2916:A2 *751:14 8.13733e-05
15 *2916:A2 *753:31 0
16 *2916:A2 *881:16 0.00026757
17 *2918:A3 *3365:I 0.000151957
18 *2918:A3 *751:14 0.000172461
19 *2918:A3 *788:12 0
20 *523:6 *2913:B 0
21 *523:10 *751:14 0.000328022
22 *523:10 *788:12 0
23 *523:10 *880:32 1.11891e-05
24 *523:14 *2912:B2 0
25 *523:14 *3374:I 2.38115e-05
26 *523:14 *526:10 1.58969e-05
*RES
1 *2910:Z *523:6 5.184 
2 *523:6 *523:10 6.096 
3 *523:10 *523:14 5.184 
4 *523:14 *2916:A2 14.336 
5 *523:14 *2914:A2 4.728 
6 *523:10 *2918:A3 10.52 
7 *523:6 *2911:I 4.5 
*END

*D_NET *524 0.000331747
*CONN
*I *2912:B2 I *D gf180mcu_fd_sc_mcu7t5v0__aoi22_1
*I *2911:ZN O *D gf180mcu_fd_sc_mcu7t5v0__clkinv_1
*CAP
1 *2912:B2 0.000132306
2 *2911:ZN 0.000132306
3 *2912:B2 *2912:A1 2.9688e-05
4 *2912:B2 *2913:B 1.13217e-05
5 *2912:B2 *753:31 2.6126e-05
6 *2912:B2 *881:12 0
7 *2914:A2 *2912:B2 0
8 *523:14 *2912:B2 0
*RES
1 *2911:ZN *2912:B2 9.836 
*END

*D_NET *525 0.00199216
*CONN
*I *2913:B I *D gf180mcu_fd_sc_mcu7t5v0__aoi211_1
*I *2912:ZN O *D gf180mcu_fd_sc_mcu7t5v0__aoi22_1
*CAP
1 *2913:B 0.000520514
2 *2912:ZN 0.000520514
3 *2913:B *2912:A1 1.03353e-05
4 *2913:B *2912:A2 3.2657e-05
5 *2913:B *3221:CLK 0.000139361
6 *2913:B *753:31 1.15312e-05
7 *2913:B *788:12 0.000450447
8 *2913:B *788:20 7.83779e-05
9 *2913:B *878:10 5.71374e-05
10 *2913:B *880:32 4.13778e-05
11 *2641:A1 *2913:B 2.9378e-06
12 *2912:B2 *2913:B 1.13217e-05
13 *2913:A1 *2913:B 1.4689e-05
14 *2913:A2 *2913:B 3.20359e-06
15 *3221:D *2913:B 9.77564e-05
16 *3275:I *2913:B 0
17 *523:6 *2913:B 0
*RES
1 *2912:ZN *2913:B 13.332 
*END

*D_NET *526 0.00337863
*CONN
*I *2920:A2 I *D gf180mcu_fd_sc_mcu7t5v0__nor2_1
*I *2915:B2 I *D gf180mcu_fd_sc_mcu7t5v0__aoi22_1
*I *2914:ZN O *D gf180mcu_fd_sc_mcu7t5v0__nand2_1
*CAP
1 *2920:A2 0.000127236
2 *2915:B2 0.000138163
3 *2914:ZN 8.32076e-05
4 *526:10 0.000348607
5 *2915:B2 *2915:A1 3.75402e-05
6 *2915:B2 *2915:B1 4.94368e-05
7 *2915:B2 *3365:I 0.000585577
8 *2915:B2 *3374:I 1.66121e-06
9 *2915:B2 *881:37 2.22657e-05
10 *2915:B2 *881:45 1.93526e-05
11 *2920:A2 *2916:B 6.06975e-05
12 *2920:A2 *2919:A2 0.000125852
13 *2920:A2 *751:14 0.000279752
14 *2920:A2 *753:21 0.000543163
15 *2920:A2 *753:25 0
16 *2920:A2 *882:8 0.000194624
17 *526:10 *2916:B 3.83136e-05
18 *526:10 *3374:I 7.3227e-05
19 *526:10 *751:14 0.00043614
20 *526:10 *753:31 0
21 *526:10 *881:37 5.26649e-05
22 *2914:A2 *526:10 4.58601e-06
23 *2916:A2 *526:10 0.000140663
24 *523:14 *526:10 1.58969e-05
*RES
1 *2914:ZN *526:10 10.368 
2 *526:10 *2915:B2 10.596 
3 *526:10 *2920:A2 11.28 
*END

*D_NET *527 0.0017957
*CONN
*I *2917:A1 I *D gf180mcu_fd_sc_mcu7t5v0__nor2_1
*I *2915:ZN O *D gf180mcu_fd_sc_mcu7t5v0__aoi22_1
*CAP
1 *2917:A1 0.000218563
2 *2915:ZN 0.000218563
3 *2917:A1 *2915:A1 7.83779e-05
4 *2917:A1 *2915:B1 7.83779e-05
5 *2917:A1 *3365:I 3.75508e-05
6 *2917:A1 *3374:I 3.9695e-05
7 *2917:A1 *685:40 3.19219e-05
8 *2917:A1 *789:18 0.000351169
9 *3222:D *2917:A1 0.000741481
*RES
1 *2915:ZN *2917:A1 21.04 
*END

*D_NET *528 0.00195143
*CONN
*I *2917:A2 I *D gf180mcu_fd_sc_mcu7t5v0__nor2_1
*I *2916:ZN O *D gf180mcu_fd_sc_mcu7t5v0__oai21_1
*CAP
1 *2917:A2 0.000336237
2 *2916:ZN 0.000336237
3 *2917:A2 *2922:A2 7.83779e-05
4 *2917:A2 *3374:I 0.00035308
5 *2917:A2 *753:31 0.000169982
6 *2917:A2 *881:12 0.000210538
7 *2917:A2 *881:16 0.000102192
8 *2917:A2 *881:37 4.78829e-05
9 *3220:D *2917:A2 0
10 *3223:D *2917:A2 0.000142801
11 *3297:I *2917:A2 0.000174107
*RES
1 *2916:ZN *2917:A2 30.648 
*END

*D_NET *529 0.00272373
*CONN
*I *2919:A2 I *D gf180mcu_fd_sc_mcu7t5v0__aoi21_1
*I *2918:ZN O *D gf180mcu_fd_sc_mcu7t5v0__nand3_1
*CAP
1 *2919:A2 0.000276495
2 *2918:ZN 0.000276495
3 *2919:A2 *2919:A1 0.000294369
4 *2919:A2 *2921:A1 0.000847051
5 *2919:A2 *530:8 1.3758e-05
6 *2919:A2 *753:21 0.000212843
7 *2919:A2 *882:6 0.000645978
8 *2919:A2 *882:8 3.08902e-05
9 *2920:A2 *2919:A2 0.000125852
*RES
1 *2918:ZN *2919:A2 13.256 
*END

*D_NET *530 0.00503563
*CONN
*I *2924:A2 I *D gf180mcu_fd_sc_mcu7t5v0__aoi211_1
*I *2922:A1 I *D gf180mcu_fd_sc_mcu7t5v0__nor2_1
*I *2919:ZN O *D gf180mcu_fd_sc_mcu7t5v0__aoi21_1
*CAP
1 *2924:A2 0.000728011
2 *2922:A1 0.00035553
3 *2919:ZN 2.50935e-05
4 *530:8 0.00110863
5 *2922:A1 *2922:A2 0.00156459
6 *2922:A1 *685:40 0.000184096
7 *2922:A1 *881:12 0.000134988
8 *2924:A2 *2921:A1 3.19219e-05
9 *2924:A2 *2921:B 0.000138146
10 *2924:A2 *2922:A2 0.000505665
11 *2924:A2 *2924:C 1.91917e-06
12 *2924:A2 *3227:CLK 4.31625e-05
13 *2924:A2 *685:30 0
14 *2924:A2 *685:40 8.64425e-05
15 *2924:A2 *789:10 0
16 *2924:A2 *789:12 0
17 *530:8 *2919:A1 7.83779e-05
18 *2919:A2 *530:8 1.3758e-05
19 *469:47 *2924:A2 3.52909e-05
*RES
1 *2919:ZN *530:8 9.228 
2 *530:8 *2922:A1 13.484 
3 *530:8 *2924:A2 14.472 
*END

*D_NET *531 0.00323756
*CONN
*I *2921:A2 I *D gf180mcu_fd_sc_mcu7t5v0__oai21_1
*I *2923:A2 I *D gf180mcu_fd_sc_mcu7t5v0__aoi21_1
*I *2920:ZN O *D gf180mcu_fd_sc_mcu7t5v0__nor2_1
*CAP
1 *2921:A2 0.000584933
2 *2923:A2 4.11674e-05
3 *2920:ZN 0.000112501
4 *531:6 0.000738601
5 *2921:A2 *2919:B 0.000133114
6 *2921:A2 *2921:B 0
7 *2921:A2 *685:36 0.000115566
8 *2921:A2 *751:14 2.23825e-05
9 *2921:A2 *751:40 4.93556e-05
10 *2921:A2 *753:21 0
11 *2921:A2 *883:12 1.56182e-05
12 *2923:A2 *883:12 7.64163e-06
13 *531:6 *883:12 2.22566e-05
14 *3297:I *2921:A2 0.00125664
15 *3297:I *2923:A2 0.000137785
*RES
1 *2920:ZN *531:6 5.336 
2 *531:6 *2923:A2 4.88 
3 *531:6 *2921:A2 9.82 
*END

*D_NET *532 0.00393499
*CONN
*I *2922:A2 I *D gf180mcu_fd_sc_mcu7t5v0__nor2_1
*I *2921:ZN O *D gf180mcu_fd_sc_mcu7t5v0__oai21_1
*CAP
1 *2922:A2 0.000346766
2 *2921:ZN 0.000346766
3 *2922:A2 *2921:A1 0.000741473
4 *2922:A2 *3374:I 0.000288962
5 *2922:A2 *881:12 4.73774e-05
6 ACK_O *2922:A2 1.5015e-05
7 *2917:A2 *2922:A2 7.83779e-05
8 *2922:A1 *2922:A2 0.00156459
9 *2924:A2 *2922:A2 0.000505665
*RES
1 *2921:ZN *2922:A2 23.928 
*END

*D_NET *533 0.00215599
*CONN
*I *2924:B I *D gf180mcu_fd_sc_mcu7t5v0__aoi211_1
*I *2923:ZN O *D gf180mcu_fd_sc_mcu7t5v0__aoi21_1
*CAP
1 *2924:B 0.000429271
2 *2923:ZN 0.000429271
3 *2924:B *2923:B 8.80064e-05
4 *2924:B *2924:A1 0
5 *2924:B *685:36 0
6 *2924:B *883:41 0
7 *3223:D *2924:B 3.8914e-05
8 *3297:I *2924:B 0.000956738
9 *469:32 *2924:B 0.000191454
10 *469:47 *2924:B 2.23385e-05
*RES
1 *2923:ZN *2924:B 22.408 
*END

*D_NET *534 0.00109923
*CONN
*I *2931:C I *D gf180mcu_fd_sc_mcu7t5v0__aoi211_1
*I *2929:ZN O *D gf180mcu_fd_sc_mcu7t5v0__aoi21_1
*CAP
1 *2931:C 2.62723e-05
2 *2929:ZN 2.62723e-05
3 *2931:C *2653:A1 6.00599e-05
4 *2929:A1 *2931:C 0.000431535
5 *469:22 *2931:C 0.000555095
*RES
1 *2929:ZN *2931:C 10.444 
*END

*D_NET *535 0.00723015
*CONN
*I *2942:A1 I *D gf180mcu_fd_sc_mcu7t5v0__nor2_1
*I *2957:C I *D gf180mcu_fd_sc_mcu7t5v0__aoi211_1
*I *2950:B I *D gf180mcu_fd_sc_mcu7t5v0__aoi21_1
*I *2963:A1 I *D gf180mcu_fd_sc_mcu7t5v0__nor2_1
*I *2959:A1 I *D gf180mcu_fd_sc_mcu7t5v0__nor2_1
*I *2930:ZN O *D gf180mcu_fd_sc_mcu7t5v0__nand2_1
*CAP
1 *2942:A1 6.8978e-05
2 *2957:C 0
3 *2950:B 0.000278921
4 *2963:A1 0.000474259
5 *2959:A1 4.05873e-05
6 *2930:ZN 0.000109216
7 *535:44 0.000460648
8 *535:32 0.00040755
9 *535:12 0.000673874
10 *535:10 0.000425088
11 *2942:A1 *2484:I 0
12 *2942:A1 *2949:A2 0.000166803
13 *2942:A1 *2954:A3 0.000254207
14 *2942:A1 *2962:A1 7.71326e-05
15 *2942:A1 *548:34 1.28891e-05
16 *2950:B *2939:A4 0.000168243
17 *2950:B *2950:A1 0.000134625
18 *2950:B *2955:A1 0
19 *2950:B *2955:A3 0.000140167
20 *2950:B *2957:B 1.5015e-05
21 *2950:B *553:12 0
22 *2950:B *924:17 7.42181e-05
23 *2950:B *925:12 0
24 *2959:A1 *927:8 8.95196e-05
25 *2963:A1 *2499:I 5.93303e-05
26 *2963:A1 *2939:A2 0
27 *2963:A1 *2956:A1 0.000221495
28 *2963:A1 *2961:A1 0
29 *2963:A1 *3236:CLK 9.33883e-05
30 *2963:A1 *553:12 0
31 *2963:A1 *686:30 8.78761e-05
32 *2963:A1 *926:10 0
33 *535:10 *2939:A2 8.8425e-05
34 *535:10 *2943:A1 0.000467288
35 *535:10 *545:32 0
36 *535:10 *792:10 8.78761e-05
37 *535:10 *792:14 0.000340865
38 *535:12 *3236:CLK 0
39 *535:12 *686:36 1.20079e-05
40 *535:12 *792:10 1.52768e-05
41 *535:12 *927:8 0.000226501
42 *535:32 *2939:A2 0.000255722
43 *535:32 *2954:A3 0.000186796
44 *535:32 *2962:A1 0.000169363
45 *535:32 *3236:CLK 0
46 *535:32 *927:8 4.24903e-05
47 *535:44 *2939:A4 1.76797e-05
48 *535:44 *2960:A2 0.000139144
49 *535:44 *2962:A1 0.000355538
50 *535:44 *545:32 1.81333e-05
51 *2939:A3 *535:32 5.74961e-05
52 *2941:A1 *2942:A1 0
53 *3236:D *2950:B 4.82446e-05
54 *3236:D *535:44 1.3758e-05
55 *3237:D *2959:A1 8.18282e-05
56 *3237:D *535:12 3.73627e-05
57 *219:14 *535:10 3.43264e-05
*RES
1 *2930:ZN *535:10 15.704 
2 *535:10 *535:12 1.444 
3 *535:12 *2959:A1 5.032 
4 *535:12 *2963:A1 17.528 
5 *535:10 *535:32 1.9 
6 *535:32 *535:44 10.976 
7 *535:44 *2950:B 7.236 
8 *535:44 *2957:C 4.5 
9 *535:32 *2942:A1 14.564 
*END

*D_NET *536 0.00254507
*CONN
*I *2934:C I *D gf180mcu_fd_sc_mcu7t5v0__aoi221_1
*I *2935:A2 I *D gf180mcu_fd_sc_mcu7t5v0__aoi211_1
*I *2932:ZN O *D gf180mcu_fd_sc_mcu7t5v0__nand2_1
*CAP
1 *2934:C 3.22734e-05
2 *2935:A2 5.86583e-05
3 *2932:ZN 0.000378617
4 *536:12 0.000469549
5 *2934:C *2934:B1 2.6126e-05
6 *2934:C *3015:C2 9.88736e-06
7 *536:12 *2934:A1 0
8 *536:12 *3015:C2 0.000296227
9 *536:12 *3229:CLK 4.66861e-05
10 *536:12 *707:10 0.000225107
11 *536:12 *707:16 1.11891e-05
12 *2839:A2 *2935:A2 0.000199473
13 *2839:A2 *536:12 0
14 *2932:A1 *536:12 8.84331e-05
15 *2935:C *2935:A2 0.000432994
16 *467:36 *2935:A2 0.000269848
*RES
1 *2932:ZN *536:12 16.844 
2 *536:12 *2935:A2 14.64 
3 *536:12 *2934:C 4.728 
*END

*D_NET *537 0.00108664
*CONN
*I *2934:B1 I *D gf180mcu_fd_sc_mcu7t5v0__aoi221_1
*I *2933:ZN O *D gf180mcu_fd_sc_mcu7t5v0__nor2_1
*CAP
1 *2934:B1 0.000197293
2 *2933:ZN 0.000197293
3 *2934:B1 *2841:A1 5.12369e-05
4 *2934:B1 *2935:B 4.06739e-05
5 *2934:B1 *3015:C2 0.000369754
6 *2661:A2 *2934:B1 0
7 *2839:A1 *2934:B1 0.000125433
8 *2934:A2 *2934:B1 7.88344e-05
9 *2934:C *2934:B1 2.6126e-05
*RES
1 *2933:ZN *2934:B1 20.28 
*END

*D_NET *538 0.00150837
*CONN
*I *2935:B I *D gf180mcu_fd_sc_mcu7t5v0__aoi211_1
*I *2934:ZN O *D gf180mcu_fd_sc_mcu7t5v0__aoi221_1
*CAP
1 *2935:B 0.000252918
2 *2934:ZN 0.000252918
3 *2935:B *2841:A1 1.5961e-05
4 *2935:B *3279:I 1.72912e-05
5 *2934:B1 *2935:B 4.06739e-05
6 *2935:C *2935:B 0.000850225
7 *242:16 *2935:B 7.83779e-05
*RES
1 *2934:ZN *2935:B 20.432 
*END

*D_NET *539 0.00208912
*CONN
*I *2948:A1 I *D gf180mcu_fd_sc_mcu7t5v0__oai31_1
*I *2936:ZN O *D gf180mcu_fd_sc_mcu7t5v0__nor2_1
*CAP
1 *2948:A1 0.000218902
2 *2936:ZN 0.000218902
3 *2948:A1 *2946:A1 0
4 *2948:A1 *2946:A2 2.96977e-05
5 *2948:A1 *2948:A3 0.000245117
6 *2948:A1 *2948:B 9.88736e-06
7 *2948:A1 *921:10 0.000601733
8 *2948:A1 *922:25 1.58383e-05
9 *3231:D *2948:A1 0.000601733
10 *3232:D *2948:A1 0.000147313
*RES
1 *2936:ZN *2948:A1 21.268 
*END

*D_NET *540 0.00282106
*CONN
*I *2938:A3 I *D gf180mcu_fd_sc_mcu7t5v0__nor3_1
*I *2953:A1 I *D gf180mcu_fd_sc_mcu7t5v0__oai32_1
*I *2937:ZN O *D gf180mcu_fd_sc_mcu7t5v0__nand2_1
*CAP
1 *2938:A3 7.33401e-06
2 *2953:A1 0.000429541
3 *2937:ZN 8.0645e-05
4 *540:8 0.00051752
5 *2938:A3 *2938:A2 0.000142809
6 *2938:A3 *3231:CLK 0.000117908
7 *2953:A1 *2938:A2 0.000197178
8 *2953:A1 *2948:A3 0
9 *2953:A1 *2952:B 0.000358477
10 *2953:A1 *3231:CLK 0.000451297
11 *2953:A1 *687:97 3.79932e-05
12 *540:8 *2937:A2 0.000235608
13 *540:8 *548:12 0.00015398
14 *2953:B2 *2953:A1 9.07654e-05
*RES
1 *2937:ZN *540:8 9.988 
2 *540:8 *2953:A1 12.496 
3 *540:8 *2938:A3 9.38 
*END

*D_NET *541 0.0025236
*CONN
*I *2939:A4 I *D gf180mcu_fd_sc_mcu7t5v0__nand4_1
*I *2938:ZN O *D gf180mcu_fd_sc_mcu7t5v0__nor3_1
*CAP
1 *2939:A4 0.000684618
2 *2938:ZN 0.000684618
3 *2939:A4 *2937:A2 4.11708e-05
4 *2939:A4 *2950:A1 0.000310828
5 *2939:A4 *2950:A2 0.000108527
6 *2939:A4 *2954:A2 1.31249e-05
7 *2939:A4 *2957:A2 9.67612e-05
8 *2939:A4 *2957:B 0.000116627
9 *2939:A4 *3231:CLK 2.6126e-05
10 *2939:A4 *3236:CLK 3.08902e-05
11 *2939:A4 *924:17 4.04255e-05
12 *2939:A3 *2939:A4 0.000144939
13 *2950:B *2939:A4 0.000168243
14 *3236:D *2939:A4 1.66121e-06
15 *202:16 *2939:A4 3.73627e-05
16 *535:44 *2939:A4 1.76797e-05
*RES
1 *2938:ZN *2939:A4 14.852 
*END

*D_NET *542 0.000689338
*CONN
*I *2941:A2 I *D gf180mcu_fd_sc_mcu7t5v0__nand2_1
*I *2939:ZN O *D gf180mcu_fd_sc_mcu7t5v0__nand4_1
*CAP
1 *2941:A2 0.000158737
2 *2939:ZN 0.000158737
3 *2941:A2 *2943:A2 0.000246194
4 *2941:A2 *2962:A1 9.36884e-05
5 *2941:A1 *2941:A2 3.19826e-05
6 *155:10 *2941:A2 0
*RES
1 *2939:ZN *2941:A2 10.596 
*END

*D_NET *543 0.00377488
*CONN
*I *2948:A2 I *D gf180mcu_fd_sc_mcu7t5v0__oai31_1
*I *2953:A2 I *D gf180mcu_fd_sc_mcu7t5v0__oai32_1
*I *2940:ZN O *D gf180mcu_fd_sc_mcu7t5v0__nand3_1
*CAP
1 *2948:A2 0.000297971
2 *2953:A2 0
3 *2940:ZN 0.000453157
4 *543:8 0.000751128
5 *2948:A2 *2952:B 0.000416235
6 *2948:A2 *687:53 2.40898e-05
7 *543:8 *2940:A1 2.8431e-05
8 *543:8 *2944:A2 1.60355e-05
9 *543:8 *2952:B 4.74058e-05
10 *543:8 *545:14 0
11 *543:8 *549:16 0.000797917
12 *543:8 *791:30 0
13 *2944:A1 *543:8 0.000362569
14 *2953:B2 *2948:A2 4.01733e-06
15 *3232:D *2948:A2 5.51188e-05
16 *3234:D *2948:A2 0.000247513
17 *3234:D *543:8 0.000273296
*RES
1 *2940:ZN *543:8 8.908 
2 *543:8 *2953:A2 4.5 
3 *543:8 *2948:A2 7.692 
*END

*D_NET *544 0.000814563
*CONN
*I *2942:A2 I *D gf180mcu_fd_sc_mcu7t5v0__nor2_1
*I *2943:A2 I *D gf180mcu_fd_sc_mcu7t5v0__nand2_1
*I *2941:ZN O *D gf180mcu_fd_sc_mcu7t5v0__nand2_1
*CAP
1 *2942:A2 3.76294e-05
2 *2943:A2 5.45414e-05
3 *2941:ZN 2.10026e-05
4 *544:8 0.000113173
5 *2942:A2 *2949:A2 3.80391e-05
6 *2942:A2 *545:32 3.19947e-05
7 *2943:A2 *2962:A1 1.44832e-05
8 *544:8 *2949:A2 4.84399e-05
9 *544:8 *545:14 9.0993e-05
10 *544:8 *545:32 1.46914e-05
11 *2941:A1 *2943:A2 0.000103381
12 *2941:A2 *2943:A2 0.000246194
*RES
1 *2941:ZN *544:8 9.38 
2 *544:8 *2943:A2 9.836 
3 *544:8 *2942:A2 9.38 
*END

*D_NET *545 0.00491242
*CONN
*I *2960:A2 I *D gf180mcu_fd_sc_mcu7t5v0__nand2_1
*I *2954:A3 I *D gf180mcu_fd_sc_mcu7t5v0__nand4_1
*I *2949:A1 I *D gf180mcu_fd_sc_mcu7t5v0__nand2_1
*I *2944:A2 I *D gf180mcu_fd_sc_mcu7t5v0__nor2_1
*I *2943:ZN O *D gf180mcu_fd_sc_mcu7t5v0__nand2_1
*CAP
1 *2960:A2 0.000529176
2 *2954:A3 0.000103838
3 *2949:A1 0
4 *2944:A2 0.000167923
5 *2943:ZN 0
6 *545:32 0.000832264
7 *545:14 0.000438927
8 *545:6 0.000470254
9 *2944:A2 *791:30 8.55819e-05
10 *2954:A3 *2949:A2 7.195e-05
11 *2954:A3 *2954:A2 3.08902e-05
12 *2954:A3 *2957:A2 0.000126963
13 *2960:A2 *2939:A2 0
14 *2960:A2 *2962:A1 7.20635e-05
15 *2960:A2 *2962:A2 0.000431526
16 *2960:A2 *2963:A2 7.43203e-06
17 *2960:A2 *553:12 0.000135795
18 *2960:A2 *925:12 0.000159942
19 *2960:A2 *926:6 3.73535e-05
20 *2960:A2 *926:10 0
21 *545:14 *2949:A2 4.36705e-05
22 *545:14 *791:30 0.000122747
23 *545:32 *2939:A2 0
24 *545:32 *2949:A2 8.10706e-06
25 *545:32 *2962:A1 1.94858e-05
26 *2939:A3 *2954:A3 0.000173637
27 *2940:A2 *545:14 2.70169e-05
28 *2942:A1 *2954:A3 0.000254207
29 *2942:A2 *545:32 3.19947e-05
30 *202:16 *2954:A3 7.43203e-06
31 *202:16 *2960:A2 8.64281e-06
32 *219:14 *545:14 2.69281e-06
33 *219:14 *545:32 4.51089e-05
34 *535:10 *545:32 0
35 *535:32 *2954:A3 0.000186796
36 *535:44 *2960:A2 0.000139144
37 *535:44 *545:32 1.81333e-05
38 *543:8 *2944:A2 1.60355e-05
39 *543:8 *545:14 0
40 *544:8 *545:14 9.0993e-05
41 *544:8 *545:32 1.46914e-05
*RES
1 *2943:ZN *545:6 9 
2 *545:6 *545:14 6.552 
3 *545:14 *2944:A2 5.792 
4 *545:14 *2949:A1 4.5 
5 *545:6 *545:32 1.292 
6 *545:32 *2954:A3 10.596 
7 *545:32 *2960:A2 13.484 
*END

*D_NET *546 0.00449932
*CONN
*I *2946:A2 I *D gf180mcu_fd_sc_mcu7t5v0__nand2_1
*I *2945:I1 I *D gf180mcu_fd_sc_mcu7t5v0__mux2_2
*I *2951:A1 I *D gf180mcu_fd_sc_mcu7t5v0__nor2_1
*I *2944:ZN O *D gf180mcu_fd_sc_mcu7t5v0__nor2_1
*CAP
1 *2946:A2 0.000356993
2 *2945:I1 0
3 *2951:A1 5.25942e-05
4 *2944:ZN 9.65465e-05
5 *546:25 0.000684691
6 *546:10 0.000476838
7 *2946:A2 *2936:A1 3.82054e-05
8 *2946:A2 *2947:A1 0.000105022
9 *2946:A2 *2948:B 0.000604106
10 *2946:A2 *922:34 7.70742e-05
11 *2951:A1 *791:30 3.73535e-05
12 *546:10 *2484:I 0.000452674
13 *546:10 *2949:A2 0
14 *546:10 *549:16 5.78604e-06
15 *546:25 *2952:B 0
16 *546:25 *3231:CLK 0.000317503
17 *546:25 *551:12 0.000589901
18 *546:25 *791:30 0.00016625
19 *2941:A1 *2951:A1 0
20 *2948:A1 *2946:A2 2.96977e-05
21 *2953:B2 *2946:A2 0.000126873
22 *2953:B2 *546:25 0.000111115
23 *3231:D *2946:A2 7.22742e-05
24 *3232:D *2946:A2 2.21435e-05
25 *155:10 *2946:A2 1.15275e-05
26 *155:10 *2951:A1 2.22657e-05
27 *155:10 *546:25 4.18832e-05
*RES
1 *2944:ZN *546:10 14.64 
2 *546:10 *2951:A1 4.956 
3 *546:10 *546:25 3.572 
4 *546:25 *2945:I1 4.5 
5 *546:25 *2946:A2 8.452 
*END

*D_NET *547 0.0010111
*CONN
*I *2948:B I *D gf180mcu_fd_sc_mcu7t5v0__oai31_1
*I *2946:ZN O *D gf180mcu_fd_sc_mcu7t5v0__nand2_1
*CAP
1 *2948:B 0.000145505
2 *2946:ZN 0.000145505
3 *2946:A2 *2948:B 0.000604106
4 *2948:A1 *2948:B 9.88736e-06
5 *3232:D *2948:B 0.000106097
*RES
1 *2946:ZN *2948:B 10.824 
*END

*D_NET *548 0.00587531
*CONN
*I *2948:A3 I *D gf180mcu_fd_sc_mcu7t5v0__oai31_1
*I *2955:A4 I *D gf180mcu_fd_sc_mcu7t5v0__nand4_1
*I *2950:A2 I *D gf180mcu_fd_sc_mcu7t5v0__aoi21_1
*I *2949:A2 I *D gf180mcu_fd_sc_mcu7t5v0__nand2_1
*I *2954:A4 I *D gf180mcu_fd_sc_mcu7t5v0__nand4_1
*I *2947:Z O *D gf180mcu_fd_sc_mcu7t5v0__and2_1
*CAP
1 *2948:A3 0.000323823
2 *2955:A4 6.64754e-05
3 *2950:A2 0.000140062
4 *2949:A2 0.000308837
5 *2954:A4 0
6 *2947:Z 0
7 *548:34 0.00029641
8 *548:12 0.000904698
9 *548:4 0.000829811
10 *2948:A3 *922:25 0
11 *2949:A2 *2484:I 0
12 *2949:A2 *2954:A2 1.20079e-05
13 *2949:A2 *2962:A1 8.84331e-05
14 *2949:A2 *791:30 0
15 *2950:A2 *2937:A2 1.55463e-05
16 *2950:A2 *2954:A2 0.000147305
17 *2950:A2 *923:19 9.1236e-05
18 *2955:A4 *2954:A1 0.000213194
19 *2955:A4 *2962:A1 5.66926e-06
20 *2955:A4 *923:34 4.4998e-05
21 *548:12 *2937:A2 0.000355832
22 *548:12 *2938:A1 2.40328e-06
23 *548:12 *2951:A2 5.4785e-05
24 *548:12 *2954:A2 3.40562e-05
25 *548:12 *921:10 9.88736e-06
26 *548:12 *921:21 0.000191702
27 *548:12 *923:19 5.0199e-05
28 *548:34 *2484:I 4.84492e-05
29 *548:34 *2962:A1 1.37763e-05
30 *548:34 *923:34 3.45972e-05
31 *2939:A4 *2950:A2 0.000108527
32 *2942:A1 *2949:A2 0.000166803
33 *2942:A1 *548:34 1.28891e-05
34 *2942:A2 *2949:A2 3.80391e-05
35 *2948:A1 *2948:A3 0.000245117
36 *2953:A1 *2948:A3 0
37 *2953:B2 *2948:A3 0.000292268
38 *2954:A3 *2949:A2 7.195e-05
39 *155:10 *2949:A2 0.000104535
40 *155:10 *548:12 0.000262693
41 *202:16 *2955:A4 3.40956e-05
42 *540:8 *548:12 0.00015398
43 *544:8 *2949:A2 4.84399e-05
44 *545:14 *2949:A2 4.36705e-05
45 *545:32 *2949:A2 8.10706e-06
46 *546:10 *2949:A2 0
*RES
1 *2947:Z *548:4 4.5 
2 *548:4 *548:12 5.016 
3 *548:12 *2954:A4 4.5 
4 *548:12 *2949:A2 16.084 
5 *548:12 *548:34 5.184 
6 *548:34 *2950:A2 10.368 
7 *548:34 *2955:A4 9.836 
8 *548:4 *2948:A3 16.16 
*END

*D_NET *549 0.00320714
*CONN
*I *2952:A2 I *D gf180mcu_fd_sc_mcu7t5v0__aoi21_1
*I *2953:A3 I *D gf180mcu_fd_sc_mcu7t5v0__oai32_1
*I *2949:ZN O *D gf180mcu_fd_sc_mcu7t5v0__nand2_1
*CAP
1 *2952:A2 0.000241367
2 *2953:A3 0
3 *2949:ZN 0.000442478
4 *549:16 0.000683846
5 *2952:A2 *687:53 0.000116106
6 *2952:A2 *687:97 3.06356e-05
7 *549:16 *687:40 6.74574e-05
8 *549:16 *687:49 0.00014902
9 *549:16 *759:54 2.40328e-06
10 *2944:A1 *549:16 0.00023573
11 *3234:D *2952:A2 0.000195237
12 *3234:D *549:16 0.000239159
13 *543:8 *549:16 0.000797917
14 *546:10 *549:16 5.78604e-06
*RES
1 *2949:ZN *549:16 17.756 
2 *549:16 *2953:A3 4.5 
3 *549:16 *2952:A2 15.4 
*END

*D_NET *550 0.00109041
*CONN
*I *2951:A2 I *D gf180mcu_fd_sc_mcu7t5v0__nor2_1
*I *2950:ZN O *D gf180mcu_fd_sc_mcu7t5v0__aoi21_1
*CAP
1 *2951:A2 0.000323339
2 *2950:ZN 0.000323339
3 *2951:A2 *2484:I 8.59214e-05
4 *2951:A2 *923:34 5.18232e-05
5 *155:10 *2951:A2 0.000251201
6 *548:12 *2951:A2 5.4785e-05
*RES
1 *2950:ZN *2951:A2 20.28 
*END

*D_NET *551 0.00287528
*CONN
*I *2953:B1 I *D gf180mcu_fd_sc_mcu7t5v0__oai32_1
*I *2952:B I *D gf180mcu_fd_sc_mcu7t5v0__aoi21_1
*I *2951:ZN O *D gf180mcu_fd_sc_mcu7t5v0__nor2_1
*CAP
1 *2953:B1 0
2 *2952:B 0.000146853
3 *2951:ZN 0.000198428
4 *551:12 0.000345282
5 *551:12 *2484:I 0
6 *551:12 *687:97 2.2541e-05
7 *551:12 *791:30 5.61233e-05
8 *2948:A2 *2952:B 0.000416235
9 *2953:A1 *2952:B 0.000358477
10 *2953:B2 *2952:B 6.84574e-06
11 *3235:D *551:12 0.000433469
12 *155:10 *551:12 0.000253715
13 *543:8 *2952:B 4.74058e-05
14 *546:25 *2952:B 0
15 *546:25 *551:12 0.000589901
*RES
1 *2951:ZN *551:12 16.388 
2 *551:12 *2952:B 6.324 
3 *551:12 *2953:B1 4.5 
*END

*D_NET *552 0.000558404
*CONN
*I *2957:A2 I *D gf180mcu_fd_sc_mcu7t5v0__aoi211_1
*I *2954:ZN O *D gf180mcu_fd_sc_mcu7t5v0__nand4_1
*CAP
1 *2957:A2 0.000107973
2 *2954:ZN 0.000107973
3 *2957:A2 *2954:A2 4.57884e-05
4 *2939:A3 *2957:A2 1.25576e-05
5 *2939:A4 *2957:A2 9.67612e-05
6 *2954:A3 *2957:A2 0.000126963
7 *202:16 *2957:A2 6.03884e-05
*RES
1 *2954:ZN *2957:A2 10.368 
*END

*D_NET *553 0.00311538
*CONN
*I *2961:A1 I *D gf180mcu_fd_sc_mcu7t5v0__or2_1
*I *2956:A2 I *D gf180mcu_fd_sc_mcu7t5v0__nor2_1
*I *2955:ZN O *D gf180mcu_fd_sc_mcu7t5v0__nand4_1
*CAP
1 *2961:A1 0.000154233
2 *2956:A2 0.000293601
3 *2955:ZN 0.000406328
4 *553:12 0.000854162
5 *2956:A2 *926:6 0.00026286
6 *2961:A1 *2962:A2 0.00011159
7 *2961:A1 *926:10 4.07251e-05
8 *553:12 *2955:A1 4.50449e-05
9 *553:12 *2957:B 0
10 *553:12 *925:12 0.000181814
11 *553:12 *926:6 5.76749e-06
12 *553:12 *926:10 0.000136499
13 *2950:B *553:12 0
14 *2960:A2 *553:12 0.000135795
15 *2963:A1 *2961:A1 0
16 *2963:A1 *553:12 0
17 *3236:D *553:12 8.53914e-05
18 *3238:D *2956:A2 3.56141e-05
19 *3319:I *2956:A2 4.28486e-05
20 *3319:I *553:12 6.73834e-05
21 *202:16 *553:12 0.000255722
*RES
1 *2955:ZN *553:12 13.028 
2 *553:12 *2956:A2 11.204 
3 *553:12 *2961:A1 10.14 
*END

*D_NET *554 0.00251491
*CONN
*I *2957:B I *D gf180mcu_fd_sc_mcu7t5v0__aoi211_1
*I *2958:A2 I *D gf180mcu_fd_sc_mcu7t5v0__xnor2_1
*I *2956:ZN O *D gf180mcu_fd_sc_mcu7t5v0__nor2_1
*CAP
1 *2957:B 0.000451897
2 *2958:A2 0.000518202
3 *2956:ZN 6.63052e-05
4 *2957:B *2958:A1 0.000136559
5 *2957:B *3236:CLK 0.000855992
6 *2957:B *686:36 4.13885e-05
7 *2957:B *703:56 2.97523e-05
8 *2958:A2 *2956:A1 0.000197957
9 *2958:A2 *3238:CLK 3.54047e-05
10 *2939:A4 *2957:B 0.000116627
11 *2950:B *2957:B 1.5015e-05
12 *3236:D *2957:B 4.46661e-05
13 *3319:I *2957:B 5.14116e-06
14 *553:12 *2957:B 0
*RES
1 *2956:ZN *2958:A2 18.988 
2 *2958:A2 *2957:B 13.408 
*END

*D_NET *555 0.000318139
*CONN
*I *2959:A2 I *D gf180mcu_fd_sc_mcu7t5v0__nor2_1
*I *2958:ZN O *D gf180mcu_fd_sc_mcu7t5v0__xnor2_1
*CAP
1 *2959:A2 5.73653e-05
2 *2958:ZN 5.73653e-05
3 *2959:A2 *2499:I 3.80298e-05
4 *2959:A2 *2956:A1 4.24048e-05
5 *2959:A2 *3238:CLK 8.46598e-05
6 *2959:A2 *686:42 3.83136e-05
*RES
1 *2958:ZN *2959:A2 18.684 
*END

*D_NET *556 0.000366732
*CONN
*I *2961:A2 I *D gf180mcu_fd_sc_mcu7t5v0__or2_1
*I *2960:ZN O *D gf180mcu_fd_sc_mcu7t5v0__nand2_1
*CAP
1 *2961:A2 0.000156988
2 *2960:ZN 0.000156988
3 *2961:A2 *2963:A2 5.27567e-05
*RES
1 *2960:ZN *2961:A2 10.292 
*END

*D_NET *557 0.0019878
*CONN
*I *2962:A2 I *D gf180mcu_fd_sc_mcu7t5v0__xor2_1
*I *2961:Z O *D gf180mcu_fd_sc_mcu7t5v0__or2_1
*CAP
1 *2962:A2 0.000262218
2 *2961:Z 0.000262218
3 *2962:A2 *2963:A2 0.000631164
4 *2962:A2 *925:12 0.000200659
5 *2962:A2 *926:10 8.8425e-05
6 *2960:A2 *2962:A2 0.000431526
7 *2961:A1 *2962:A2 0.00011159
*RES
1 *2961:Z *2962:A2 21.8 
*END

*D_NET *558 0.00170602
*CONN
*I *2963:A2 I *D gf180mcu_fd_sc_mcu7t5v0__nor2_1
*I *2962:Z O *D gf180mcu_fd_sc_mcu7t5v0__xor2_1
*CAP
1 *2963:A2 0.000406135
2 *2962:Z 0.000406135
3 *2963:A2 *926:6 0.000202397
4 *2960:A2 *2963:A2 7.43203e-06
5 *2961:A2 *2963:A2 5.27567e-05
6 *2962:A2 *2963:A2 0.000631164
*RES
1 *2962:Z *2963:A2 12.572 
*END

*D_NET *559 0.00263402
*CONN
*I *2979:A1 I *D gf180mcu_fd_sc_mcu7t5v0__nor2_1
*I *2974:A1 I *D gf180mcu_fd_sc_mcu7t5v0__nor3_1
*I *2964:ZN O *D gf180mcu_fd_sc_mcu7t5v0__nand2_1
*CAP
1 *2979:A1 0.000358428
2 *2974:A1 0
3 *2964:ZN 6.58332e-05
4 *559:14 0.000424261
5 *2979:A1 *2974:A3 3.79785e-05
6 *2979:A1 *2978:C1 1.15275e-05
7 *2979:A1 *2982:C1 0.000103141
8 *2979:A1 *3015:B2 7.88344e-05
9 *2979:A1 *574:16 0.000527454
10 *2979:A1 *851:6 6.7518e-05
11 *559:14 *2974:A3 2.96621e-05
12 *559:14 *2976:A2 0.000158809
13 *559:14 *2982:C1 2.96621e-05
14 *559:14 *567:20 0.000260718
15 *559:14 *724:31 0.000466437
16 *559:14 *851:6 1.3758e-05
*RES
1 *2964:ZN *559:14 14.944 
2 *559:14 *2974:A1 4.5 
3 *559:14 *2979:A1 7.768 
*END

*D_NET *560 0.00504508
*CONN
*I *3051:A1 I *D gf180mcu_fd_sc_mcu7t5v0__oai21_1
*I *2966:A3 I *D gf180mcu_fd_sc_mcu7t5v0__nand3_1
*I *2965:ZN O *D gf180mcu_fd_sc_mcu7t5v0__aoi21_1
*CAP
1 *3051:A1 0
2 *2966:A3 0.000287251
3 *2965:ZN 0.000388954
4 *560:14 0.000676205
5 *2966:A3 *3053:A1 2.6126e-05
6 *2966:A3 *3247:CLK 4.48273e-05
7 *2966:A3 *736:46 7.24161e-06
8 *2966:A3 *736:57 1.52691e-05
9 *560:14 *2965:A1 4.29636e-06
10 *560:14 *2984:A2 7.86714e-05
11 *560:14 *2985:A2 8.59527e-06
12 *560:14 *2986:A1 0.000134636
13 *560:14 *2986:A2 0.000134048
14 *560:14 *2988:A1 0.000554311
15 *560:14 *2993:A1 0.000370174
16 *560:14 *3048:B2 0.000498812
17 *560:14 *3049:A2 1.38592e-06
18 *560:14 *3053:A1 4.7095e-05
19 *560:14 *580:12 0.000125479
20 *560:14 *634:16 0.0012963
21 *2966:A2 *2966:A3 0.000227882
22 *3248:D *2966:A3 6.01682e-05
23 *3248:D *560:14 3.2823e-06
24 *221:12 *2966:A3 1.03863e-05
25 *227:32 *560:14 4.36821e-05
*RES
1 *2965:ZN *560:14 19.352 
2 *560:14 *2966:A3 6.856 
3 *560:14 *3051:A1 4.5 
*END

*D_NET *561 0.00173075
*CONN
*I *2968:A2 I *D gf180mcu_fd_sc_mcu7t5v0__and2_1
*I *2967:A2 I *D gf180mcu_fd_sc_mcu7t5v0__nand2_1
*I *2966:ZN O *D gf180mcu_fd_sc_mcu7t5v0__nand3_1
*CAP
1 *2968:A2 5.61867e-05
2 *2967:A2 8.1406e-05
3 *2966:ZN 0.000243359
4 *561:8 0.000380952
5 *561:8 *696:29 1.72912e-05
6 *561:8 *696:40 5.67536e-05
7 *2967:A1 *2967:A2 0.000254112
8 *2967:A1 *2968:A2 0.000376901
9 *3248:D *2968:A2 4.6818e-05
10 *3248:D *561:8 0.000186942
11 *229:20 *2967:A2 3.00299e-05
*RES
1 *2966:ZN *561:8 6.628 
2 *561:8 *2967:A2 5.336 
3 *561:8 *2968:A2 5.488 
*END

*D_NET *562 0.0264542
*CONN
*I *3021:A2 I *D gf180mcu_fd_sc_mcu7t5v0__aoi22_1
*I *2989:A2 I *D gf180mcu_fd_sc_mcu7t5v0__aoi22_1
*I *3029:A2 I *D gf180mcu_fd_sc_mcu7t5v0__aoi22_1
*I *3037:A2 I *D gf180mcu_fd_sc_mcu7t5v0__aoi22_1
*I *3045:A2 I *D gf180mcu_fd_sc_mcu7t5v0__aoi22_1
*I *2997:A2 I *D gf180mcu_fd_sc_mcu7t5v0__aoi22_1
*I *3013:A2 I *D gf180mcu_fd_sc_mcu7t5v0__aoi22_1
*I *3005:A2 I *D gf180mcu_fd_sc_mcu7t5v0__aoi22_1
*I *2967:ZN O *D gf180mcu_fd_sc_mcu7t5v0__nand2_1
*CAP
1 *3021:A2 4.20666e-05
2 *2989:A2 7.32142e-05
3 *3029:A2 0.00036207
4 *3037:A2 0.000317872
5 *3045:A2 0.000414557
6 *2997:A2 1.18298e-05
7 *3013:A2 0
8 *3005:A2 0.00022083
9 *2967:ZN 1.72849e-05
10 *562:101 0.000643246
11 *562:93 0.000293002
12 *562:78 0.0017082
13 *562:36 0.000440238
14 *562:18 0.000263196
15 *562:16 0.000830929
16 *562:8 0.00213935
17 *2989:A2 *3035:C1 0.000109236
18 *2989:A2 *683:37 0.000360226
19 *2997:A2 *2997:A1 0.000278996
20 *2997:A2 *563:35 0.000342519
21 *2997:A2 *695:16 2.23783e-05
22 *3005:A2 *3005:B1 0.000727667
23 *3021:A2 *3035:B2 8.54902e-05
24 *3021:A2 *3037:B1 8.38532e-05
25 *3021:A2 *563:90 1.11891e-05
26 *3029:A2 *2525:A1 4.98138e-05
27 *3029:A2 *2750:A1 5.27567e-06
28 *3029:A2 *2990:A2 0.000511433
29 *3029:A2 *3029:A1 0.00013063
30 *3029:A2 *3029:B1 0.000332679
31 *3029:A2 *3366:I 8.06703e-05
32 *3029:A2 *563:70 0.000391116
33 *3029:A2 *683:37 1.8344e-05
34 *3029:A2 *739:10 0.000307324
35 *3037:A2 *2995:A2 1.20871e-05
36 *3037:A2 *3022:A2 0.000622514
37 *3037:A2 *3036:A1 0.000261345
38 *3037:A2 *3074:A1 0
39 *3045:A2 *2997:A1 0.000666406
40 *3045:A2 *2998:A2 7.3227e-05
41 *3045:A2 *3045:A1 0.000190317
42 *3045:A2 *3045:B1 0
43 *3045:A2 *3046:A1 0
44 *3045:A2 *563:35 0
45 *3045:A2 *695:16 0
46 *562:8 *3003:C 0.000278996
47 *562:8 *563:10 9.34379e-05
48 *562:16 *3003:A1 9.26705e-05
49 *562:16 *3005:B1 7.32209e-05
50 *562:16 *3011:B2 0.0001565
51 *562:16 *3012:A2 0
52 *562:16 *3376:I 0.000743319
53 *562:16 *563:18 0.000438612
54 *562:18 *3005:B1 0.000140167
55 *562:36 *563:35 0.000780332
56 *562:36 *695:16 0.000373528
57 *562:78 *3003:C 0.000290193
58 *562:78 *3021:B2 0.000459053
59 *562:78 *3035:B2 0.000322654
60 *562:78 *3036:A1 0.000613085
61 *562:78 *563:10 5.27305e-05
62 *562:78 *563:66 0.000630349
63 *562:78 *759:34 0.00185918
64 *562:78 *820:8 0.000172284
65 *562:78 *820:12 0.00163971
66 *562:93 *2995:A2 2.25259e-05
67 *562:93 *3021:A1 2.23385e-05
68 *562:93 *3022:A2 0.000132634
69 *562:101 *2750:A1 4.68843e-05
70 *562:101 *2995:A2 2.96977e-05
71 *562:101 *3035:C1 0.000253521
72 *562:101 *563:70 0.000486998
73 DAT_O[0] *3029:A2 2.43497e-05
74 DAT_O[5] *3029:A2 0.000122898
75 *3003:A2 *562:16 0.00034033
76 *3112:A1 *562:78 0.000544119
77 *3242:D *3005:A2 0
78 *3242:D *3045:A2 2.7435e-05
79 *3336:I *3037:A2 0.00143977
80 *3336:I *562:78 6.33531e-06
81 *3339:I *3029:A2 6.04444e-06
82 *3341:I *3029:A2 0.000187262
83 *229:20 *562:16 9.84466e-05
*RES
1 *2967:ZN *562:8 9.684 
2 *562:8 *562:16 11.264 
3 *562:16 *562:18 0.38 
4 *562:18 *3005:A2 6.628 
5 *562:18 *3013:A2 4.5 
6 *562:16 *562:36 6.4 
7 *562:36 *2997:A2 9.836 
8 *562:36 *3045:A2 21.268 
9 *562:8 *562:78 23.12 
10 *562:78 *3037:A2 18.212 
11 *562:78 *562:93 0.532 
12 *562:93 *562:101 2.432 
13 *562:101 *3029:A2 19.2 
14 *562:101 *2989:A2 6.02 
15 *562:93 *3021:A2 14.032 
*END

*D_NET *563 0.0241107
*CONN
*I *3037:B1 I *D gf180mcu_fd_sc_mcu7t5v0__aoi22_1
*I *3021:B1 I *D gf180mcu_fd_sc_mcu7t5v0__aoi22_1
*I *2989:B1 I *D gf180mcu_fd_sc_mcu7t5v0__aoi22_1
*I *3029:B1 I *D gf180mcu_fd_sc_mcu7t5v0__aoi22_1
*I *3013:B1 I *D gf180mcu_fd_sc_mcu7t5v0__aoi22_1
*I *2997:B1 I *D gf180mcu_fd_sc_mcu7t5v0__aoi22_1
*I *3045:B1 I *D gf180mcu_fd_sc_mcu7t5v0__aoi22_1
*I *3005:B1 I *D gf180mcu_fd_sc_mcu7t5v0__aoi22_1
*I *2968:Z O *D gf180mcu_fd_sc_mcu7t5v0__and2_1
*CAP
1 *3037:B1 0.000523587
2 *3021:B1 0
3 *2989:B1 0
4 *3029:B1 0.000350223
5 *3013:B1 0.000127627
6 *2997:B1 0
7 *3045:B1 0.000199045
8 *3005:B1 0.000115769
9 *2968:Z 0.00017641
10 *563:90 0.000561172
11 *563:70 0.000514812
12 *563:66 0.00147565
13 *563:35 0.0004638
14 *563:18 0.000995769
15 *563:10 0.0019375
16 *3005:B1 *3005:B2 1.95806e-05
17 *3005:B1 *3013:A1 0.000379274
18 *3005:B1 *3014:A2 0.000156912
19 *3013:B1 *3004:A2 1.27895e-05
20 *3013:B1 *3005:B2 8.69862e-05
21 *3029:B1 *3029:A1 5.97012e-05
22 *3029:B1 *3366:I 0.000135047
23 *3029:B1 *3371:I 6.66121e-05
24 *3029:B1 *739:10 0.000278459
25 *3029:B1 *769:43 1.53727e-05
26 *3037:B1 *3035:B2 0.000238847
27 *3037:B1 *3035:C2 1.12495e-05
28 *3037:B1 *729:10 0
29 *3037:B1 *745:14 9.43788e-05
30 *3045:B1 *2997:A1 0
31 *3045:B1 *2997:B2 3.39128e-05
32 *3045:B1 *2998:A2 0.000251062
33 *3045:B1 *3045:B2 0.000146745
34 *3045:B1 *695:16 5.14116e-06
35 *563:10 *3020:A1 0.000439272
36 *563:10 *3376:I 7.40206e-05
37 *563:18 *3003:C 0.000648316
38 *563:18 *3004:A2 0.000176687
39 *563:18 *3005:B2 2.00975e-05
40 *563:18 *3013:B2 1.53689e-05
41 *563:18 *3112:C 9.17202e-06
42 *563:18 *3376:I 0.000385757
43 *563:18 *772:10 0.000137776
44 *563:35 *2996:A2 0.000100283
45 *563:35 *2997:A1 3.19219e-05
46 *563:35 *2997:B2 1.41392e-05
47 *563:35 *3012:A2 0.000144064
48 *563:35 *695:16 1.20889e-05
49 *563:66 *2995:A2 1.81333e-05
50 *563:66 *3020:A1 0.00206075
51 *563:66 *3021:B2 0.000955854
52 *563:66 *3035:B1 3.21564e-05
53 *563:66 *616:22 0.000547434
54 *563:70 *2525:A1 0.000246194
55 *563:70 *2756:A1 2.57058e-06
56 *563:70 *2995:A2 0.000186796
57 *563:70 *3035:A2 7.29653e-05
58 *563:70 *3035:B1 5.76063e-06
59 *563:70 *3035:B2 3.00299e-05
60 *563:90 *2995:A2 4.06416e-05
61 *563:90 *3021:B2 3.19219e-05
62 *563:90 *3035:B2 2.22814e-05
63 *563:90 *3035:C2 1.99058e-05
64 DAT_O[0] *3029:B1 0.000313342
65 DAT_O[4] *3037:B1 3.96688e-05
66 DAT_O[5] *3037:B1 0.000147305
67 DAT_O[6] *3037:B1 0.000486949
68 *2997:A2 *563:35 0.000342519
69 *3003:A2 *563:18 0.000772516
70 *3005:A2 *3005:B1 0.000727667
71 *3021:A2 *3037:B1 8.38532e-05
72 *3021:A2 *563:90 1.11891e-05
73 *3029:A2 *3029:B1 0.000332679
74 *3029:A2 *563:70 0.000391116
75 *3045:A2 *3045:B1 0
76 *3045:A2 *563:35 0
77 *3112:A1 *563:66 0.000300376
78 *3263:D *563:66 0.000851626
79 *3268:D *563:18 2.68222e-05
80 *3341:I *3029:B1 0.000131143
81 *3342:I *3037:B1 0
82 *229:20 *563:10 0.000540237
83 *562:8 *563:10 9.34379e-05
84 *562:16 *3005:B1 7.32209e-05
85 *562:16 *563:18 0.000438612
86 *562:18 *3005:B1 0.000140167
87 *562:36 *563:35 0.000780332
88 *562:78 *563:10 5.27305e-05
89 *562:78 *563:66 0.000630349
90 *562:101 *563:70 0.000486998
*RES
1 *2968:Z *563:10 11.584 
2 *563:10 *563:18 11.264 
3 *563:18 *3005:B1 7.084 
4 *563:18 *563:35 12.496 
5 *563:35 *3045:B1 6.4 
6 *563:35 *2997:B1 4.5 
7 *563:18 *3013:B1 5.26 
8 *563:10 *563:66 17.1 
9 *563:66 *563:70 7.16 
10 *563:70 *3029:B1 17.756 
11 *563:70 *2989:B1 4.5 
12 *563:66 *563:90 0.532 
13 *563:90 *3021:B1 9 
14 *563:90 *3037:B1 13.864 
*END

*D_NET *564 0.00388144
*CONN
*I *2985:A2 I *D gf180mcu_fd_sc_mcu7t5v0__nor2_1
*I *2971:A1 I *D gf180mcu_fd_sc_mcu7t5v0__nor2_1
*I *2969:Z O *D gf180mcu_fd_sc_mcu7t5v0__or2_1
*CAP
1 *2985:A2 0.000308741
2 *2971:A1 0.000239077
3 *2969:Z 0
4 *564:4 0.000547818
5 *2971:A1 *2971:A2 3.00299e-05
6 *2971:A1 *566:10 0.000217029
7 *2971:A1 *575:8 0.000643892
8 *2971:A1 *764:6 2.57058e-06
9 *2971:A1 *764:18 0.000713148
10 *2985:A2 *2965:A1 7.73593e-05
11 *2985:A2 *735:34 7.8324e-05
12 *2985:A2 *735:49 5.19228e-05
13 *2985:A2 *735:64 0.000181022
14 *2985:A2 *775:20 0.000135941
15 *2985:A2 *775:26 0.00048051
16 *2532:A3 *2971:A1 3.07734e-05
17 *227:32 *2985:A2 2.9909e-05
18 *229:12 *2985:A2 0.000104779
19 *560:14 *2985:A2 8.59527e-06
*RES
1 *2969:Z *564:4 4.5 
2 *564:4 *2971:A1 7.768 
3 *564:4 *2985:A2 16.464 
*END

*D_NET *565 0.017809
*CONN
*I *3047:A1 I *D gf180mcu_fd_sc_mcu7t5v0__nand3_1
*I *2980:A2 I *D gf180mcu_fd_sc_mcu7t5v0__nor2_1
*I *2981:A3 I *D gf180mcu_fd_sc_mcu7t5v0__nor3_1
*I *2971:A2 I *D gf180mcu_fd_sc_mcu7t5v0__nor2_1
*I *2979:A2 I *D gf180mcu_fd_sc_mcu7t5v0__nor2_1
*I *2970:ZN O *D gf180mcu_fd_sc_mcu7t5v0__nand4_1
*CAP
1 *3047:A1 0.000269844
2 *2980:A2 0
3 *2981:A3 0.000204162
4 *2971:A2 6.21081e-05
5 *2979:A2 4.03464e-05
6 *2970:ZN 0.000568286
7 *565:37 0.000274384
8 *565:35 0.000132992
9 *565:31 0.000813205
10 *565:8 0.00102711
11 *2971:A2 *2999:B2 0.000392033
12 *2971:A2 *566:10 0.000317494
13 *2971:A2 *848:12 1.40547e-05
14 *2979:A2 *2976:A3 0.000239827
15 *2979:A2 *574:16 4.04599e-05
16 *2979:A2 *763:8 0.000135056
17 *2981:A3 *2531:A1 0
18 *2981:A3 *2981:A1 9.17202e-06
19 *2981:A3 *2981:A2 9.88736e-06
20 *2981:A3 *2982:A1 0
21 *2981:A3 *2984:A2 0.000489649
22 *2981:A3 *3001:A1 0
23 *2981:A3 *764:18 7.83779e-05
24 *3047:A1 *3015:B2 0.000220559
25 *3047:A1 *3379:I 0.000151957
26 *3047:A1 *774:26 9.96978e-05
27 *3047:A1 *775:20 3.19854e-05
28 *565:8 *2597:A2 2.23783e-05
29 *565:8 *567:20 0.00419607
30 *565:8 *568:8 0.000984041
31 *565:8 *763:14 0.000720087
32 *565:31 *2597:A2 0.000196696
33 *565:31 *2999:A1 0.000387765
34 *565:31 *2999:B2 0.000223893
35 *565:31 *3001:A1 0.000185185
36 *565:31 *3009:A1 7.90989e-05
37 *565:31 *3307:I 0.000134938
38 *565:31 *3362:I 0.000110297
39 *565:31 *3379:I 0.000135941
40 *565:31 *780:8 1.75634e-05
41 *565:31 *780:17 4.67146e-05
42 *565:31 *782:14 5.4634e-05
43 *565:35 *2999:B2 0.000883511
44 *565:35 *566:10 0.000362608
45 *565:35 *575:8 5.75752e-06
46 *565:35 *575:15 3.83835e-06
47 *565:35 *776:22 0.000187647
48 *565:37 *2999:B2 5.4634e-05
49 *565:37 *566:10 7.83779e-05
50 *2508:A1 *3047:A1 0.00051482
51 *2509:A1 *3047:A1 0.000503378
52 *2509:A2 *3047:A1 8.05328e-06
53 *2532:A3 *2971:A2 3.84832e-06
54 *2598:B *565:8 0.00132919
55 *2598:B *565:31 0.000178885
56 *2969:A1 *565:35 0.000100612
57 *2971:A1 *2971:A2 3.00299e-05
58 *2972:A1 *565:8 4.44366e-05
59 *2972:A2 *565:8 0.000140696
60 *222:8 *3047:A1 0.000117908
61 *222:8 *565:31 0.000142801
*RES
1 *2970:ZN *565:8 23.516 
2 *565:8 *2979:A2 9.684 
3 *565:8 *565:31 13.94 
4 *565:31 *565:35 7.008 
5 *565:35 *565:37 0.228 
6 *565:37 *2971:A2 5.868 
7 *565:37 *2981:A3 15.02 
8 *565:35 *2980:A2 4.5 
9 *565:31 *3047:A1 12.724 
*END

*D_NET *566 0.00370859
*CONN
*I *3363:I I *D gf180mcu_fd_sc_mcu7t5v0__buf_2
*I *2978:A2 I *D gf180mcu_fd_sc_mcu7t5v0__aoi222_1
*I *2971:ZN O *D gf180mcu_fd_sc_mcu7t5v0__nor2_1
*CAP
1 *3363:I 2.21636e-05
2 *2978:A2 0.000135458
3 *2971:ZN 0.000126747
4 *566:10 0.000284369
5 *2978:A2 *2983:A1 7.91023e-05
6 *2978:A2 *693:98 0.000404433
7 *2978:A2 *724:39 8.8425e-05
8 *2978:A2 *775:26 0.00010146
9 *2978:A2 *783:20 2.6126e-05
10 *3363:I *2983:A1 2.23477e-05
11 *3363:I *3009:A1 2.96621e-05
12 *3363:I *724:39 2.6126e-05
13 *566:10 *575:8 3.42696e-05
14 *566:10 *724:39 0.000426133
15 *2971:A1 *566:10 0.000217029
16 *2971:A2 *566:10 0.000317494
17 *2976:A1 *2978:A2 0.000331102
18 *2976:A1 *566:10 0.000401224
19 *2980:A1 *566:10 0.000193933
20 *565:35 *566:10 0.000362608
21 *565:37 *566:10 7.83779e-05
*RES
1 *2971:ZN *566:10 12.04 
2 *566:10 *2978:A2 10.976 
3 *566:10 *3363:I 9.228 
*END

*D_NET *567 0.0106546
*CONN
*I *2976:A2 I *D gf180mcu_fd_sc_mcu7t5v0__nor3_1
*I *2974:A2 I *D gf180mcu_fd_sc_mcu7t5v0__nor3_1
*I *2972:ZN O *D gf180mcu_fd_sc_mcu7t5v0__nand2_1
*CAP
1 *2976:A2 5.86045e-05
2 *2974:A2 0
3 *2972:ZN 0.0009608
4 *567:20 0.00101941
5 *2976:A2 *569:12 0.000321946
6 *2976:A2 *724:31 9.02535e-05
7 *2976:A2 *775:26 0.000151957
8 *567:20 *2565:A1 4.43253e-05
9 *567:20 *2566:A1 0
10 *567:20 *2601:A1 0
11 *567:20 *2603:A1 1.10806e-05
12 *567:20 *2603:A2 0.00032652
13 *567:20 *2974:A3 0.000114699
14 *567:20 *3000:C2 6.33531e-06
15 *567:20 *724:16 3.17618e-05
16 *567:20 *724:31 0.000169691
17 *567:20 *735:23 0.000266775
18 *567:20 *763:18 0.000580622
19 *567:20 *763:20 0.000889101
20 *567:20 *798:63 0
21 *567:20 *798:74 4.30102e-05
22 *567:20 *798:80 0
23 *2598:B *567:20 0.000587475
24 *2972:A1 *567:20 0.00036465
25 *559:14 *2976:A2 0.000158809
26 *559:14 *567:20 0.000260718
27 *565:8 *567:20 0.00419607
*RES
1 *2972:ZN *567:20 33.276 
2 *567:20 *2974:A2 9 
3 *567:20 *2976:A2 10.292 
*END

*D_NET *568 0.00916477
*CONN
*I *2976:A3 I *D gf180mcu_fd_sc_mcu7t5v0__nor3_1
*I *2974:A3 I *D gf180mcu_fd_sc_mcu7t5v0__nor3_1
*I *2973:ZN O *D gf180mcu_fd_sc_mcu7t5v0__nand2_1
*CAP
1 *2976:A3 0.000375705
2 *2974:A3 0.000359592
3 *2973:ZN 0.00152306
4 *568:8 0.00225835
5 *2974:A3 *3015:B2 0.000291377
6 *2974:A3 *724:31 1.20079e-05
7 *2974:A3 *851:6 0.000406112
8 *2976:A3 *2597:A2 5.59457e-05
9 *2976:A3 *2978:C1 0.000522895
10 *2976:A3 *2978:C2 0.000122925
11 *2976:A3 *3378:I 2.17248e-05
12 *2976:A3 *574:16 0.000278029
13 *2976:A3 *680:35 0
14 *2976:A3 *763:14 0.000181957
15 *568:8 *2503:I 7.95952e-05
16 *568:8 *2845:A1 0
17 *568:8 *2845:A2 0
18 *568:8 *757:10 1.12495e-05
19 *568:8 *763:14 0.000480196
20 *568:8 *763:50 0
21 *568:8 *884:32 0
22 *2598:A1 *568:8 0
23 *2601:A2 *568:8 0.000714514
24 *2620:A2 *2976:A3 0
25 *2620:A2 *568:8 0
26 *2620:A3 *568:8 0
27 *2844:A1 *568:8 0
28 *2972:A2 *568:8 6.01597e-05
29 *2979:A1 *2974:A3 3.79785e-05
30 *2979:A2 *2976:A3 0.000239827
31 *211:19 *568:8 0
32 *226:10 *568:8 3.16765e-06
33 *559:14 *2974:A3 2.96621e-05
34 *565:8 *568:8 0.000984041
35 *567:20 *2974:A3 0.000114699
*RES
1 *2973:ZN *568:8 23.212 
2 *568:8 *2974:A3 11.964 
3 *568:8 *2976:A3 13.104 
*END

*D_NET *569 0.00447229
*CONN
*I *3379:I I *D gf180mcu_fd_sc_mcu7t5v0__buf_1
*I *2978:B1 I *D gf180mcu_fd_sc_mcu7t5v0__aoi222_1
*I *2974:ZN O *D gf180mcu_fd_sc_mcu7t5v0__nor3_1
*CAP
1 *3379:I 0.000462239
2 *2978:B1 0
3 *2974:ZN 0.000150683
4 *569:12 0.000612922
5 *3379:I *2597:A1 0.000179657
6 *3379:I *2978:A1 6.79364e-05
7 *3379:I *2978:B2 0.000142194
8 *3379:I *2999:B2 7.48287e-05
9 *3379:I *2999:C1 3.78334e-05
10 *3379:I *3009:A1 0
11 *3379:I *3015:B2 0.000454898
12 *3379:I *3362:I 1.2339e-05
13 *3379:I *575:15 7.01163e-05
14 *3379:I *575:30 8.42428e-05
15 *3379:I *693:98 2.05156e-05
16 *3379:I *735:23 1.49146e-05
17 *3379:I *782:8 3.73627e-05
18 *3379:I *782:14 6.12935e-05
19 *569:12 *2597:A1 8.55327e-05
20 *569:12 *2978:A1 0.000404441
21 *569:12 *2982:C1 0.000190317
22 *569:12 *3378:I 5.40468e-05
23 *569:12 *574:16 0
24 *569:12 *693:98 2.05156e-05
25 *569:12 *775:26 0.000133373
26 *569:12 *776:22 0.000207219
27 *2976:A1 *569:12 0.000206333
28 *2976:A2 *569:12 0.000321946
29 *3047:A1 *3379:I 0.000151957
30 *222:8 *3379:I 7.6687e-05
31 *565:31 *3379:I 0.000135941
*RES
1 *2974:ZN *569:12 16.388 
2 *569:12 *2978:B1 4.5 
3 *569:12 *3379:I 18.744 
*END

*D_NET *570 0.000501607
*CONN
*I *3047:A2 I *D gf180mcu_fd_sc_mcu7t5v0__nand3_1
*I *2975:ZN O *D gf180mcu_fd_sc_mcu7t5v0__clkinv_1
*CAP
1 *3047:A2 4.59801e-05
2 *2975:ZN 4.59801e-05
3 *2509:A1 *3047:A2 0.000269857
4 *229:12 *3047:A2 0.00013979
*RES
1 *2975:ZN *3047:A2 18.836 
*END

*D_NET *571 0.00217393
*CONN
*I *3378:I I *D gf180mcu_fd_sc_mcu7t5v0__buf_1
*I *2978:C2 I *D gf180mcu_fd_sc_mcu7t5v0__aoi222_1
*I *2976:ZN O *D gf180mcu_fd_sc_mcu7t5v0__nor3_1
*CAP
1 *3378:I 0.000246547
2 *2978:C2 0.000115102
3 *2976:ZN 0
4 *571:4 0.000361649
5 *2978:C2 *2978:C1 0
6 *2978:C2 *776:22 1.76818e-05
7 *3378:I *2597:A1 0.000372137
8 *3378:I *2597:A2 7.32209e-05
9 *3378:I *2978:B2 8.51934e-05
10 *3378:I *2978:C1 0.000623857
11 *3378:I *776:22 7.98484e-05
12 *2976:A3 *2978:C2 0.000122925
13 *2976:A3 *3378:I 2.17248e-05
14 *569:12 *3378:I 5.40468e-05
*RES
1 *2976:ZN *571:4 4.5 
2 *571:4 *2978:C2 5.716 
3 *571:4 *3378:I 7.92 
*END

*D_NET *572 0.000661844
*CONN
*I *3047:A3 I *D gf180mcu_fd_sc_mcu7t5v0__nand3_1
*I *2977:ZN O *D gf180mcu_fd_sc_mcu7t5v0__clkinv_1
*CAP
1 *3047:A3 2.53298e-05
2 *2977:ZN 2.53298e-05
3 *3047:A3 *3017:A1 0.000305592
4 *3047:A3 *765:54 0.000305592
*RES
1 *2977:ZN *3047:A3 9.836 
*END

*D_NET *573 0.00101905
*CONN
*I *2983:A1 I *D gf180mcu_fd_sc_mcu7t5v0__nand2_1
*I *2978:ZN O *D gf180mcu_fd_sc_mcu7t5v0__aoi222_1
*CAP
1 *2983:A1 0.000248394
2 *2978:ZN 0.000248394
3 *2983:A1 *2502:I 8.44791e-05
4 *2983:A1 *3009:A1 7.87145e-05
5 *2983:A1 *693:98 5.28608e-05
6 *2983:A1 *724:39 0.000137776
7 *2983:A1 *783:20 6.69811e-05
8 *2978:A2 *2983:A1 7.91023e-05
9 *3363:I *2983:A1 2.23477e-05
*RES
1 *2978:ZN *2983:A1 11.204 
*END

*D_NET *574 0.00395035
*CONN
*I *2982:A2 I *D gf180mcu_fd_sc_mcu7t5v0__aoi222_1
*I *3360:I I *D gf180mcu_fd_sc_mcu7t5v0__buf_2
*I *2979:ZN O *D gf180mcu_fd_sc_mcu7t5v0__nor2_1
*CAP
1 *2982:A2 0
2 *3360:I 2.22849e-05
3 *2979:ZN 0.000533856
4 *574:16 0.000556141
5 *3360:I *2978:A1 0.000379274
6 *3360:I *2982:B2 2.74661e-05
7 *3360:I *783:20 0.000310356
8 *574:16 *2978:C1 1.2339e-05
9 *574:16 *2982:C1 0.000467548
10 *574:16 *763:8 0.000135056
11 *574:16 *775:26 0.000450514
12 *574:16 *775:32 8.55327e-05
13 *574:16 *776:22 0
14 *574:16 *783:20 9.27472e-05
15 *574:16 *851:6 2.59005e-05
16 *2976:A1 *574:16 5.38563e-06
17 *2976:A3 *574:16 0.000278029
18 *2979:A1 *574:16 0.000527454
19 *2979:A2 *574:16 4.04599e-05
20 *569:12 *574:16 0
*RES
1 *2979:ZN *574:16 19.428 
2 *574:16 *3360:I 5.488 
3 *574:16 *2982:A2 4.5 
*END

*D_NET *575 0.00403976
*CONN
*I *2991:B1 I *D gf180mcu_fd_sc_mcu7t5v0__aoi222_1
*I *3015:B1 I *D gf180mcu_fd_sc_mcu7t5v0__aoi222_1
*I *2999:B1 I *D gf180mcu_fd_sc_mcu7t5v0__aoi222_1
*I *3359:I I *D gf180mcu_fd_sc_mcu7t5v0__buf_2
*I *2980:ZN O *D gf180mcu_fd_sc_mcu7t5v0__nor2_1
*CAP
1 *2991:B1 0.000106744
2 *3015:B1 0
3 *2999:B1 0
4 *3359:I 0
5 *2980:ZN 0.000241034
6 *575:30 0.000335979
7 *575:15 0.000370643
8 *575:8 0.000382442
9 *2991:B1 *2991:B2 0.000285575
10 *2991:B1 *2991:C1 0.000162604
11 *2991:B1 *2991:C2 9.88736e-06
12 *2991:B1 *3015:B2 2.6126e-05
13 *2991:B1 *765:54 8.02751e-06
14 *2991:B1 *774:26 3.49991e-05
15 *575:8 *2969:A2 5.4883e-05
16 *575:8 *764:18 0.000125838
17 *575:15 *2999:B2 5.14664e-07
18 *575:15 *2999:C1 3.08902e-05
19 *575:15 *764:18 0.00013586
20 *575:15 *774:26 0
21 *575:30 *2999:C1 0.000203975
22 *575:30 *3015:B2 0.000295329
23 *575:30 *764:18 3.75951e-05
24 *575:30 *774:26 9.7011e-05
25 *575:30 *782:14 6.04444e-06
26 *575:30 *782:34 0.000117565
27 *2969:A1 *575:8 6.9767e-05
28 *2969:A1 *575:15 1.20079e-05
29 *2971:A1 *575:8 0.000643892
30 *2980:A1 *575:8 4.63008e-05
31 *3379:I *575:15 7.01163e-05
32 *3379:I *575:30 8.42428e-05
33 *565:35 *575:8 5.75752e-06
34 *565:35 *575:15 3.83835e-06
35 *566:10 *575:8 3.42696e-05
*RES
1 *2980:ZN *575:8 7.236 
2 *575:8 *3359:I 4.5 
3 *575:8 *575:15 1.14 
4 *575:15 *2999:B1 4.5 
5 *575:15 *575:30 11.508 
6 *575:30 *3015:B1 4.5 
7 *575:30 *2991:B1 5.944 
*END

*D_NET *576 0.00187923
*CONN
*I *3377:I I *D gf180mcu_fd_sc_mcu7t5v0__buf_1
*I *2981:ZN O *D gf180mcu_fd_sc_mcu7t5v0__nor3_1
*CAP
1 *3377:I 0.000330103
2 *2981:ZN 0.000330103
3 *3377:I *2508:A2 0.000184886
4 *3377:I *2981:A1 0.000339655
5 *3377:I *2981:A2 1.65939e-05
6 *3377:I *2991:B2 8.01821e-05
7 *3377:I *3025:A2 6.27881e-06
8 *3377:I *3358:I 2.96621e-05
9 *3377:I *764:18 3.51785e-05
10 *3377:I *765:54 0.00011955
11 *3377:I *774:26 0.000379573
12 *3377:I *775:20 2.74661e-05
*RES
1 *2981:ZN *3377:I 12.496 
*END

*D_NET *577 0.000305525
*CONN
*I *2983:A2 I *D gf180mcu_fd_sc_mcu7t5v0__nand2_1
*I *2982:ZN O *D gf180mcu_fd_sc_mcu7t5v0__aoi222_1
*CAP
1 *2983:A2 0.000111569
2 *2982:ZN 0.000111569
3 *2983:A2 *2982:A1 0
4 *2983:A2 *783:20 7.09389e-05
5 *2976:A1 *2983:A2 1.14482e-05
*RES
1 *2982:ZN *2983:A2 18.684 
*END

*D_NET *578 0.00336525
*CONN
*I *2984:A2 I *D gf180mcu_fd_sc_mcu7t5v0__nand2_1
*I *2983:ZN O *D gf180mcu_fd_sc_mcu7t5v0__nand2_1
*CAP
1 *2984:A2 0.000701163
2 *2983:ZN 0.000701163
3 *2984:A2 *2965:A1 0
4 *2984:A2 *2982:A1 0
5 *2984:A2 *3001:A1 0
6 *2984:A2 *3025:A2 0.000741465
7 *2984:A2 *634:16 0.000417578
8 *2984:A2 *724:39 0
9 *2984:A2 *765:54 4.21332e-05
10 *2976:A1 *2984:A2 7.76942e-05
11 *2981:A3 *2984:A2 0.000489649
12 *3309:I *2984:A2 5.5916e-05
13 *227:18 *2984:A2 0
14 *228:12 *2984:A2 5.33324e-05
15 *242:48 *2984:A2 6.48283e-06
16 *560:14 *2984:A2 7.86714e-05
*RES
1 *2983:ZN *2984:A2 24.764 
*END

*D_NET *579 0.0112097
*CONN
*I *2988:A1 I *D gf180mcu_fd_sc_mcu7t5v0__nand2_1
*I *2984:ZN O *D gf180mcu_fd_sc_mcu7t5v0__nand2_1
*CAP
1 *2988:A1 0.00142986
2 *2984:ZN 0.00142986
3 *2988:A1 *2987:B2 0.000122047
4 *2988:A1 *2988:A2 1.39031e-05
5 *2988:A1 *2989:B2 0.000508305
6 *2988:A1 *3048:A1 5.19143e-05
7 *2988:A1 *3048:B2 0.000109349
8 *2988:A1 *3049:A2 0.000317938
9 *2988:A1 *3050:A2 0.000147305
10 *2988:A1 *3053:A2 0.000242087
11 *2988:A1 *3056:A1 0.000258736
12 *2988:A1 *3057:B 0
13 *2988:A1 *3070:A2 4.16812e-06
14 *2988:A1 *3081:A1 9.16934e-05
15 *2988:A1 *3114:B 0.000862337
16 *2988:A1 *3247:CLK 3.39083e-05
17 *2988:A1 *3249:CLK 0.000184602
18 *2988:A1 *580:12 0.000383397
19 *2988:A1 *580:45 1.7642e-05
20 *2988:A1 *580:49 1.33998e-05
21 *2988:A1 *634:16 8.59272e-06
22 *2988:A1 *767:10 0.000274401
23 *2988:A1 *770:32 0.000132634
24 *2988:A1 *787:16 0.000171721
25 *2988:A1 *808:8 6.08467e-05
26 *2984:A1 *2988:A1 0.000168561
27 *3275:I *2988:A1 2.57505e-05
28 *3312:I *2988:A1 0.00161483
29 *221:59 *2988:A1 0.000147313
30 *229:50 *2988:A1 0.0012334
31 *229:63 *2988:A1 0.00044372
32 *235:8 *2988:A1 8.05328e-06
33 *236:65 *2988:A1 3.83879e-05
34 *242:8 *2988:A1 3.11698e-05
35 *242:48 *2988:A1 7.35718e-05
36 *560:14 *2988:A1 0.000554311
*RES
1 *2984:ZN *2988:A1 47.292 
*END

*D_NET *580 0.0173914
*CONN
*I *3080:A2 I *D gf180mcu_fd_sc_mcu7t5v0__nand2_1
*I *3079:A2 I *D gf180mcu_fd_sc_mcu7t5v0__and2_1
*I *2987:B1 I *D gf180mcu_fd_sc_mcu7t5v0__aoi222_1
*I *3027:B1 I *D gf180mcu_fd_sc_mcu7t5v0__aoi222_1
*I *3035:A2 I *D gf180mcu_fd_sc_mcu7t5v0__aoi222_1
*I *3357:I I *D gf180mcu_fd_sc_mcu7t5v0__buf_2
*I *2985:ZN O *D gf180mcu_fd_sc_mcu7t5v0__nor2_1
*CAP
1 *3080:A2 0
2 *3079:A2 0
3 *2987:B1 0
4 *3027:B1 0
5 *3035:A2 0.000586802
6 *3357:I 0
7 *2985:ZN 0.00109314
8 *580:49 0.000931473
9 *580:45 0.000758832
10 *580:28 0.000609023
11 *580:22 0.000257525
12 *580:12 0.00115581
13 *3035:A2 *2525:A1 5.54829e-05
14 *3035:A2 *2756:A1 0.000259659
15 *3035:A2 *616:22 0.000272201
16 *3035:A2 *787:33 6.11045e-05
17 *3035:A2 *819:24 3.08902e-05
18 *580:12 *2514:A1 3.2964e-05
19 *580:12 *2993:A1 2.49648e-05
20 *580:12 *3053:A2 0.000932044
21 *580:12 *3114:C 8.55242e-05
22 *580:12 *696:93 0.000195427
23 *580:12 *707:58 0.000138299
24 *580:22 *657:10 5.87561e-06
25 *580:22 *696:93 3.73535e-05
26 *580:22 *707:58 1.97747e-05
27 *580:28 *2520:A1 0.00047187
28 *580:28 *656:10 0.000875389
29 *580:28 *657:10 6.12935e-05
30 *580:28 *657:25 1.6003e-05
31 *580:45 *2987:B2 3.08902e-05
32 *580:45 *2988:A2 6.00599e-05
33 *580:45 *2989:B2 0.000147305
34 *580:45 *3096:A2 0.000459035
35 *580:45 *640:84 0.000248315
36 *580:45 *656:10 0.000403764
37 *580:45 *656:19 0.00139933
38 *580:45 *656:61 0.000235816
39 *580:45 *657:25 0.000280587
40 *580:45 *770:21 0.000414869
41 *580:45 *770:32 0.000115614
42 *580:49 *2989:B2 6.28613e-05
43 *580:49 *3027:C1 0.00139636
44 *580:49 *3070:A1 4.21822e-05
45 *580:49 *3070:A2 0.000419363
46 *2988:A1 *580:12 0.000383397
47 *2988:A1 *580:45 1.7642e-05
48 *2988:A1 *580:49 1.33998e-05
49 *3080:A1 *580:12 7.83779e-05
50 *3080:A1 *580:22 2.6126e-05
51 *229:12 *580:12 0.000523262
52 *236:34 *580:22 8.84331e-05
53 *236:45 *580:22 0.000235808
54 *236:54 *580:22 0.000120187
55 *237:12 *580:22 0.00045128
56 *237:12 *580:28 2.75295e-05
57 *240:8 *580:22 2.96621e-05
58 *240:8 *580:28 0.000134206
59 *242:8 *580:12 0.000172284
60 *242:16 *580:12 0.000206325
61 *560:14 *580:12 0.000125479
62 *563:70 *3035:A2 7.29653e-05
*RES
1 *2985:ZN *580:12 24.596 
2 *580:12 *580:22 10.596 
3 *580:22 *580:28 7.996 
4 *580:28 *3357:I 9 
5 *580:28 *580:45 12.1 
6 *580:45 *580:49 8.832 
7 *580:49 *3035:A2 22.256 
8 *580:49 *3027:B1 9 
9 *580:45 *2987:B1 4.5 
10 *580:22 *3079:A2 4.5 
11 *580:12 *3080:A2 4.5 
*END

*D_NET *581 0.00632133
*CONN
*I *3376:I I *D gf180mcu_fd_sc_mcu7t5v0__buf_1
*I *2986:ZN O *D gf180mcu_fd_sc_mcu7t5v0__nor3_1
*CAP
1 *3376:I 0.00112181
2 *2986:ZN 0.00112181
3 *3376:I *2516:A1 0.000254326
4 *3376:I *2993:A2 8.91322e-05
5 *3376:I *3017:A1 6.39906e-05
6 *3376:I *3025:A2 0
7 *3376:I *3026:A2 0.000784409
8 *3376:I *3274:CLK 3.11588e-05
9 *3376:I *696:40 4.86993e-06
10 *3376:I *736:57 0.000162642
11 *3376:I *738:8 0
12 *3309:I *3376:I 0.000341489
13 *221:12 *3376:I 0.000317938
14 *227:18 *3376:I 9.026e-05
15 *227:26 *3376:I 2.6126e-05
16 *229:20 *3376:I 5.94054e-05
17 *242:48 *3376:I 0.00064886
18 *562:16 *3376:I 0.000743319
19 *563:10 *3376:I 7.40206e-05
20 *563:18 *3376:I 0.000385757
*RES
1 *2986:ZN *3376:I 31.604 
*END

*D_NET *582 0.00108219
*CONN
*I *2988:A2 I *D gf180mcu_fd_sc_mcu7t5v0__nand2_1
*I *2987:ZN O *D gf180mcu_fd_sc_mcu7t5v0__aoi222_1
*CAP
1 *2988:A2 0.000129178
2 *2987:ZN 0.000129178
3 *2988:A2 *2987:B2 8.55242e-05
4 *2988:A2 *2989:B2 5.08969e-05
5 *2988:A2 *3056:A1 5.1289e-05
6 *2988:A2 *3056:A2 0.000300828
7 *2988:A2 *640:84 0.000261337
8 *2988:A1 *2988:A2 1.39031e-05
9 *580:45 *2988:A2 6.00599e-05
*RES
1 *2987:ZN *2988:A2 10.824 
*END

*D_NET *583 0.00480882
*CONN
*I *2989:B2 I *D gf180mcu_fd_sc_mcu7t5v0__aoi22_1
*I *2988:ZN O *D gf180mcu_fd_sc_mcu7t5v0__nand2_1
*CAP
1 *2989:B2 0.000544072
2 *2988:ZN 0.000544072
3 *2989:B2 *2525:A1 0.000200139
4 *2989:B2 *2987:B2 2.23385e-05
5 *2989:B2 *3027:C1 0.00137808
6 *2989:B2 *3027:C2 2.03965e-05
7 *2989:B2 *787:16 9.33722e-05
8 *2989:B2 *787:27 0.000277797
9 *2989:B2 *819:24 0.000721801
10 *2988:A1 *2989:B2 0.000508305
11 *2988:A2 *2989:B2 5.08969e-05
12 *3254:D *2989:B2 0.00023739
13 *580:45 *2989:B2 0.000147305
14 *580:49 *2989:B2 6.28613e-05
*RES
1 *2988:ZN *2989:B2 25.6 
*END

*D_NET *584 0.00299538
*CONN
*I *2990:A2 I *D gf180mcu_fd_sc_mcu7t5v0__nor2_1
*I *2989:ZN O *D gf180mcu_fd_sc_mcu7t5v0__aoi22_1
*CAP
1 *2990:A2 0.000706384
2 *2989:ZN 0.000706384
3 *2990:A2 *2525:A1 2.17248e-05
4 *2990:A2 *2750:A1 3.00745e-05
5 *2990:A2 *3029:A1 0.000108148
6 *2990:A2 *3030:A1 5.86721e-05
7 *2990:A2 *683:37 8.55242e-05
8 *2990:A2 *683:76 4.87601e-06
9 *2990:A2 *744:10 0.000140115
10 DAT_O[5] *2990:A2 6.5393e-05
11 *3029:A2 *2990:A2 0.000511433
12 *3239:D *2990:A2 0.000136817
13 *3244:D *2990:A2 6.61189e-05
14 *3339:I *2990:A2 3.63334e-05
15 *3341:I *2990:A2 0.000317381
*RES
1 *2989:ZN *2990:A2 24.84 
*END

*D_NET *585 0.00393401
*CONN
*I *2993:A1 I *D gf180mcu_fd_sc_mcu7t5v0__nand2_1
*I *2991:ZN O *D gf180mcu_fd_sc_mcu7t5v0__aoi222_1
*CAP
1 *2993:A1 0.000911883
2 *2991:ZN 0.000911883
3 *2993:A1 *2975:I 0.000101973
4 *2993:A1 *2991:A2 0.00015398
5 *2993:A1 *3017:A1 0.000607833
6 *2993:A1 *3025:A1 9.22214e-05
7 *2993:A1 *3025:A2 0
8 *2993:A1 *3026:A2 0.000155804
9 *2993:A1 *3033:A1 0.000154492
10 *2993:A1 *634:16 0.000139253
11 *2509:A1 *2993:A1 0.000108629
12 *227:32 *2993:A1 0.000200922
13 *560:14 *2993:A1 0.000370174
14 *580:12 *2993:A1 2.49648e-05
*RES
1 *2991:ZN *2993:A1 26.284 
*END

*D_NET *586 0.00308805
*CONN
*I *2993:A2 I *D gf180mcu_fd_sc_mcu7t5v0__nand2_1
*I *2992:ZN O *D gf180mcu_fd_sc_mcu7t5v0__aoi222_1
*CAP
1 *2993:A2 0.000777688
2 *2992:ZN 0.000777688
3 *2993:A2 *2992:A2 3.07734e-05
4 *2993:A2 *3001:A2 0.000873478
5 *2993:A2 *3026:A2 5.62475e-05
6 *2993:A2 *3274:CLK 0.000222333
7 *2993:A2 *736:22 5.94709e-06
8 *2993:A2 *776:42 2.22758e-05
9 *3274:D *2993:A2 9.67063e-05
10 *3376:I *2993:A2 8.91322e-05
11 *227:18 *2993:A2 0.000135777
*RES
1 *2992:ZN *2993:A2 25.904 
*END

*D_NET *587 0.00149541
*CONN
*I *2994:A2 I *D gf180mcu_fd_sc_mcu7t5v0__nand2_1
*I *2993:ZN O *D gf180mcu_fd_sc_mcu7t5v0__nand2_1
*CAP
1 *2994:A2 0.000310991
2 *2993:ZN 0.000310991
3 *2994:A2 *3017:A1 0
4 *2994:A2 *3017:A2 0
5 *2994:A2 *3018:A2 7.98703e-05
6 *2994:A2 *3033:A1 0.000326266
7 *2994:A2 *3042:A1 8.0352e-06
8 *2994:A2 *736:46 0.000449002
9 *2994:A2 *759:34 1.02578e-05
*RES
1 *2993:ZN *2994:A2 21.192 
*END

*D_NET *588 0.00269601
*CONN
*I *2996:A1 I *D gf180mcu_fd_sc_mcu7t5v0__nand2_1
*I *2994:ZN O *D gf180mcu_fd_sc_mcu7t5v0__nand2_1
*CAP
1 *2996:A1 0.00095036
2 *2994:ZN 0.00095036
3 *2996:A1 *3044:A1 0
4 *2996:A1 *3044:A2 0
5 *2996:A1 *3045:B2 0
6 *2996:A1 *3164:CLK 9.26705e-05
7 *2546:A2 *2996:A1 0.000610003
8 *3043:A1 *2996:A1 9.26196e-05
*RES
1 *2994:ZN *2996:A1 25.144 
*END

*D_NET *589 0.0137751
*CONN
*I *2996:A2 I *D gf180mcu_fd_sc_mcu7t5v0__nand2_1
*I *2995:ZN O *D gf180mcu_fd_sc_mcu7t5v0__aoi222_1
*CAP
1 *2996:A2 0.00119951
2 *2995:ZN 0.00119951
3 *2996:A2 *2995:A2 2.6126e-05
4 *2996:A2 *2995:B2 8.55327e-05
5 *2996:A2 *3003:A1 0
6 *2996:A2 *3003:B2 0.00356958
7 *2996:A2 *3004:A1 0.000151383
8 *2996:A2 *3011:B2 0
9 *2996:A2 *3012:A1 5.30767e-05
10 *2996:A2 *3012:A2 0.00119529
11 *2996:A2 *3045:B2 9.26705e-05
12 *2996:A2 *3060:A1 0.000387765
13 *2996:A2 *3064:A1 0.000703104
14 *2996:A2 *3086:A2 2.11799e-05
15 *2996:A2 *3107:A1 0.000489657
16 *2996:A2 *3109:A1 5.0128e-05
17 *2996:A2 *639:57 4.75104e-05
18 *2996:A2 *640:48 0.000343268
19 *2996:A2 *727:12 0.000450707
20 *2996:A2 *728:27 0.000759751
21 *2996:A2 *802:27 6.95885e-05
22 *2996:A2 *802:35 0.000876918
23 *2996:A2 *802:41 0.00116493
24 *2996:A2 *814:12 0.000737659
25 *563:35 *2996:A2 0.000100283
*RES
1 *2995:ZN *2996:A2 38.596 
*END

*D_NET *590 0.000486816
*CONN
*I *2997:B2 I *D gf180mcu_fd_sc_mcu7t5v0__aoi22_1
*I *2996:ZN O *D gf180mcu_fd_sc_mcu7t5v0__nand2_1
*CAP
1 *2997:B2 8.76695e-05
2 *2996:ZN 8.76695e-05
3 *2997:B2 *3045:B2 0.000263425
4 *3045:B1 *2997:B2 3.39128e-05
5 *563:35 *2997:B2 1.41392e-05
*RES
1 *2996:ZN *2997:B2 9.912 
*END

*D_NET *591 0.001834
*CONN
*I *2998:A2 I *D gf180mcu_fd_sc_mcu7t5v0__nor2_1
*I *2997:ZN O *D gf180mcu_fd_sc_mcu7t5v0__aoi22_1
*CAP
1 *2998:A2 0.000409408
2 *2997:ZN 0.000409408
3 *2998:A2 *3045:B2 5.14116e-06
4 *2998:A2 *3046:A1 0.000104535
5 *2998:A2 *695:16 5.86721e-05
6 *2998:A2 *695:20 0.000522548
7 *3045:A2 *2998:A2 7.3227e-05
8 *3045:B1 *2998:A2 0.000251062
*RES
1 *2997:ZN *2998:A2 13.18 
*END

*D_NET *592 0.00638081
*CONN
*I *3001:A1 I *D gf180mcu_fd_sc_mcu7t5v0__aoi21_1
*I *2999:ZN O *D gf180mcu_fd_sc_mcu7t5v0__aoi222_1
*CAP
1 *3001:A1 0.000466893
2 *2999:ZN 0.000466893
3 *3001:A1 *2530:A1 4.58601e-06
4 *3001:A1 *2531:A1 0.000115621
5 *3001:A1 *2982:A1 0.000453567
6 *3001:A1 *2999:B2 0.000719475
7 *3001:A1 *3001:A2 0.000413491
8 *3001:A1 *3009:A1 0.00160006
9 *3001:A1 *3025:A2 0.00109808
10 *3001:A1 *764:6 1.34615e-05
11 *2981:A3 *3001:A1 0
12 *2984:A2 *3001:A1 0
13 *227:18 *3001:A1 0.000843502
14 *565:31 *3001:A1 0.000185185
*RES
1 *2999:ZN *3001:A1 27.5 
*END

*D_NET *593 0.00447789
*CONN
*I *3001:A2 I *D gf180mcu_fd_sc_mcu7t5v0__aoi21_1
*I *3000:ZN O *D gf180mcu_fd_sc_mcu7t5v0__aoi222_1
*CAP
1 *3001:A2 0.000372076
2 *3000:ZN 0.000372076
3 *3001:A2 *2992:A1 8.05328e-06
4 *3001:A2 *2992:A2 5.37472e-05
5 *3001:A2 *736:22 0
6 *3001:A2 *764:6 0.000540465
7 *3001:A2 *776:42 1.50277e-05
8 *2532:A2 *3001:A2 1.80248e-05
9 *2532:A3 *3001:A2 1.44832e-05
10 *2993:A2 *3001:A2 0.000873478
11 *3001:A1 *3001:A2 0.000413491
12 *227:18 *3001:A2 0.00179697
*RES
1 *3000:ZN *3001:A2 25.676 
*END

*D_NET *594 0.00867803
*CONN
*I *3003:C I *D gf180mcu_fd_sc_mcu7t5v0__aoi221_1
*I *3001:ZN O *D gf180mcu_fd_sc_mcu7t5v0__aoi21_1
*CAP
1 *3003:C 0.000739311
2 *3001:ZN 0.000739311
3 *3003:C *3003:B1 0.000500227
4 *3003:C *3004:A2 0.000147305
5 *3003:C *3020:A1 0.000190133
6 *3003:C *3034:A2 0.000623565
7 *3003:C *3112:B 0.000145662
8 *3003:C *3112:C 0.000351422
9 *3003:C *736:33 0.000276717
10 *3003:C *736:46 0.00214106
11 *3003:C *756:12 0.000578336
12 *3003:C *756:64 0.000335667
13 *3003:C *759:34 0.000561179
14 *3003:C *772:10 0.00013063
15 *3164:D *3003:C 0
16 *562:8 *3003:C 0.000278996
17 *562:78 *3003:C 0.000290193
18 *563:18 *3003:C 0.000648316
*RES
1 *3001:ZN *3003:C 31.984 
*END

*D_NET *595 0.00214495
*CONN
*I *3004:A1 I *D gf180mcu_fd_sc_mcu7t5v0__nand2_1
*I *3002:ZN O *D gf180mcu_fd_sc_mcu7t5v0__nand2_1
*CAP
1 *3004:A1 0.000224577
2 *3002:ZN 0.000224577
3 *3004:A1 *3002:A2 4.17148e-05
4 *3004:A1 *3012:A1 0.000439272
5 *3004:A1 *3012:A2 0.000188414
6 *3004:A1 *3259:CLK 0.000307974
7 *3004:A1 *3290:I 6.62327e-05
8 *3004:A1 *695:16 8.5208e-05
9 *2996:A2 *3004:A1 0.000151383
10 *467:30 *3004:A1 0.000415593
*RES
1 *3002:ZN *3004:A1 21.8 
*END

*D_NET *596 0.00081697
*CONN
*I *3004:A2 I *D gf180mcu_fd_sc_mcu7t5v0__nand2_1
*I *3003:ZN O *D gf180mcu_fd_sc_mcu7t5v0__aoi221_1
*CAP
1 *3004:A2 0.000146035
2 *3003:ZN 0.000146035
3 *3004:A2 *3003:B1 8.55242e-05
4 *3004:A2 *3003:B2 6.54358e-05
5 *3004:A2 *3013:B2 3.14479e-05
6 *3004:A2 *680:120 5.71037e-06
7 *3003:C *3004:A2 0.000147305
8 *3013:B1 *3004:A2 1.27895e-05
9 *563:18 *3004:A2 0.000176687
*RES
1 *3003:ZN *3004:A2 10.672 
*END

*D_NET *597 0.00142794
*CONN
*I *3005:B2 I *D gf180mcu_fd_sc_mcu7t5v0__aoi22_1
*I *3004:ZN O *D gf180mcu_fd_sc_mcu7t5v0__nand2_1
*CAP
1 *3005:B2 0.000323999
2 *3004:ZN 0.000323999
3 *3005:B2 *3013:A1 1.20079e-05
4 *3005:B2 *3013:B2 0.000255714
5 *3005:B2 *3014:A2 0.000361065
6 *3005:B2 *3290:I 0
7 *3005:B2 *3369:I 2.44893e-05
8 *3005:B1 *3005:B2 1.95806e-05
9 *3013:B1 *3005:B2 8.69862e-05
10 *467:30 *3005:B2 0
11 *563:18 *3005:B2 2.00975e-05
*RES
1 *3004:ZN *3005:B2 12.04 
*END

*D_NET *598 0.000470404
*CONN
*I *3006:A2 I *D gf180mcu_fd_sc_mcu7t5v0__nor2_1
*I *3005:ZN O *D gf180mcu_fd_sc_mcu7t5v0__aoi22_1
*CAP
1 *3006:A2 9.69935e-05
2 *3005:ZN 9.69935e-05
3 *3006:A2 *3005:A1 1.46159e-05
4 *3006:A2 *3006:A1 0.000261801
*RES
1 *3005:ZN *3006:A2 19.292 
*END

*D_NET *599 0.008463
*CONN
*I *3009:A1 I *D gf180mcu_fd_sc_mcu7t5v0__aoi21_1
*I *3007:ZN O *D gf180mcu_fd_sc_mcu7t5v0__aoi222_1
*CAP
1 *3009:A1 0.0014003
2 *3007:ZN 0.0014003
3 *3009:A1 *2502:I 9.43665e-05
4 *3009:A1 *2622:A1 0.000386421
5 *3009:A1 *2999:B2 0.00065997
6 *3009:A1 *3007:B2 6.04444e-06
7 *3009:A1 *3007:C2 0.000153056
8 *3009:A1 *693:98 8.37207e-05
9 *3009:A1 *724:39 1.3758e-05
10 *3009:A1 *761:31 0.000346041
11 *3009:A1 *764:31 0.00174351
12 *3009:A1 *778:8 5.12481e-05
13 *3009:A1 *778:16 9.50253e-05
14 *3009:A1 *782:8 0
15 *3009:A1 *782:14 6.22405e-05
16 *3009:A1 *799:95 4.99514e-05
17 *2623:A2 *3009:A1 6.63508e-06
18 *2623:A3 *3009:A1 0.000122889
19 *2983:A1 *3009:A1 7.87145e-05
20 *3001:A1 *3009:A1 0.00160006
21 *3363:I *3009:A1 2.96621e-05
22 *3379:I *3009:A1 0
23 *565:31 *3009:A1 7.90989e-05
*RES
1 *3007:ZN *3009:A1 33.504 
*END

*D_NET *600 0.00246204
*CONN
*I *3009:A2 I *D gf180mcu_fd_sc_mcu7t5v0__aoi21_1
*I *3008:ZN O *D gf180mcu_fd_sc_mcu7t5v0__aoi222_1
*CAP
1 *3009:A2 0.000568857
2 *3008:ZN 0.000568857
3 *3009:A2 *2536:A1 3.95622e-05
4 *3009:A2 *2536:A2 5.76063e-06
5 *3009:A2 *2982:B2 0.000199393
6 *3009:A2 *3118:CLK 2.54723e-05
7 *3009:A2 *693:98 1.5015e-05
8 *3009:A2 *761:31 0.00092726
9 *2535:A2 *3009:A2 0.000111867
*RES
1 *3008:ZN *3009:A2 14.776 
*END

*D_NET *601 0.00652186
*CONN
*I *3011:C I *D gf180mcu_fd_sc_mcu7t5v0__aoi221_1
*I *3009:ZN O *D gf180mcu_fd_sc_mcu7t5v0__aoi21_1
*CAP
1 *3011:C 0.000889489
2 *3009:ZN 0.000889489
3 *3011:C *2477:I 8.56396e-05
4 *3011:C *3011:A1 3.46053e-05
5 *3011:C *3012:A2 0.000144931
6 *3011:C *3016:B2 0.00101921
7 *3011:C *3036:A1 0.000144173
8 *3011:C *3043:A2 0.000276717
9 *3011:C *3267:CLK 4.22854e-06
10 *3011:C *3306:I 0
11 *3011:C *736:33 0
12 *3011:C *756:12 0
13 *3011:C *756:64 0
14 *3011:C *759:34 8.98471e-05
15 *3011:C *824:12 1.10835e-05
16 *3011:C *824:32 5.29424e-05
17 *3164:D *3011:C 0.000877667
18 *212:62 *3011:C 0.00197254
19 *229:20 *3011:C 2.92943e-05
*RES
1 *3009:ZN *3011:C 28.792 
*END

*D_NET *602 0.00350506
*CONN
*I *3012:A1 I *D gf180mcu_fd_sc_mcu7t5v0__nand2_1
*I *3010:ZN O *D gf180mcu_fd_sc_mcu7t5v0__nand2_1
*CAP
1 *3012:A1 0.000591155
2 *3010:ZN 0.000591155
3 *3012:A1 *3010:A1 2.77603e-05
4 *3012:A1 *3010:A2 3.13603e-05
5 *3012:A1 *3013:B2 1.08068e-05
6 *3012:A1 *3089:A3 0
7 *3012:A1 *3109:A1 0.000199756
8 *3012:A1 *3290:I 6.36468e-06
9 *3012:A1 *695:10 9.6672e-05
10 *3012:A1 *695:16 9.15501e-05
11 *3012:A1 *727:12 0.00123151
12 *3012:A1 *728:14 0.000134622
13 *2996:A2 *3012:A1 5.30767e-05
14 *3004:A1 *3012:A1 0.000439272
*RES
1 *3010:ZN *3012:A1 24.308 
*END

*D_NET *603 0.00330753
*CONN
*I *3012:A2 I *D gf180mcu_fd_sc_mcu7t5v0__nand2_1
*I *3011:ZN O *D gf180mcu_fd_sc_mcu7t5v0__aoi221_1
*CAP
1 *3012:A2 0.000679486
2 *3011:ZN 0.000679486
3 *3012:A2 *3011:B2 0.000103153
4 *3012:A2 *3267:CLK 0
5 *3012:A2 *695:16 0
6 *2996:A2 *3012:A2 0.00119529
7 *3004:A1 *3012:A2 0.000188414
8 *3011:C *3012:A2 0.000144931
9 *3267:D *3012:A2 8.55242e-05
10 *229:20 *3012:A2 8.71765e-05
11 *562:16 *3012:A2 0
12 *563:35 *3012:A2 0.000144064
*RES
1 *3011:ZN *3012:A2 24.536 
*END

*D_NET *604 0.000837524
*CONN
*I *3013:B2 I *D gf180mcu_fd_sc_mcu7t5v0__aoi22_1
*I *3012:ZN O *D gf180mcu_fd_sc_mcu7t5v0__nand2_1
*CAP
1 *3013:B2 0.000262093
2 *3012:ZN 0.000262093
3 *3013:B2 *3290:I 0
4 *3013:B2 *680:120 0
5 *3013:B2 *699:10 0
6 *3004:A2 *3013:B2 3.14479e-05
7 *3005:B2 *3013:B2 0.000255714
8 *3012:A1 *3013:B2 1.08068e-05
9 *563:18 *3013:B2 1.53689e-05
*RES
1 *3012:ZN *3013:B2 10.976 
*END

*D_NET *605 0.001341
*CONN
*I *3014:A2 I *D gf180mcu_fd_sc_mcu7t5v0__nor2_1
*I *3013:ZN O *D gf180mcu_fd_sc_mcu7t5v0__aoi22_1
*CAP
1 *3014:A2 0.000241623
2 *3013:ZN 0.000241623
3 *3014:A2 *3005:A1 2.22758e-05
4 *3014:A2 *3013:A1 0.000317503
5 *3014:A2 *3369:I 0
6 *3005:B1 *3014:A2 0.000156912
7 *3005:B2 *3014:A2 0.000361065
*RES
1 *3013:ZN *3014:A2 11.888 
*END

*D_NET *606 0.00439101
*CONN
*I *3017:A1 I *D gf180mcu_fd_sc_mcu7t5v0__nand2_1
*I *3015:ZN O *D gf180mcu_fd_sc_mcu7t5v0__aoi222_1
*CAP
1 *3017:A1 0.000885793
2 *3015:ZN 0.000885793
3 *3017:A1 *2977:I 0.000151775
4 *3017:A1 *2986:A2 5.76063e-06
5 *3017:A1 *2991:A2 0.000199565
6 *3017:A1 *2991:B2 0
7 *3017:A1 *3015:A1 0.000147313
8 *3017:A1 *3017:A2 3.08902e-05
9 *3017:A1 *3025:A1 3.34563e-05
10 *3017:A1 *3025:A2 0.000109268
11 *3017:A1 *3026:A2 0.00013344
12 *3017:A1 *3033:A1 0
13 *3017:A1 *735:64 6.52995e-05
14 *3017:A1 *765:54 7.40114e-05
15 *3017:A1 *775:20 1.66555e-05
16 *2965:B *3017:A1 8.55327e-05
17 *2993:A1 *3017:A1 0.000607833
18 *2994:A2 *3017:A1 0
19 *3047:A3 *3017:A1 0.000305592
20 *3274:D *3017:A1 3.5621e-05
21 *3309:I *3017:A1 0.000147305
22 *3376:I *3017:A1 6.39906e-05
23 *227:18 *3017:A1 0
24 *227:26 *3017:A1 0.000406112
*RES
1 *3015:ZN *3017:A1 18.044 
*END

*D_NET *607 0.0037756
*CONN
*I *3017:A2 I *D gf180mcu_fd_sc_mcu7t5v0__nand2_1
*I *3016:ZN O *D gf180mcu_fd_sc_mcu7t5v0__aoi222_1
*CAP
1 *3017:A2 0.000830487
2 *3016:ZN 0.000830487
3 *3017:A2 *2534:A2 0.000115463
4 *3017:A2 *2991:B2 1.54542e-05
5 *3017:A2 *3306:I 0.00153985
6 *3017:A2 *736:22 4.53069e-05
7 *3017:A2 *736:46 0.000213918
8 *3017:A2 *761:31 0.00011571
9 *3017:A2 *762:14 3.80298e-05
10 *2994:A2 *3017:A2 0
11 *3017:A1 *3017:A2 3.08902e-05
12 *3117:D *3017:A2 0
13 *3274:D *3017:A2 0
*RES
1 *3016:ZN *3017:A2 25.752 
*END

*D_NET *608 0.000857566
*CONN
*I *3018:A2 I *D gf180mcu_fd_sc_mcu7t5v0__nand2_1
*I *3017:ZN O *D gf180mcu_fd_sc_mcu7t5v0__nand2_1
*CAP
1 *3018:A2 0.000353978
2 *3017:ZN 0.000353978
3 *3018:A2 *3274:CLK 0
4 *3018:A2 *616:22 1.5961e-05
5 *3018:A2 *736:46 5.37788e-05
6 *2994:A2 *3018:A2 7.98703e-05
*RES
1 *3017:ZN *3018:A2 20.66 
*END

*D_NET *609 0.00676564
*CONN
*I *3020:A1 I *D gf180mcu_fd_sc_mcu7t5v0__nand2_1
*I *3018:ZN O *D gf180mcu_fd_sc_mcu7t5v0__nand2_1
*CAP
1 *3020:A1 0.000825561
2 *3018:ZN 0.000825561
3 *3020:A1 *3020:A2 0.00103792
4 *3020:A1 *616:22 0.00126179
5 *3020:A1 *657:31 2.28628e-05
6 *3020:A1 *736:46 6.25831e-05
7 *3003:C *3020:A1 0.000190133
8 *221:29 *3020:A1 3.92048e-05
9 *563:10 *3020:A1 0.000439272
10 *563:66 *3020:A1 0.00206075
*RES
1 *3018:ZN *3020:A1 31.452 
*END

*D_NET *610 0.00228265
*CONN
*I *3020:A2 I *D gf180mcu_fd_sc_mcu7t5v0__nand2_1
*I *3019:ZN O *D gf180mcu_fd_sc_mcu7t5v0__aoi222_1
*CAP
1 *3020:A2 9.66267e-05
2 *3019:ZN 9.66267e-05
3 *3020:A2 *2747:A1 9.28591e-05
4 *3020:A2 *616:22 0.000941191
5 *3020:A2 *657:31 1.74285e-05
6 *3020:A1 *3020:A2 0.00103792
*RES
1 *3019:ZN *3020:A2 21.04 
*END

*D_NET *611 0.00484418
*CONN
*I *3021:B2 I *D gf180mcu_fd_sc_mcu7t5v0__aoi22_1
*I *3020:ZN O *D gf180mcu_fd_sc_mcu7t5v0__nand2_1
*CAP
1 *3021:B2 0.000316054
2 *3020:ZN 0.000316054
3 *3021:B2 *3035:B2 9.50338e-05
4 *3021:B2 *820:8 0.000197186
5 *3021:B2 *820:12 0.00163284
6 *3263:D *3021:B2 0.000840184
7 *562:78 *3021:B2 0.000459053
8 *563:66 *3021:B2 0.000955854
9 *563:90 *3021:B2 3.19219e-05
*RES
1 *3020:ZN *3021:B2 25.828 
*END

*D_NET *612 0.00325491
*CONN
*I *3022:A2 I *D gf180mcu_fd_sc_mcu7t5v0__nor2_1
*I *3021:ZN O *D gf180mcu_fd_sc_mcu7t5v0__aoi22_1
*CAP
1 *3022:A2 0.00067695
2 *3021:ZN 0.00067695
3 *3022:A2 *2750:A1 4.64343e-05
4 *3022:A2 *3021:A1 0.000793958
5 *3022:A2 *3036:A1 0.000228095
6 *3022:A2 *3037:B2 0
7 *3022:A2 *3074:A1 6.42273e-05
8 *3037:A2 *3022:A2 0.000622514
9 *3336:I *3022:A2 1.31444e-05
10 *562:93 *3022:A2 0.000132634
*RES
1 *3021:ZN *3022:A2 34.144 
*END

*D_NET *613 0.00691776
*CONN
*I *3025:A1 I *D gf180mcu_fd_sc_mcu7t5v0__nand2_1
*I *3023:ZN O *D gf180mcu_fd_sc_mcu7t5v0__aoi222_1
*CAP
1 *3025:A1 0.00151602
2 *3023:ZN 0.00151602
3 *3025:A1 *2630:A2 0.000145032
4 *3025:A1 *2975:I 0.000734805
5 *3025:A1 *2991:A1 4.19725e-05
6 *3025:A1 *2991:A2 0
7 *3025:A1 *3007:C2 5.96894e-05
8 *3025:A1 *3015:A1 0
9 *3025:A1 *3025:A2 7.24161e-06
10 *3025:A1 *3031:C1 1.49012e-05
11 *3025:A1 *3031:C2 7.59255e-06
12 *3025:A1 *3033:A1 0.00139829
13 *3025:A1 *3040:B2 0.000142834
14 *3025:A1 *765:62 0.000266206
15 *3025:A1 *774:49 5.90479e-05
16 *3025:A1 *778:24 0.000422991
17 *3025:A1 *900:12 0.000191702
18 *2509:A1 *3025:A1 0.000228549
19 *2993:A1 *3025:A1 9.22214e-05
20 *3017:A1 *3025:A1 3.34563e-05
21 *3149:D *3025:A1 3.91981e-05
*RES
1 *3023:ZN *3025:A1 32.364 
*END

*D_NET *614 0.0102674
*CONN
*I *3025:A2 I *D gf180mcu_fd_sc_mcu7t5v0__nand2_1
*I *3024:ZN O *D gf180mcu_fd_sc_mcu7t5v0__aoi222_1
*CAP
1 *3025:A2 0.00129749
2 *3024:ZN 0.00129749
3 *3025:A2 *2530:A1 0.000232623
4 *3025:A2 *2533:A1 6.85428e-05
5 *3025:A2 *2540:A1 0.000232753
6 *3025:A2 *2981:A1 2.10218e-05
7 *3025:A2 *2982:B2 3.13571e-05
8 *3025:A2 *2991:B2 5.68863e-05
9 *3025:A2 *3016:B2 0.000410417
10 *3025:A2 *3024:A1 4.07337e-05
11 *3025:A2 *3024:B2 0.000289678
12 *3025:A2 *3026:A2 1.3758e-05
13 *3025:A2 *3306:I 4.5452e-05
14 *3025:A2 *761:39 0.000263004
15 *3025:A2 *764:6 5.57887e-05
16 *3025:A2 *764:18 1.64406e-05
17 *3025:A2 *765:6 1.5015e-05
18 *3025:A2 *765:10 0.000435105
19 *3025:A2 *765:54 0.000238924
20 *3025:A2 *783:67 0.000141629
21 *3025:A2 *786:34 0.00149979
22 *3025:A2 *824:12 0.000147313
23 *3025:A2 *835:10 0
24 *2667:A1 *3025:A2 0.000429161
25 *2668:A3 *3025:A2 0.000176486
26 *2671:A2 *3025:A2 0.000500766
27 *2984:A2 *3025:A2 0.000741465
28 *2993:A1 *3025:A2 0
29 *3001:A1 *3025:A2 0.00109808
30 *3017:A1 *3025:A2 0.000109268
31 *3025:A1 *3025:A2 7.24161e-06
32 *3309:I *3025:A2 2.09512e-05
33 *3376:I *3025:A2 0
34 *3377:I *3025:A2 6.27881e-06
35 *227:18 *3025:A2 0
36 *227:26 *3025:A2 0.00032652
*RES
1 *3024:ZN *3025:A2 45.544 
*END

*D_NET *615 0.00211716
*CONN
*I *3026:A2 I *D gf180mcu_fd_sc_mcu7t5v0__nand2_1
*I *3025:ZN O *D gf180mcu_fd_sc_mcu7t5v0__nand2_1
*CAP
1 *3026:A2 0.00033303
2 *3025:ZN 0.00033303
3 *3026:A2 *3274:CLK 0.000147137
4 *2546:A2 *3026:A2 5.18759e-05
5 *2993:A1 *3026:A2 0.000155804
6 *2993:A2 *3026:A2 5.62475e-05
7 *3017:A1 *3026:A2 0.00013344
8 *3025:A2 *3026:A2 1.3758e-05
9 *3026:A1 *3026:A2 8.69862e-05
10 *3376:I *3026:A2 0.000784409
11 *221:14 *3026:A2 6.96334e-06
12 *221:27 *3026:A2 1.44832e-05
*RES
1 *3025:ZN *3026:A2 22.18 
*END

*D_NET *616 0.0142729
*CONN
*I *3028:A1 I *D gf180mcu_fd_sc_mcu7t5v0__nand2_1
*I *3026:ZN O *D gf180mcu_fd_sc_mcu7t5v0__nand2_1
*CAP
1 *3028:A1 0
2 *3026:ZN 0.00385278
3 *616:22 0.00385278
4 *616:22 *2516:A1 0
5 *616:22 *2525:A1 0
6 *616:22 *3027:A1 0
7 *616:22 *3073:A2 0.000118153
8 *616:22 *3095:A2 0
9 *616:22 *3274:CLK 2.10698e-05
10 *616:22 *3326:I 0.00078605
11 *616:22 *640:80 0.000361607
12 *616:22 *696:40 1.80963e-05
13 *616:22 *725:8 0
14 *616:22 *729:10 0.000350564
15 *616:22 *729:16 0.000103773
16 *616:22 *736:46 0
17 *616:22 *736:57 0
18 *616:22 *769:43 6.75394e-05
19 *616:22 *787:33 0
20 *2546:A2 *616:22 2.57332e-05
21 *3018:A2 *616:22 1.5961e-05
22 *3020:A1 *616:22 0.00126179
23 *3020:A2 *616:22 0.000941191
24 *3035:A2 *616:22 0.000272201
25 *3039:C2 *616:22 0.00130405
26 *221:27 *616:22 0.000372137
27 *563:66 *616:22 0.000547434
*RES
1 *3026:ZN *616:22 49.464 
2 *616:22 *3028:A1 9 
*END

*D_NET *617 0.00237316
*CONN
*I *3028:A2 I *D gf180mcu_fd_sc_mcu7t5v0__nand2_1
*I *3027:ZN O *D gf180mcu_fd_sc_mcu7t5v0__aoi222_1
*CAP
1 *3028:A2 0.000305438
2 *3027:ZN 0.000305438
3 *3028:A2 *2525:A1 0.000137715
4 *3028:A2 *3027:A1 0.000148087
5 *3028:A2 *3027:A2 7.50749e-05
6 *3028:A2 *3029:B2 0.000248278
7 *3028:A2 *3035:C1 0.000429998
8 *3028:A2 *3326:I 5.14116e-06
9 *3028:A2 *730:10 9.08953e-05
10 *3028:A2 *730:14 6.04444e-06
11 *3028:A2 *819:12 0.000528382
12 *3028:A2 *819:24 9.26705e-05
*RES
1 *3027:ZN *3028:A2 22.484 
*END

*D_NET *618 0.00326253
*CONN
*I *3029:B2 I *D gf180mcu_fd_sc_mcu7t5v0__aoi22_1
*I *3028:ZN O *D gf180mcu_fd_sc_mcu7t5v0__nand2_1
*CAP
1 *3029:B2 0.000499873
2 *3028:ZN 0.000499873
3 *3029:B2 *3035:C1 0.00069415
4 *3029:B2 *3326:I 4.38725e-05
5 *3029:B2 *683:76 0.000276717
6 *3029:B2 *683:87 0.000394617
7 *3029:B2 *730:10 0.000108532
8 *3029:B2 *744:10 0.000441063
9 *3029:B2 *806:45 5.555e-05
10 *3028:A2 *3029:B2 0.000248278
*RES
1 *3028:ZN *3029:B2 24.004 
*END

*D_NET *619 0.00110959
*CONN
*I *3030:A2 I *D gf180mcu_fd_sc_mcu7t5v0__nor2_1
*I *3029:ZN O *D gf180mcu_fd_sc_mcu7t5v0__aoi22_1
*CAP
1 *3030:A2 3.81425e-05
2 *3029:ZN 3.81425e-05
3 *3030:A2 *3029:A1 8.8425e-05
4 *3030:A2 *683:87 0.000576049
5 DAT_O[5] *3030:A2 0.000333388
6 *3341:I *3030:A2 3.54426e-05
*RES
1 *3029:ZN *3030:A2 19.444 
*END

*D_NET *620 0.00833478
*CONN
*I *3033:A1 I *D gf180mcu_fd_sc_mcu7t5v0__nand2_1
*I *3031:ZN O *D gf180mcu_fd_sc_mcu7t5v0__aoi222_1
*CAP
1 *3033:A1 0.00141878
2 *3031:ZN 0.00141878
3 *3033:A1 *2630:A2 2.14981e-05
4 *3033:A1 *3015:A1 0.000159941
5 *3033:A1 *3040:A1 5.64514e-06
6 *3033:A1 *3040:A2 0.000301553
7 *3033:A1 *3040:B2 5.87561e-06
8 *3033:A1 *3042:A1 0.00256988
9 *3033:A1 *774:49 0
10 *3033:A1 *900:12 0.00018402
11 *2631:A3 *3033:A1 0.000369754
12 *2993:A1 *3033:A1 0.000154492
13 *2994:A2 *3033:A1 0.000326266
14 *3017:A1 *3033:A1 0
15 *3025:A1 *3033:A1 0.00139829
*RES
1 *3031:ZN *3033:A1 25.492 
*END

*D_NET *621 0.00568491
*CONN
*I *3033:A2 I *D gf180mcu_fd_sc_mcu7t5v0__nand2_1
*I *3032:ZN O *D gf180mcu_fd_sc_mcu7t5v0__aoi222_1
*CAP
1 *3033:A2 0.00170028
2 *3032:ZN 0.00170028
3 *3033:A2 *2540:A1 0.000121
4 *3033:A2 *2673:A4 0
5 *3033:A2 *2674:A1 0
6 *3033:A2 *3008:B2 0.000140018
7 *3033:A2 *3042:A1 0.000117721
8 *3033:A2 *3042:A2 0.000469953
9 *3033:A2 *3165:CLK 6.39952e-05
10 *3033:A2 *690:78 0.000147313
11 *3033:A2 *756:64 0
12 *3033:A2 *759:34 3.53865e-05
13 *3033:A2 *786:34 0
14 *2666:A1 *3033:A2 1.75486e-05
15 *2671:A2 *3033:A2 2.48312e-05
16 *2671:A3 *3033:A2 3.02222e-05
17 *2672:A2 *3033:A2 0
18 *2674:A2 *3033:A2 0.000725081
19 *3164:D *3033:A2 0.000299162
20 *212:68 *3033:A2 9.21171e-05
21 *341:8 *3033:A2 0
*RES
1 *3032:ZN *3033:A2 31.376 
*END

*D_NET *622 0.00125838
*CONN
*I *3034:A2 I *D gf180mcu_fd_sc_mcu7t5v0__nand2_1
*I *3033:ZN O *D gf180mcu_fd_sc_mcu7t5v0__nand2_1
*CAP
1 *3034:A2 0.00010257
2 *3033:ZN 0.00010257
3 *3034:A2 *3036:A1 2.293e-05
4 *3034:A2 *759:34 0.000276115
5 *3003:C *3034:A2 0.000623565
6 *3043:A1 *3034:A2 0.00013063
*RES
1 *3033:ZN *3034:A2 19.976 
*END

*D_NET *623 0.0164189
*CONN
*I *3036:A1 I *D gf180mcu_fd_sc_mcu7t5v0__nand2_1
*I *3034:ZN O *D gf180mcu_fd_sc_mcu7t5v0__nand2_1
*CAP
1 *3036:A1 0.00131685
2 *3034:ZN 0.00131685
3 *3036:A1 *2477:I 0.00212939
4 *3036:A1 *2481:I 0.00109747
5 *3036:A1 *2750:A1 5.09739e-06
6 *3036:A1 *2995:A2 0.000141066
7 *3036:A1 *3069:C 0.00024914
8 *3036:A1 *3085:A2 0.00156934
9 *3036:A1 *3104:A2 5.70962e-05
10 *3036:A1 *3253:CLK 3.03377e-05
11 *3036:A1 *682:14 1.04052e-05
12 *3036:A1 *682:86 0.000455287
13 *3036:A1 *696:29 3.75431e-05
14 *3036:A1 *726:14 2.23783e-05
15 *3036:A1 *736:46 9.88736e-06
16 *3036:A1 *759:34 0.00622044
17 *3036:A1 *771:10 0
18 *3036:A1 *800:72 0.000118153
19 *3011:C *3036:A1 0.000144173
20 *3022:A2 *3036:A1 0.000228095
21 *3034:A2 *3036:A1 2.293e-05
22 *3037:A2 *3036:A1 0.000261345
23 *3043:A1 *3036:A1 2.36452e-05
24 *3255:D *3036:A1 0.000164236
25 *3336:I *3036:A1 0.000174655
26 *562:78 *3036:A1 0.000613085
*RES
1 *3034:ZN *3036:A1 42.396 
*END

*D_NET *624 0.0025447
*CONN
*I *3036:A2 I *D gf180mcu_fd_sc_mcu7t5v0__nand2_1
*I *3035:ZN O *D gf180mcu_fd_sc_mcu7t5v0__aoi222_1
*CAP
1 *3036:A2 0.000330059
2 *3035:ZN 0.000330059
3 *3036:A2 *2995:A2 0.000409274
4 *3036:A2 *2995:C1 4.02903e-05
5 *3036:A2 *3035:B1 0.000489426
6 *3036:A2 *3035:B2 0.000429161
7 *3036:A2 *3074:A1 0.000242347
8 *3036:A2 *3075:A3 0.000255714
9 *3036:A2 *3370:I 1.83741e-05
*RES
1 *3035:ZN *3036:A2 22.712 
*END

*D_NET *625 0.00200256
*CONN
*I *3037:B2 I *D gf180mcu_fd_sc_mcu7t5v0__aoi22_1
*I *3036:ZN O *D gf180mcu_fd_sc_mcu7t5v0__nand2_1
*CAP
1 *3037:B2 0.000607685
2 *3036:ZN 0.000607685
3 *3037:B2 *2744:A1 1.72918e-05
4 *3037:B2 *3074:A1 0.00035824
5 *3037:B2 *3370:I 2.86762e-07
6 *3037:B2 *743:10 1.10945e-05
7 *3037:B2 *813:10 5.09899e-05
8 DAT_O[6] *3037:B2 0.000203286
9 *3022:A2 *3037:B2 0
10 *3337:I *3037:B2 2.20475e-05
11 *3341:I *3037:B2 0.000123951
*RES
1 *3036:ZN *3037:B2 22.864 
*END

*D_NET *626 0.000352127
*CONN
*I *3038:A2 I *D gf180mcu_fd_sc_mcu7t5v0__nor2_1
*I *3037:ZN O *D gf180mcu_fd_sc_mcu7t5v0__aoi22_1
*CAP
1 *3038:A2 0.00010747
2 *3037:ZN 0.00010747
3 *3038:A2 *3038:A1 6.85937e-05
4 DAT_O[6] *3038:A2 6.85937e-05
*RES
1 *3037:ZN *3038:A2 9.912 
*END

*D_NET *627 0.00878618
*CONN
*I *3044:A1 I *D gf180mcu_fd_sc_mcu7t5v0__nand2_1
*I *3039:ZN O *D gf180mcu_fd_sc_mcu7t5v0__aoi222_1
*CAP
1 *3044:A1 0.00129325
2 *3039:ZN 0.00129325
3 *3044:A1 *2741:A1 4.725e-05
4 *3044:A1 *3011:B2 0.000189064
5 *3044:A1 *3039:B2 0.00041564
6 *3044:A1 *3044:A2 3.08902e-05
7 *3044:A1 *3084:A2 0.00041564
8 *3044:A1 *3087:A2 0.000337765
9 *3044:A1 *3094:A1 0.000206029
10 *3044:A1 *3099:A2 0.000111659
11 *3044:A1 *3112:B 0.00181503
12 *3044:A1 *3164:CLK 0
13 *3044:A1 *3264:CLK 0
14 *3044:A1 *3267:CLK 1.91917e-06
15 *3044:A1 *657:39 0.000421584
16 *3044:A1 *695:85 0
17 *3044:A1 *696:12 0
18 *3044:A1 *696:14 0
19 *3044:A1 *767:39 0.000796041
20 *3044:A1 *767:43 0.000541945
21 *3044:A1 *773:18 0.00019545
22 *2757:A1 *3044:A1 0.000249812
23 *2996:A1 *3044:A1 0
24 *3011:A2 *3044:A1 1.18942e-05
25 *3267:D *3044:A1 0.000412066
*RES
1 *3039:ZN *3044:A1 34.492 
*END

*D_NET *628 0.00873885
*CONN
*I *3042:A1 I *D gf180mcu_fd_sc_mcu7t5v0__nand2_1
*I *3040:ZN O *D gf180mcu_fd_sc_mcu7t5v0__aoi222_1
*CAP
1 *3042:A1 0.00182905
2 *3040:ZN 0.00182905
3 *3042:A1 *3015:A1 2.91799e-05
4 *3042:A1 *3040:A1 3.26639e-05
5 *3042:A1 *3042:A2 3.08902e-05
6 *3042:A1 *759:34 0
7 *3042:A1 *766:22 0
8 *3042:A1 *904:8 0.000196417
9 *3042:A1 *905:8 9.79618e-05
10 *2546:A2 *3042:A1 0.00173233
11 *2631:A3 *3042:A1 5.09868e-05
12 *2994:A2 *3042:A1 8.0352e-06
13 *3033:A1 *3042:A1 0.00256988
14 *3033:A2 *3042:A1 0.000117721
15 *3275:I *3042:A1 0.000214683
*RES
1 *3040:ZN *3042:A1 26.708 
*END

*D_NET *629 0.00812613
*CONN
*I *3042:A2 I *D gf180mcu_fd_sc_mcu7t5v0__nand2_1
*I *3041:ZN O *D gf180mcu_fd_sc_mcu7t5v0__aoi222_1
*CAP
1 *3042:A2 0.00169303
2 *3041:ZN 0.00169303
3 *3042:A2 *2551:C 7.02696e-05
4 *3042:A2 *2991:B2 0
5 *3042:A2 *3120:CLK 6.71936e-05
6 *3042:A2 *3137:CLK 0
7 *3042:A2 *690:10 0
8 *3042:A2 *690:12 0
9 *3042:A2 *690:56 7.47635e-05
10 *3042:A2 *690:69 0.000111235
11 *3042:A2 *690:78 0.000310961
12 *3042:A2 *785:133 0
13 *2546:A2 *3042:A2 0.0027537
14 *2674:A2 *3042:A2 0.000551947
15 *3033:A2 *3042:A2 0.000469953
16 *3042:A1 *3042:A2 3.08902e-05
17 *3164:D *3042:A2 0.000299162
*RES
1 *3041:ZN *3042:A2 34.72 
*END

*D_NET *630 0.000399059
*CONN
*I *3043:A2 I *D gf180mcu_fd_sc_mcu7t5v0__nand2_1
*I *3042:ZN O *D gf180mcu_fd_sc_mcu7t5v0__nand2_1
*CAP
1 *3043:A2 2.8685e-05
2 *3042:ZN 2.8685e-05
3 *3043:A2 *759:34 6.49724e-05
4 *3011:C *3043:A2 0.000276717
*RES
1 *3042:ZN *3043:A2 18.684 
*END

*D_NET *631 0.000940069
*CONN
*I *3044:A2 I *D gf180mcu_fd_sc_mcu7t5v0__nand2_1
*I *3043:ZN O *D gf180mcu_fd_sc_mcu7t5v0__nand2_1
*CAP
1 *3044:A2 0.000390528
2 *3043:ZN 0.000390528
3 *3044:A2 *3164:CLK 0
4 *3044:A2 *3267:CLK 3.26997e-05
5 *3044:A2 *696:29 9.54229e-05
6 *2996:A1 *3044:A2 0
7 *3044:A1 *3044:A2 3.08902e-05
*RES
1 *3043:ZN *3044:A2 11.584 
*END

*D_NET *632 0.00191033
*CONN
*I *3045:B2 I *D gf180mcu_fd_sc_mcu7t5v0__aoi22_1
*I *3044:ZN O *D gf180mcu_fd_sc_mcu7t5v0__nand2_1
*CAP
1 *3045:B2 0.000701175
2 *3044:ZN 0.000701175
3 *2996:A1 *3045:B2 0
4 *2996:A2 *3045:B2 9.26705e-05
5 *2997:B2 *3045:B2 0.000263425
6 *2998:A2 *3045:B2 5.14116e-06
7 *3045:B1 *3045:B2 0.000146745
*RES
1 *3044:ZN *3045:B2 14.016 
*END

*D_NET *633 0.000332754
*CONN
*I *3046:A2 I *D gf180mcu_fd_sc_mcu7t5v0__nor2_1
*I *3045:ZN O *D gf180mcu_fd_sc_mcu7t5v0__aoi22_1
*CAP
1 *3046:A2 0.000166377
2 *3045:ZN 0.000166377
*RES
1 *3045:ZN *3046:A2 18.988 
*END

*D_NET *634 0.0047232
*CONN
*I *3048:B2 I *D gf180mcu_fd_sc_mcu7t5v0__aoi22_1
*I *3050:A2 I *D gf180mcu_fd_sc_mcu7t5v0__and2_1
*I *3047:ZN O *D gf180mcu_fd_sc_mcu7t5v0__nand3_1
*CAP
1 *3048:B2 0.000243545
2 *3050:A2 1.17249e-05
3 *3047:ZN 0.000428318
4 *634:16 0.000683587
5 *3048:B2 *3049:A2 0.000147387
6 *3050:A2 *3247:CLK 6.73834e-05
7 *634:16 *765:54 2.78433e-05
8 *2509:A1 *634:16 4.86736e-05
9 *2966:A2 *3048:B2 1.76665e-05
10 *2984:A1 *634:16 0.000269857
11 *2984:A2 *634:16 0.000417578
12 *2988:A1 *3048:B2 0.000109349
13 *2988:A1 *3050:A2 0.000147305
14 *2988:A1 *634:16 8.59272e-06
15 *2993:A1 *634:16 0.000139253
16 *3051:B *3048:B2 7.02696e-05
17 *3248:D *3048:B2 8.55242e-05
18 *229:20 *3048:B2 4.22854e-06
19 *242:48 *3048:B2 0
20 *242:48 *634:16 0
21 *560:14 *3048:B2 0.000498812
22 *560:14 *634:16 0.0012963
*RES
1 *3047:ZN *634:16 23.092 
2 *634:16 *3050:A2 9.38 
3 *634:16 *3048:B2 11.432 
*END

*D_NET *635 0.00179587
*CONN
*I *3049:A2 I *D gf180mcu_fd_sc_mcu7t5v0__nor2_1
*I *3048:ZN O *D gf180mcu_fd_sc_mcu7t5v0__aoi22_1
*CAP
1 *3049:A2 0.000274555
2 *3048:ZN 0.000274555
3 *3049:A2 *3053:A1 2.90159e-05
4 *2988:A1 *3049:A2 0.000317938
5 *3048:A2 *3049:A2 3.26422e-05
6 *3048:B2 *3049:A2 0.000147387
7 *3051:B *3049:A2 1.46914e-05
8 *3247:D *3049:A2 0.000172165
9 *3248:D *3049:A2 0.000493497
10 *235:8 *3049:A2 3.80391e-05
11 *560:14 *3049:A2 1.38592e-06
*RES
1 *3048:ZN *3049:A2 21.344 
*END

*D_NET *636 0.000180102
*CONN
*I *3051:A2 I *D gf180mcu_fd_sc_mcu7t5v0__oai21_1
*I *3050:Z O *D gf180mcu_fd_sc_mcu7t5v0__and2_1
*CAP
1 *3051:A2 5.25133e-05
2 *3050:Z 5.25133e-05
3 *3051:A2 *3247:CLK 7.50749e-05
*RES
1 *3050:Z *3051:A2 9.532 
*END

*D_NET *637 0.00136077
*CONN
*I *3053:A1 I *D gf180mcu_fd_sc_mcu7t5v0__aoi21_1
*I *3051:ZN O *D gf180mcu_fd_sc_mcu7t5v0__oai21_1
*CAP
1 *3053:A1 0.000345855
2 *3051:ZN 0.000345855
3 *3053:A1 *3049:A1 7.22944e-05
4 *3053:A1 *3247:CLK 0.000124396
5 *3053:A1 *803:27 1.94858e-05
6 *2966:A3 *3053:A1 2.6126e-05
7 *3049:A2 *3053:A1 2.90159e-05
8 *3247:D *3053:A1 0.000115071
9 *3248:D *3053:A1 0
10 *229:12 *3053:A1 0.000235573
11 *560:14 *3053:A1 4.7095e-05
*RES
1 *3051:ZN *3053:A1 21.192 
*END

*D_NET *638 0.00212708
*CONN
*I *3053:A2 I *D gf180mcu_fd_sc_mcu7t5v0__aoi21_1
*I *3052:ZN O *D gf180mcu_fd_sc_mcu7t5v0__nand2_1
*CAP
1 *3053:A2 0.000228936
2 *3052:ZN 0.000228936
3 *2988:A1 *3053:A2 0.000242087
4 *3048:A2 *3053:A2 0.000422015
5 *3248:D *3053:A2 7.30601e-05
6 *580:12 *3053:A2 0.000932044
*RES
1 *3052:ZN *3053:A2 21.496 
*END

*D_NET *639 0.0163834
*CONN
*I *3071:A2 I *D gf180mcu_fd_sc_mcu7t5v0__nor2_1
*I *3057:A2 I *D gf180mcu_fd_sc_mcu7t5v0__aoi21_1
*I *3074:A2 I *D gf180mcu_fd_sc_mcu7t5v0__nor2_1
*I *3060:A2 I *D gf180mcu_fd_sc_mcu7t5v0__aoi21_1
*I *3077:A2 I *D gf180mcu_fd_sc_mcu7t5v0__nor2_1
*I *3063:A2 I *D gf180mcu_fd_sc_mcu7t5v0__nor2_1
*I *3066:A2 I *D gf180mcu_fd_sc_mcu7t5v0__nor2_1
*I *3054:Z O *D gf180mcu_fd_sc_mcu7t5v0__and2_1
*CAP
1 *3071:A2 0.000355486
2 *3057:A2 0.000186788
3 *3074:A2 0.000224569
4 *3060:A2 0
5 *3077:A2 0
6 *3063:A2 0
7 *3066:A2 0.000100965
8 *3054:Z 2.09542e-05
9 *639:79 0.000542274
10 *639:57 0.000311761
11 *639:30 0.000266165
12 *639:26 0.000344191
13 *639:20 0.00100098
14 *639:6 0.000755751
15 *3057:A2 *3039:C1 0.00013063
16 *3057:A2 *656:19 7.54435e-05
17 *3057:A2 *656:61 8.7007e-05
18 *3057:A2 *787:12 0.000396904
19 *3066:A2 *3064:A3 0.000585188
20 *3066:A2 *728:14 0.000482145
21 *3066:A2 *809:29 0.000158809
22 *3066:A2 *810:27 7.03613e-05
23 *3071:A2 *2528:A1 0.00019803
24 *3071:A2 *3071:A1 2.52855e-05
25 *3071:A2 *3097:A2 3.39047e-05
26 *3071:A2 *3098:A1 0
27 *3071:A2 *656:61 5.80047e-05
28 *3071:A2 *683:43 0.000347577
29 *3071:A2 *787:16 3.51772e-05
30 *3071:A2 *787:27 1.38604e-05
31 *3074:A2 *2995:B1 0.000597061
32 *3074:A2 *2995:C1 0.000597061
33 *3074:A2 *3085:A2 8.42573e-05
34 *3074:A2 *3086:A2 0.000105448
35 *3074:A2 *802:35 0.000433002
36 *639:6 *770:32 3.07734e-05
37 *639:20 *2743:A1 0.000153622
38 *639:20 *2753:A1 0.000256715
39 *639:20 *3039:B2 8.55242e-05
40 *639:20 *3059:A2 0.000182882
41 *639:20 *3073:A1 0.000545584
42 *639:20 *3075:A2 0.000992398
43 *639:20 *3076:A1 0.000775146
44 *639:20 *3101:A2 1.95729e-05
45 *639:20 *3102:A1 5.97012e-05
46 *639:20 *3103:B 2.41362e-05
47 *639:20 *3263:CLK 0.000620728
48 *639:20 *3277:I 9.50253e-05
49 *639:20 *640:48 4.7095e-05
50 *639:20 *759:34 0.000261085
51 *639:20 *770:21 0.000268053
52 *639:20 *821:25 0.000123951
53 *639:20 *822:29 9.42885e-05
54 *639:26 *2751:A1 3.95494e-05
55 *639:26 *2753:A1 1.73203e-05
56 *639:26 *3059:A2 0.000132099
57 *639:26 *3076:A1 3.08902e-05
58 *639:26 *3078:A3 3.03621e-05
59 *639:26 *809:29 7.83779e-05
60 *639:26 *814:14 6.82255e-05
61 *639:30 *809:29 0.000759767
62 *639:57 *3060:A1 0.000151949
63 *639:57 *727:10 0.000797457
64 *639:57 *802:41 0.000529172
65 *2528:A3 *3057:A2 0.000101451
66 *2528:A3 *3071:A2 9.50423e-05
67 *2529:A2 *3071:A2 3.68443e-05
68 *2757:A1 *3074:A2 4.84789e-05
69 *2757:A1 *639:20 8.78761e-05
70 *2996:A2 *639:57 4.75104e-05
71 *3249:D *3057:A2 1.53627e-05
72 *236:65 *3057:A2 5.43087e-05
*RES
1 *3054:Z *639:6 4.728 
2 *639:6 *639:20 19.412 
3 *639:20 *639:26 1.444 
4 *639:26 *639:30 6.4 
5 *639:30 *3066:A2 11.812 
6 *639:30 *3063:A2 9 
7 *639:26 *3077:A2 4.5 
8 *639:20 *639:57 11.204 
9 *639:57 *3060:A2 4.5 
10 *639:57 *3074:A2 16.92 
11 *639:6 *639:79 4.5 
12 *639:79 *3057:A2 11.28 
13 *639:79 *3071:A2 11.736 
*END

*D_NET *640 0.0170841
*CONN
*I *3073:A2 I *D gf180mcu_fd_sc_mcu7t5v0__nor2_1
*I *3056:A2 I *D gf180mcu_fd_sc_mcu7t5v0__nand2_1
*I *3070:A2 I *D gf180mcu_fd_sc_mcu7t5v0__nor2_1
*I *3068:A2 I *D gf180mcu_fd_sc_mcu7t5v0__nor2_1
*I *3069:A2 I *D gf180mcu_fd_sc_mcu7t5v0__aoi211_1
*I *3076:A2 I *D gf180mcu_fd_sc_mcu7t5v0__nor2_1
*I *3059:A2 I *D gf180mcu_fd_sc_mcu7t5v0__nand2_1
*I *3062:A2 I *D gf180mcu_fd_sc_mcu7t5v0__nor2_1
*I *3065:A2 I *D gf180mcu_fd_sc_mcu7t5v0__nor2_1
*I *3055:ZN O *D gf180mcu_fd_sc_mcu7t5v0__nand2_1
*CAP
1 *3073:A2 1.55834e-05
2 *3056:A2 5.47458e-05
3 *3070:A2 0.00036057
4 *3068:A2 0
5 *3069:A2 0
6 *3076:A2 0
7 *3059:A2 0.000148599
8 *3062:A2 4.54533e-05
9 *3065:A2 6.48442e-05
10 *3055:ZN 8.29821e-05
11 *640:84 0.000757038
12 *640:80 0.000401364
13 *640:48 0.000317415
14 *640:33 0.000262164
15 *640:20 0.000327536
16 *640:16 0.000389837
17 *640:12 0.000186375
18 *640:8 0.000138376
19 *3056:A2 *3057:B 0.000106363
20 *3059:A2 *2751:A1 1.11891e-05
21 *3059:A2 *2753:A1 0.000471499
22 *3059:A2 *3059:A1 2.6126e-05
23 *3059:A2 *727:10 0.000129252
24 *3059:A2 *728:14 1.90748e-05
25 *3062:A2 *682:35 2.49331e-05
26 *3065:A2 *3003:B2 0.000269865
27 *3065:A2 *3010:A2 1.58994e-05
28 *3065:A2 *3277:I 0.000113374
29 *3065:A2 *792:34 2.49331e-05
30 *3070:A2 *2987:B2 0.000135941
31 *3070:A2 *3039:C1 0.000157421
32 *3070:A2 *683:51 5.86191e-06
33 *3073:A2 *729:10 0.000260718
34 *640:8 *2747:A1 0.000369754
35 *640:8 *657:31 5.09868e-05
36 *640:12 *729:10 0.000199473
37 *640:16 *2747:A1 0.000137168
38 *640:16 *3068:A1 5.71374e-05
39 *640:16 *3069:B 5.33202e-05
40 *640:20 *2481:I 0.000123777
41 *640:20 *2747:A1 0.00189551
42 *640:20 *3069:B 7.24161e-06
43 *640:20 *792:34 0.00013951
44 *640:33 *3003:B2 0.00068276
45 *640:33 *3277:I 0.000314281
46 *640:48 *2753:A1 7.32209e-05
47 *640:48 *3003:B2 0.000235816
48 *640:48 *3277:I 0.00052838
49 *640:48 *814:12 0.000253849
50 *640:80 *729:10 0.00119758
51 *640:84 *2987:A2 0.000308754
52 *640:84 *3039:C1 1.27163e-05
53 *640:84 *3057:B 4.98138e-05
54 *640:84 *3101:A2 0.000483795
55 *640:84 *656:31 0.000347887
56 *640:84 *770:21 6.11547e-05
57 *640:84 *787:12 0.000192419
58 *2757:A1 *3059:A2 0
59 *2757:A1 *640:20 0.000583464
60 *2988:A1 *3070:A2 4.16812e-06
61 *2988:A2 *3056:A2 0.000300828
62 *2988:A2 *640:84 0.000261337
63 *2996:A2 *640:48 0.000343268
64 *3039:C2 *640:12 0.000206341
65 *3039:C2 *640:80 0.000428666
66 *3069:A1 *640:20 4.81237e-05
67 *3253:D *640:16 0
68 *3253:D *640:20 0.000296797
69 *580:45 *640:84 0.000248315
70 *580:49 *3070:A2 0.000419363
71 *616:22 *3073:A2 0.000118153
72 *616:22 *640:80 0.000361607
73 *639:20 *3059:A2 0.000182882
74 *639:20 *640:48 4.7095e-05
75 *639:26 *3059:A2 0.000132099
*RES
1 *3055:ZN *640:8 9.988 
2 *640:8 *640:12 5.032 
3 *640:12 *640:16 1.368 
4 *640:16 *640:20 9.592 
5 *640:20 *3065:A2 9.912 
6 *640:20 *640:33 1.748 
7 *640:33 *3062:A2 9.228 
8 *640:33 *640:48 7.844 
9 *640:48 *3059:A2 15.248 
10 *640:48 *3076:A2 4.5 
11 *640:16 *3069:A2 4.5 
12 *640:12 *3068:A2 4.5 
13 *640:8 *640:80 2.964 
14 *640:80 *640:84 8.984 
15 *640:84 *3070:A2 16.616 
16 *640:84 *3056:A2 5.336 
17 *640:80 *3073:A2 9.684 
*END

*D_NET *641 0.00107016
*CONN
*I *3058:A1 I *D gf180mcu_fd_sc_mcu7t5v0__nand2_1
*I *3056:ZN O *D gf180mcu_fd_sc_mcu7t5v0__nand2_1
*CAP
1 *3058:A1 0.000287363
2 *3056:ZN 0.000287363
3 *3058:A1 *2987:B2 7.86802e-05
4 *3058:A1 *3039:C1 0.000305938
5 *3058:A1 *3105:A1 0
6 *3058:A1 *683:51 0.000110811
*RES
1 *3056:ZN *3058:A1 20.356 
*END

*D_NET *642 0.00133105
*CONN
*I *3058:A2 I *D gf180mcu_fd_sc_mcu7t5v0__nand2_1
*I *3057:ZN O *D gf180mcu_fd_sc_mcu7t5v0__aoi21_1
*CAP
1 *3058:A2 7.85499e-05
2 *3057:ZN 7.85499e-05
3 *3058:A2 *2987:A1 0.00035308
4 *3058:A2 *3039:C1 0.000645228
5 *3058:A2 *683:51 2.23385e-05
6 *3058:A2 *725:25 0.000153305
*RES
1 *3057:ZN *3058:A2 10.9 
*END

*D_NET *643 0.00184916
*CONN
*I *3061:A1 I *D gf180mcu_fd_sc_mcu7t5v0__nand2_1
*I *3059:ZN O *D gf180mcu_fd_sc_mcu7t5v0__nand2_1
*CAP
1 *3061:A1 0.000363598
2 *3059:ZN 0.000363598
3 *3061:A1 *2749:A1 0.000673033
4 *3061:A1 *2753:A1 0.000141382
5 *3061:A1 *3059:A1 9.88736e-06
6 *3061:A1 *3085:A1 3.92025e-05
7 *3061:A1 *3085:A2 0
8 *3061:A1 *3086:A3 0.000158878
9 *3061:A1 *800:8 7.72448e-05
10 *3061:A1 *823:21 2.23385e-05
*RES
1 *3059:ZN *3061:A1 21.648 
*END

*D_NET *644 0.00166574
*CONN
*I *3061:A2 I *D gf180mcu_fd_sc_mcu7t5v0__nand2_1
*I *3060:ZN O *D gf180mcu_fd_sc_mcu7t5v0__aoi21_1
*CAP
1 *3061:A2 0.000300108
2 *3060:ZN 0.000300108
3 *3061:A2 *2748:A1 0.000189147
4 *3061:A2 *2756:A1 1.44832e-05
5 *3061:A2 *3085:A2 0.000114781
6 *2757:A1 *3061:A2 0.000747117
*RES
1 *3060:ZN *3061:A2 12.42 
*END

*D_NET *645 0.00064616
*CONN
*I *3064:A2 I *D gf180mcu_fd_sc_mcu7t5v0__nor3_1
*I *3062:ZN O *D gf180mcu_fd_sc_mcu7t5v0__nor2_1
*CAP
1 *3064:A2 0.000210342
2 *3062:ZN 0.000210342
3 *3064:A2 *2747:A1 6.63595e-05
4 *3064:A2 *3064:A1 0.000159117
5 *3064:A2 *682:35 0
*RES
1 *3062:ZN *3064:A2 10.672 
*END

*D_NET *646 0.000940541
*CONN
*I *3064:A3 I *D gf180mcu_fd_sc_mcu7t5v0__nor3_1
*I *3063:ZN O *D gf180mcu_fd_sc_mcu7t5v0__nor2_1
*CAP
1 *3064:A3 0.00012647
2 *3063:ZN 0.00012647
3 *3064:A3 *3252:CLK 3.77371e-05
4 *3064:A3 *682:35 6.03784e-05
5 *3064:A3 *810:27 4.29636e-06
6 *3066:A2 *3064:A3 0.000585188
*RES
1 *3063:ZN *3064:A3 19.444 
*END

*D_NET *647 0.00178615
*CONN
*I *3067:A2 I *D gf180mcu_fd_sc_mcu7t5v0__nor3_1
*I *3065:ZN O *D gf180mcu_fd_sc_mcu7t5v0__nor2_1
*CAP
1 *3067:A2 0.000290483
2 *3065:ZN 0.000290483
3 *3067:A2 *2754:A1 4.96477e-05
4 *3067:A2 *3010:A1 2.25184e-05
5 *3067:A2 *3066:A1 4.98138e-05
6 *3067:A2 *3067:A3 0.000732431
7 *3067:A2 *728:14 0.000248576
8 *3067:A2 *728:27 2.6126e-05
9 *3067:A2 *792:34 5.37328e-05
10 *3067:A2 *810:27 2.23385e-05
*RES
1 *3065:ZN *3067:A2 12.192 
*END

*D_NET *648 0.00131178
*CONN
*I *3067:A3 I *D gf180mcu_fd_sc_mcu7t5v0__nor3_1
*I *3066:ZN O *D gf180mcu_fd_sc_mcu7t5v0__nor2_1
*CAP
1 *3067:A3 5.10404e-05
2 *3066:ZN 5.10404e-05
3 *3067:A3 *792:34 0.000214408
4 *3067:A3 *810:27 0.00026286
5 *3067:A2 *3067:A3 0.000732431
*RES
1 *3066:ZN *3067:A3 10.9 
*END

*D_NET *649 0.000880681
*CONN
*I *3069:B I *D gf180mcu_fd_sc_mcu7t5v0__aoi211_1
*I *3068:ZN O *D gf180mcu_fd_sc_mcu7t5v0__nor2_1
*CAP
1 *3069:B 9.41817e-05
2 *3068:ZN 9.41817e-05
3 *3069:B *3068:A1 0.000137785
4 *3069:B *792:34 0.000463081
5 *3069:A1 *3069:B 3.08902e-05
6 *640:16 *3069:B 5.33202e-05
7 *640:20 *3069:B 7.24161e-06
*RES
1 *3068:ZN *3069:B 10.292 
*END

*D_NET *650 0.00154908
*CONN
*I *3072:A2 I *D gf180mcu_fd_sc_mcu7t5v0__nor3_1
*I *3070:ZN O *D gf180mcu_fd_sc_mcu7t5v0__nor2_1
*CAP
1 *3072:A2 0.000415369
2 *3070:ZN 0.000415369
3 *3072:A2 *3072:A3 7.50749e-05
4 *3072:A2 *3097:A1 4.2318e-06
5 *3072:A2 *3097:A2 0.000127684
6 *3072:A2 *3098:A1 0.000511357
7 *3254:D *3072:A2 0
*RES
1 *3070:ZN *3072:A2 12.572 
*END

*D_NET *651 0.00207814
*CONN
*I *3072:A3 I *D gf180mcu_fd_sc_mcu7t5v0__nor3_1
*I *3071:ZN O *D gf180mcu_fd_sc_mcu7t5v0__nor2_1
*CAP
1 *3072:A3 0.000581043
2 *3071:ZN 0.000581043
3 *3072:A3 *3039:C1 0.000625358
4 *3072:A3 *3070:A1 3.24828e-05
5 *3072:A3 *3098:A1 4.01733e-06
6 *3072:A3 *683:43 0.000134206
7 *3072:A3 *704:29 5.76373e-06
8 *3072:A2 *3072:A3 7.50749e-05
9 *3262:D *3072:A3 3.91485e-05
*RES
1 *3071:ZN *3072:A3 13.864 
*END

*D_NET *652 0.00295744
*CONN
*I *3075:A2 I *D gf180mcu_fd_sc_mcu7t5v0__nor3_1
*I *3073:ZN O *D gf180mcu_fd_sc_mcu7t5v0__nor2_1
*CAP
1 *3075:A2 0.000231829
2 *3073:ZN 0.000231829
3 *3075:A2 *2753:A1 0.000413078
4 *3075:A2 *3073:A1 0.000147313
5 *3075:A2 *3076:A1 0.000362608
6 *3075:A2 *3100:B 1.3758e-05
7 *3075:A2 *682:12 0.000310683
8 *3075:A2 *771:23 5.43087e-05
9 *3255:D *3075:A2 0.000199636
10 *639:20 *3075:A2 0.000992398
*RES
1 *3073:ZN *3075:A2 22.332 
*END

*D_NET *653 0.00220385
*CONN
*I *3075:A3 I *D gf180mcu_fd_sc_mcu7t5v0__nor3_1
*I *3074:ZN O *D gf180mcu_fd_sc_mcu7t5v0__nor2_1
*CAP
1 *3075:A3 0.000313349
2 *3074:ZN 0.000313349
3 *3075:A3 *2995:B1 4.28589e-05
4 *3075:A3 *2995:C1 0.000223963
5 *3075:A3 *3293:I 4.04248e-05
6 *3075:A3 *771:23 0.000991819
7 *3036:A2 *3075:A3 0.000255714
8 *3255:D *3075:A3 2.23783e-05
*RES
1 *3074:ZN *3075:A3 21.496 
*END

*D_NET *654 0.0013549
*CONN
*I *3078:A2 I *D gf180mcu_fd_sc_mcu7t5v0__nor3_1
*I *3076:ZN O *D gf180mcu_fd_sc_mcu7t5v0__nor2_1
*CAP
1 *3078:A2 5.78594e-05
2 *3076:ZN 5.78594e-05
3 *3078:A2 *2741:A1 1.52691e-05
4 *3078:A2 *2743:A1 7.83779e-05
5 *3078:A2 *3076:A1 0.00013063
6 *3078:A2 *727:10 0.000449002
7 *3078:A2 *802:41 0.000435272
8 *3078:A2 *814:14 0.00013063
*RES
1 *3076:ZN *3078:A2 19.748 
*END

*D_NET *655 0.000869808
*CONN
*I *3078:A3 I *D gf180mcu_fd_sc_mcu7t5v0__nor3_1
*I *3077:ZN O *D gf180mcu_fd_sc_mcu7t5v0__nor2_1
*CAP
1 *3078:A3 0.000233443
2 *3077:ZN 0.000233443
3 *3078:A3 *2743:A1 6.38647e-05
4 *3078:A3 *3039:B2 1.02578e-05
5 *3078:A3 *814:14 0.000298437
6 *639:26 *3078:A3 3.03621e-05
*RES
1 *3077:ZN *3078:A3 10.824 
*END

*D_NET *656 0.0248707
*CONN
*I *3094:A2 I *D gf180mcu_fd_sc_mcu7t5v0__nor2_1
*I *3088:A2 I *D gf180mcu_fd_sc_mcu7t5v0__nor2_1
*I *3091:A2 I *D gf180mcu_fd_sc_mcu7t5v0__aoi21_1
*I *3097:A2 I *D gf180mcu_fd_sc_mcu7t5v0__aoi21_1
*I *3100:A2 I *D gf180mcu_fd_sc_mcu7t5v0__aoi21_1
*I *3085:A2 I *D gf180mcu_fd_sc_mcu7t5v0__nor2_1
*I *3103:A2 I *D gf180mcu_fd_sc_mcu7t5v0__aoi21_1
*I *3082:A2 I *D gf180mcu_fd_sc_mcu7t5v0__nor2_1
*I *3079:Z O *D gf180mcu_fd_sc_mcu7t5v0__and2_1
*CAP
1 *3094:A2 0
2 *3088:A2 0.000151621
3 *3091:A2 1.58723e-05
4 *3097:A2 0.000723103
5 *3100:A2 3.61532e-05
6 *3085:A2 0.000948273
7 *3103:A2 9.6564e-06
8 *3082:A2 0
9 *3079:Z 4.62235e-05
10 *656:95 0.000696625
11 *656:87 0.00106231
12 *656:61 0.000940625
13 *656:31 0.00136377
14 *656:19 0.000792018
15 *656:10 0.000401168
16 *656:6 0.000775763
17 *3085:A2 *2749:A1 2.57835e-05
18 *3085:A2 *2756:A1 0.000136508
19 *3085:A2 *2995:C2 7.18188e-05
20 *3085:A2 *3084:A2 0.000141888
21 *3085:A2 *3085:A1 3.4631e-05
22 *3085:A2 *3103:A1 0.000432986
23 *3085:A2 *3104:A2 4.78829e-05
24 *3085:A2 *3277:I 0
25 *3085:A2 *3278:I 0.000147836
26 *3085:A2 *682:12 4.62315e-06
27 *3085:A2 *682:14 1.44953e-05
28 *3085:A2 *683:8 1.97747e-05
29 *3085:A2 *726:14 0.00147201
30 *3085:A2 *726:25 0.000157679
31 *3085:A2 *732:10 0.000135941
32 *3088:A2 *2742:A1 0.00024691
33 *3088:A2 *3088:A1 1.5015e-05
34 *3088:A2 *3091:B 0
35 *3088:A2 *3092:A2 0
36 *3091:A2 *2742:A1 1.2339e-05
37 *3097:A2 *3027:C2 0.000353088
38 *3097:A2 *3070:A1 0.000171927
39 *3097:A2 *3071:A1 2.19873e-05
40 *3097:A2 *3096:A2 1.77852e-05
41 *3097:A2 *3097:A1 2.23385e-05
42 *3097:A2 *3098:A1 0.000415774
43 *3097:A2 *3366:I 0.000428484
44 *3097:A2 *683:43 5.94709e-06
45 *3097:A2 *787:27 0
46 *3097:A2 *812:19 2.82929e-05
47 *3097:A2 *819:24 0.000114063
48 *3100:A2 *2528:A1 0.000414869
49 *3100:A2 *759:34 0.000414869
50 *3103:A2 *2741:A1 3.73535e-05
51 *3103:A2 *3039:C1 4.50449e-05
52 *656:6 *767:25 3.6043e-05
53 *656:6 *767:33 2.74753e-05
54 *656:19 *787:12 0.000130509
55 *656:31 *2741:A1 0.000112643
56 *656:31 *3039:C1 0.000861158
57 *656:31 *3099:A1 1.94399e-05
58 *656:31 *3101:A2 1.76797e-05
59 *656:31 *759:34 4.0645e-06
60 *656:61 *3096:A2 0.000130572
61 *656:87 *3002:A2 6.46452e-06
62 *656:87 *3095:A3 7.88344e-05
63 *656:87 *657:10 0
64 *656:87 *707:58 0
65 *656:87 *767:33 0.00210014
66 *656:95 *2742:A1 0
67 *656:95 *3002:A2 0
68 *656:95 *3087:A2 0.000124506
69 *656:95 *3091:B 8.55327e-05
70 *656:95 *3092:A2 0
71 *656:95 *3094:A1 5.08971e-06
72 *656:95 *3111:A1 0.000278663
73 *656:95 *695:85 0
74 *656:95 *767:33 0.000167816
75 *656:95 *767:39 0.000182882
76 DAT_O[0] *3097:A2 7.45328e-07
77 *2520:A2 *656:87 0.000268763
78 *2757:A1 *3085:A2 0.000149817
79 *3036:A1 *3085:A2 0.00156934
80 *3057:A2 *656:19 7.54435e-05
81 *3057:A2 *656:61 8.7007e-05
82 *3061:A1 *3085:A2 0
83 *3061:A2 *3085:A2 0.000114781
84 *3071:A2 *3097:A2 3.39047e-05
85 *3071:A2 *656:61 5.80047e-05
86 *3072:A2 *3097:A2 0.000127684
87 *3074:A2 *3085:A2 8.42573e-05
88 *3254:D *3097:A2 7.52043e-05
89 *3263:D *656:31 0.00025334
90 *3336:I *3085:A2 0.000202887
91 *3364:I *656:10 0.000106165
92 *3364:I *656:19 1.97166e-05
93 *236:54 *656:10 8.10706e-06
94 *236:54 *656:19 2.02592e-05
95 *237:12 *656:10 0.000132356
96 *240:8 *656:6 0.000255714
97 *240:8 *656:87 2.23477e-05
98 *580:28 *656:10 0.000875389
99 *580:45 *656:10 0.000403764
100 *580:45 *656:19 0.00139933
101 *580:45 *656:61 0.000235816
102 *640:84 *656:31 0.000347887
*RES
1 *3079:Z *656:6 5.184 
2 *656:6 *656:10 7.616 
3 *656:10 *3082:A2 9 
4 *656:10 *656:19 3.572 
5 *656:19 *656:31 9.44 
6 *656:31 *3103:A2 4.728 
7 *656:31 *3085:A2 33.9 
8 *656:19 *656:61 1.9 
9 *656:61 *3100:A2 10.14 
10 *656:61 *3097:A2 15.84 
11 *656:6 *656:87 6.308 
12 *656:87 *656:95 4.408 
13 *656:95 *3091:A2 4.728 
14 *656:95 *3088:A2 5.716 
15 *656:87 *3094:A2 4.5 
*END

*D_NET *657 0.0216802
*CONN
*I *3096:A2 I *D gf180mcu_fd_sc_mcu7t5v0__nand2_1
*I *3081:A2 I *D gf180mcu_fd_sc_mcu7t5v0__nor2_1
*I *3102:A2 I *D gf180mcu_fd_sc_mcu7t5v0__nand2_1
*I *3099:A2 I *D gf180mcu_fd_sc_mcu7t5v0__nand2_1
*I *3084:A2 I *D gf180mcu_fd_sc_mcu7t5v0__nor2_1
*I *3090:A2 I *D gf180mcu_fd_sc_mcu7t5v0__nand2_1
*I *3087:A2 I *D gf180mcu_fd_sc_mcu7t5v0__nor2_1
*I *3093:A2 I *D gf180mcu_fd_sc_mcu7t5v0__nor2_1
*I *3080:ZN O *D gf180mcu_fd_sc_mcu7t5v0__nand2_1
*CAP
1 *3096:A2 0.000543885
2 *3081:A2 0.000152606
3 *3102:A2 0
4 *3099:A2 0.000233362
5 *3084:A2 0.000428592
6 *3090:A2 2.00938e-05
7 *3087:A2 0.000496411
8 *3093:A2 0.00014019
9 *3080:ZN 0.000324127
10 *657:65 0.000710593
11 *657:39 0.000782584
12 *657:33 0.000342142
13 *657:31 0.000725839
14 *657:27 0.000851021
15 *657:25 0.000882655
16 *657:10 0.000803086
17 *3081:A2 *3039:C1 0
18 *3084:A2 *2743:A1 1.2018e-05
19 *3084:A2 *2995:B1 0.00154377
20 *3084:A2 *3039:A2 0.000112343
21 *3084:A2 *3039:B2 5.74961e-05
22 *3084:A2 *3103:B 1.97747e-05
23 *3084:A2 *3277:I 0
24 *3084:A2 *773:18 3.50929e-06
25 *3084:A2 *802:35 0
26 *3087:A2 *3002:A2 9.43527e-05
27 *3087:A2 *3112:B 0.000387765
28 *3087:A2 *695:85 6.07523e-05
29 *3087:A2 *707:58 1.95729e-05
30 *3087:A2 *772:27 8.4043e-05
31 *3087:A2 *772:40 3.75002e-05
32 *3087:A2 *773:18 0.000247494
33 *3090:A2 *3010:A2 0.000140167
34 *3090:A2 *818:17 5.97012e-05
35 *3093:A2 *3019:C1 7.71175e-06
36 *3093:A2 *3113:A1 0.000227292
37 *3093:A2 *729:16 0.000210554
38 *3093:A2 *767:33 0.000178824
39 *3096:A2 *2756:A1 2.6126e-05
40 *3096:A2 *3073:A1 6.85843e-06
41 *3096:A2 *3101:A2 0.000179637
42 *3096:A2 *3366:I 0.000955595
43 *3096:A2 *731:12 9.17988e-05
44 *3096:A2 *770:21 0.000193032
45 *3096:A2 *819:24 1.97747e-05
46 *3099:A2 *2741:A1 0.000277862
47 *3099:A2 *3099:A1 2.96621e-05
48 *3099:A2 *3103:B 0.000200571
49 *3099:A2 *3263:CLK 3.39542e-05
50 *3099:A2 *759:34 0.000231994
51 *657:10 *2520:A1 0.000498355
52 *657:10 *3095:A2 8.62056e-05
53 *657:10 *707:58 0.000601661
54 *657:25 *2520:A1 0.000487374
55 *657:25 *729:16 0
56 *657:25 *770:8 0.00036253
57 *657:25 *770:21 6.83457e-05
58 *657:31 *2747:A1 3.91081e-05
59 *657:31 *3039:C1 0
60 *657:31 *3253:CLK 0.000114958
61 *657:31 *682:29 5.14116e-06
62 *657:33 *2747:A1 5.14116e-06
63 *657:33 *682:29 4.97712e-06
64 *657:39 *2747:A1 1.48587e-05
65 *657:39 *682:29 1.21175e-05
66 *657:39 *773:18 0.000432773
67 *657:65 *3102:A1 0.000859356
68 *657:65 *3253:CLK 1.47007e-05
69 *657:65 *771:10 0.000698522
70 *657:65 *771:23 0.000244694
71 DAT_O[0] *3096:A2 0.000131801
72 *2520:A2 *657:10 3.98682e-05
73 *2757:A1 *3084:A2 0.000318731
74 *3020:A1 *657:31 2.28628e-05
75 *3020:A2 *657:31 1.74285e-05
76 *3039:C2 *657:31 0.000462418
77 *3044:A1 *3084:A2 0.00041564
78 *3044:A1 *3087:A2 0.000337765
79 *3044:A1 *3099:A2 0.000111659
80 *3044:A1 *657:39 0.000421584
81 *3055:A1 *3081:A2 8.38323e-05
82 *3055:A1 *657:31 3.13603e-05
83 *3085:A2 *3084:A2 0.000141888
84 *3097:A2 *3096:A2 1.77852e-05
85 *3249:D *3081:A2 0.000255722
86 *237:12 *657:10 0
87 *240:8 *657:10 1.49066e-06
88 *580:22 *657:10 5.87561e-06
89 *580:28 *657:10 6.12935e-05
90 *580:28 *657:25 1.6003e-05
91 *580:45 *3096:A2 0.000459035
92 *580:45 *657:25 0.000280587
93 *640:8 *657:31 5.09868e-05
94 *656:61 *3096:A2 0.000130572
95 *656:87 *657:10 0
96 *656:95 *3087:A2 0.000124506
*RES
1 *3080:ZN *657:10 12.496 
2 *657:10 *3093:A2 10.748 
3 *657:10 *657:25 4.18 
4 *657:25 *657:27 4.5 
5 *657:27 *657:31 5.016 
6 *657:31 *657:33 0.228 
7 *657:33 *657:39 7.692 
8 *657:39 *3087:A2 14.016 
9 *657:39 *3090:A2 9.38 
10 *657:33 *657:65 11.356 
11 *657:65 *3084:A2 19.2 
12 *657:65 *3099:A2 7.008 
13 *657:31 *3102:A2 4.5 
14 *657:27 *3081:A2 5.792 
15 *657:25 *3096:A2 15.764 
*END

*D_NET *658 0.00320395
*CONN
*I *3083:A2 I *D gf180mcu_fd_sc_mcu7t5v0__nor3_1
*I *3081:ZN O *D gf180mcu_fd_sc_mcu7t5v0__nor2_1
*CAP
1 *3083:A2 0.000126658
2 *3081:ZN 0.000126658
3 *3083:A2 *3081:A1 9.52854e-05
4 *3083:A2 *3083:A3 0.00111396
5 *3083:A2 *767:106 0.000665988
6 *3083:A2 *808:12 0.000354563
7 *3257:D *3083:A2 0
8 *3312:I *3083:A2 0.000514812
9 *236:54 *3083:A2 0.000149334
10 *236:65 *3083:A2 5.66946e-05
*RES
1 *3081:ZN *3083:A2 22.256 
*END

*D_NET *659 0.00245107
*CONN
*I *3083:A3 I *D gf180mcu_fd_sc_mcu7t5v0__nor3_1
*I *3082:ZN O *D gf180mcu_fd_sc_mcu7t5v0__nor2_1
*CAP
1 *3083:A3 0.000275218
2 *3082:ZN 0.000275218
3 *3083:A3 *792:34 0.000354258
4 *3083:A3 *808:12 0.000206726
5 *2521:A2 *3083:A3 0.000147313
6 *3083:A2 *3083:A3 0.00111396
7 *3364:I *3083:A3 7.83779e-05
*RES
1 *3082:ZN *3083:A3 13.18 
*END

*D_NET *660 0.00276262
*CONN
*I *3086:A2 I *D gf180mcu_fd_sc_mcu7t5v0__nor3_1
*I *3084:ZN O *D gf180mcu_fd_sc_mcu7t5v0__nor2_1
*CAP
1 *3086:A2 0.000451513
2 *3084:ZN 0.000451513
3 *3086:A2 *2756:A1 1.74287e-05
4 *3086:A2 *2995:A2 2.88168e-05
5 *3086:A2 *2995:B1 0.000291299
6 *3086:A2 *2995:B2 0.000326276
7 *3086:A2 *2995:C2 5.37328e-05
8 *3086:A2 *728:14 0.000901106
9 *3086:A2 *802:27 2.11326e-05
10 *3086:A2 *802:35 2.67803e-05
11 *2996:A2 *3086:A2 2.11799e-05
12 *3074:A2 *3086:A2 0.000105448
13 *3250:D *3086:A2 6.63909e-05
*RES
1 *3084:ZN *3086:A2 23.016 
*END

*D_NET *661 0.00139978
*CONN
*I *3086:A3 I *D gf180mcu_fd_sc_mcu7t5v0__nor3_1
*I *3085:ZN O *D gf180mcu_fd_sc_mcu7t5v0__nor2_1
*CAP
1 *3086:A3 0.000125264
2 *3085:ZN 0.000125264
3 *3086:A3 *2749:A1 4.52262e-05
4 *3086:A3 *3085:A1 0
5 *3086:A3 *800:8 0.000566901
6 *2757:A1 *3086:A3 0.000307983
7 *3061:A1 *3086:A3 0.000158878
8 *3250:D *3086:A3 7.02696e-05
*RES
1 *3085:ZN *3086:A3 20.28 
*END

*D_NET *662 0.000832491
*CONN
*I *3089:A2 I *D gf180mcu_fd_sc_mcu7t5v0__nor3_1
*I *3087:ZN O *D gf180mcu_fd_sc_mcu7t5v0__nor2_1
*CAP
1 *3089:A2 0.000221655
2 *3087:ZN 0.000221655
3 *3089:A2 *3091:B 2.36392e-05
4 *3089:A2 *695:6 5.32287e-05
5 *3089:A2 *695:85 0.000125453
6 *3089:A2 *707:58 0.000186861
*RES
1 *3087:ZN *3089:A2 10.9 
*END

*D_NET *663 0.000920734
*CONN
*I *3089:A3 I *D gf180mcu_fd_sc_mcu7t5v0__nor3_1
*I *3088:ZN O *D gf180mcu_fd_sc_mcu7t5v0__nor2_1
*CAP
1 *3089:A3 0.000205979
2 *3088:ZN 0.000205979
3 *3089:A3 *3002:A1 0.000147092
4 *3089:A3 *3088:A1 0.000193942
5 *3089:A3 *3091:B 2.40935e-05
6 *3089:A3 *3252:CLK 0.000143649
7 *3012:A1 *3089:A3 0
*RES
1 *3088:ZN *3089:A3 20.28 
*END

*D_NET *664 0.00027518
*CONN
*I *3092:A1 I *D gf180mcu_fd_sc_mcu7t5v0__nand2_1
*I *3090:ZN O *D gf180mcu_fd_sc_mcu7t5v0__nand2_1
*CAP
1 *3092:A1 8.83262e-05
2 *3090:ZN 8.83262e-05
3 *3092:A1 *3092:A2 3.08902e-05
4 *3092:A1 *818:17 3.02841e-05
5 *3260:D *3092:A1 3.73535e-05
*RES
1 *3090:ZN *3092:A1 9.76 
*END

*D_NET *665 0.00112593
*CONN
*I *3092:A2 I *D gf180mcu_fd_sc_mcu7t5v0__nand2_1
*I *3091:ZN O *D gf180mcu_fd_sc_mcu7t5v0__aoi21_1
*CAP
1 *3092:A2 0.00028955
2 *3091:ZN 0.00028955
3 *3092:A2 *2742:A1 7.93459e-06
4 *3092:A2 *2754:A1 7.84011e-05
5 *3092:A2 *3111:A1 0.000110632
6 *3092:A2 *818:17 3.84832e-06
7 *3088:A2 *3092:A2 0
8 *3092:A1 *3092:A2 3.08902e-05
9 *3260:D *3092:A2 0.00031512
10 *656:95 *3092:A2 0
*RES
1 *3091:ZN *3092:A2 11.356 
*END

*D_NET *666 0.00227016
*CONN
*I *3095:A2 I *D gf180mcu_fd_sc_mcu7t5v0__nor3_1
*I *3093:ZN O *D gf180mcu_fd_sc_mcu7t5v0__nor2_1
*CAP
1 *3095:A2 0.000376732
2 *3093:ZN 0.000376732
3 *3095:A2 *707:58 0.000156004
4 *2520:A2 *3095:A2 0.00103709
5 *3261:D *3095:A2 0.000237399
6 *616:22 *3095:A2 0
7 *657:10 *3095:A2 8.62056e-05
*RES
1 *3093:ZN *3095:A2 22.104 
*END

*D_NET *667 0.000836294
*CONN
*I *3095:A3 I *D gf180mcu_fd_sc_mcu7t5v0__nor3_1
*I *3094:ZN O *D gf180mcu_fd_sc_mcu7t5v0__nor2_1
*CAP
1 *3095:A3 0.000141379
2 *3094:ZN 0.000141379
3 *3095:A3 *3069:C 5.35814e-05
4 *3095:A3 *707:58 2.0087e-05
5 *3095:A3 *773:48 0.000204191
6 *2520:A2 *3095:A3 0.000196843
7 *656:87 *3095:A3 7.88344e-05
*RES
1 *3094:ZN *3095:A3 19.672 
*END

*D_NET *668 0.00275105
*CONN
*I *3098:A1 I *D gf180mcu_fd_sc_mcu7t5v0__nand2_1
*I *3096:ZN O *D gf180mcu_fd_sc_mcu7t5v0__nand2_1
*CAP
1 *3098:A1 0.000567382
2 *3096:ZN 0.000567382
3 *3098:A1 *3070:A1 0.000362601
4 *3098:A1 *3071:A1 0
5 *3098:A1 *3366:I 1.82078e-05
6 *3098:A1 *812:19 8.57425e-05
7 *3071:A2 *3098:A1 0
8 *3072:A2 *3098:A1 0.000511357
9 *3072:A3 *3098:A1 4.01733e-06
10 *3097:A2 *3098:A1 0.000415774
11 *3262:D *3098:A1 0.000218583
*RES
1 *3096:ZN *3098:A1 23.624 
*END

*D_NET *669 0.000403411
*CONN
*I *3098:A2 I *D gf180mcu_fd_sc_mcu7t5v0__nand2_1
*I *3097:ZN O *D gf180mcu_fd_sc_mcu7t5v0__aoi21_1
*CAP
1 *3098:A2 0.00011193
2 *3097:ZN 0.00011193
3 *3098:A2 *3070:A1 0
4 *3098:A2 *725:8 0.000179551
*RES
1 *3097:ZN *3098:A2 18.988 
*END

*D_NET *670 0.000330892
*CONN
*I *3101:A1 I *D gf180mcu_fd_sc_mcu7t5v0__nand2_1
*I *3099:ZN O *D gf180mcu_fd_sc_mcu7t5v0__nand2_1
*CAP
1 *3101:A1 8.59269e-05
2 *3099:ZN 8.59269e-05
3 *3101:A1 *3099:A1 3.08902e-05
4 *3101:A1 *759:34 4.63109e-05
5 *3263:D *3101:A1 8.18373e-05
*RES
1 *3099:ZN *3101:A1 9.76 
*END

*D_NET *671 0.00186467
*CONN
*I *3101:A2 I *D gf180mcu_fd_sc_mcu7t5v0__nand2_1
*I *3100:ZN O *D gf180mcu_fd_sc_mcu7t5v0__aoi21_1
*CAP
1 *3101:A2 0.000213887
2 *3100:ZN 0.000213887
3 *3101:A2 *3073:A1 0.000361707
4 *3101:A2 *759:34 0.00019975
5 *3101:A2 *770:21 0.000174758
6 *3096:A2 *3101:A2 0.000179637
7 *639:20 *3101:A2 1.95729e-05
8 *640:84 *3101:A2 0.000483795
9 *656:31 *3101:A2 1.76797e-05
*RES
1 *3100:ZN *3101:A2 21.192 
*END

*D_NET *672 0.000790231
*CONN
*I *3104:A1 I *D gf180mcu_fd_sc_mcu7t5v0__nand2_1
*I *3102:ZN O *D gf180mcu_fd_sc_mcu7t5v0__nand2_1
*CAP
1 *3104:A1 0.000179459
2 *3102:ZN 0.000179459
3 *3104:A1 *3039:C1 3.07734e-05
4 *3104:A1 *682:29 1.08231e-05
5 *3039:C2 *3104:A1 0.000308699
6 *3264:D *3104:A1 8.10176e-05
*RES
1 *3102:ZN *3104:A1 10.976 
*END

*D_NET *673 0.000279136
*CONN
*I *3104:A2 I *D gf180mcu_fd_sc_mcu7t5v0__nand2_1
*I *3103:ZN O *D gf180mcu_fd_sc_mcu7t5v0__aoi21_1
*CAP
1 *3104:A2 5.33565e-05
2 *3103:ZN 5.33565e-05
3 *3104:A2 *682:14 6.7444e-05
4 *3036:A1 *3104:A2 5.70962e-05
5 *3085:A2 *3104:A2 4.78829e-05
*RES
1 *3103:ZN *3104:A2 18.684 
*END

*D_NET *674 0.000636816
*CONN
*I *3106:B I *D gf180mcu_fd_sc_mcu7t5v0__aoi211_1
*I *3105:ZN O *D gf180mcu_fd_sc_mcu7t5v0__oai22_1
*CAP
1 *3106:B 0.000196721
2 *3105:ZN 0.000196721
3 *3106:B *2987:A1 0
4 *3106:B *3329:I 0.000184378
5 *3106:B *697:19 0
6 *3106:B *805:57 5.89964e-05
*RES
1 *3105:ZN *3106:B 10.672 
*END

*D_NET *675 0.000410252
*CONN
*I *3108:B I *D gf180mcu_fd_sc_mcu7t5v0__aoi211_1
*I *3107:ZN O *D gf180mcu_fd_sc_mcu7t5v0__nor2_1
*CAP
1 *3108:B 0.000111943
2 *3107:ZN 0.000111943
3 *3108:B *3022:A1 0.00011955
4 *3108:B *3107:A1 0
5 *3266:D *3108:B 6.68164e-05
*RES
1 *3107:ZN *3108:B 10.064 
*END

*D_NET *676 0.000735515
*CONN
*I *3110:B I *D gf180mcu_fd_sc_mcu7t5v0__aoi211_1
*I *3109:ZN O *D gf180mcu_fd_sc_mcu7t5v0__nor2_1
*CAP
1 *3110:B 0.000105864
2 *3109:ZN 0.000105864
3 *3110:B *3109:A2 9.88736e-06
4 *3110:B *3112:B 0.000379865
5 *3110:B *707:58 2.96621e-05
6 *3110:B *772:27 7.24775e-05
7 *3110:B *800:59 9.17202e-06
8 *212:58 *3110:B 2.27233e-05
*RES
1 *3109:ZN *3110:B 19.216 
*END

*D_NET *677 0.00531357
*CONN
*I *3112:B I *D gf180mcu_fd_sc_mcu7t5v0__aoi211_1
*I *3111:ZN O *D gf180mcu_fd_sc_mcu7t5v0__nor2_1
*CAP
1 *3112:B 0.000452455
2 *3111:ZN 0.000452455
3 *3112:B *3003:B1 0.000307974
4 *3112:B *3112:A2 0.00034526
5 *3112:B *3112:C 1.97747e-05
6 *3112:B *3268:CLK 1.83901e-05
7 *3112:B *3291:I 7.7362e-06
8 *3112:B *680:120 0.000138258
9 *3112:B *772:27 7.94187e-05
10 *3003:C *3112:B 0.000145662
11 *3044:A1 *3112:B 0.00181503
12 *3087:A2 *3112:B 0.000387765
13 *3110:B *3112:B 0.000379865
14 *3267:D *3112:B 0.000498804
15 *3268:D *3112:B 0.00023739
16 *212:58 *3112:B 2.73326e-05
*RES
1 *3111:ZN *3112:B 25.752 
*END

*D_NET *678 0.00283074
*CONN
*I *3114:B I *D gf180mcu_fd_sc_mcu7t5v0__aoi211_1
*I *3113:ZN O *D gf180mcu_fd_sc_mcu7t5v0__nor2_1
*CAP
1 *3114:B 0.00031541
2 *3113:ZN 0.00031541
3 *3114:B *3114:A2 0.000213194
4 *3114:B *701:42 6.07958e-06
5 *3114:B *707:58 7.50749e-05
6 *3114:B *767:10 0.000428666
7 *3114:B *767:25 9.68722e-05
8 *3114:B *773:8 0
9 *2522:A3 *3114:B 0
10 *2988:A1 *3114:B 0.000862337
11 *3019:A2 *3114:B 2.21675e-05
12 *3114:A1 *3114:B 6.38438e-05
13 *3269:D *3114:B 0.000147313
14 *3312:I *3114:B 0.000115503
15 *237:12 *3114:B 0.000149794
16 *242:8 *3114:B 1.90706e-05
*RES
1 *3113:ZN *3114:B 22.636 
*END

*D_NET *679 0.000805432
*CONN
*I *3116:B I *D gf180mcu_fd_sc_mcu7t5v0__aoi211_1
*I *3115:ZN O *D gf180mcu_fd_sc_mcu7t5v0__nor2_1
*CAP
1 *3116:B 0.000213633
2 *3115:ZN 0.000213633
3 *3116:B *2525:A1 0.000121626
4 *3116:B *3115:A1 0.000100734
5 *3116:B *3116:A2 1.34435e-05
6 *3116:B *804:37 9.26705e-05
7 *3116:B *804:54 2.74171e-05
8 *3270:D *3116:B 2.22758e-05
*RES
1 *3115:ZN *3116:B 10.824 
*END

*D_NET *680 0.0538107
*CONN
*I *3278:I I *D gf180mcu_fd_sc_mcu7t5v0__clkbuf_8
*I *3282:I I *D gf180mcu_fd_sc_mcu7t5v0__clkbuf_8
*I *3281:I I *D gf180mcu_fd_sc_mcu7t5v0__clkbuf_8
*I *3280:I I *D gf180mcu_fd_sc_mcu7t5v0__clkbuf_8
*I *3276:I I *D gf180mcu_fd_sc_mcu7t5v0__clkbuf_8
*I *3285:I I *D gf180mcu_fd_sc_mcu7t5v0__clkbuf_8
*I *3284:I I *D gf180mcu_fd_sc_mcu7t5v0__clkbuf_8
*I *3283:I I *D gf180mcu_fd_sc_mcu7t5v0__clkbuf_8
*I *3277:I I *D gf180mcu_fd_sc_mcu7t5v0__clkbuf_8
*I *3290:I I *D gf180mcu_fd_sc_mcu7t5v0__clkbuf_8
*I *3279:I I *D gf180mcu_fd_sc_mcu7t5v0__clkbuf_8
*I *3289:I I *D gf180mcu_fd_sc_mcu7t5v0__clkbuf_8
*I *3286:I I *D gf180mcu_fd_sc_mcu7t5v0__clkbuf_8
*I *3287:I I *D gf180mcu_fd_sc_mcu7t5v0__clkbuf_8
*I *3288:I I *D gf180mcu_fd_sc_mcu7t5v0__clkbuf_8
*I *3291:I I *D gf180mcu_fd_sc_mcu7t5v0__clkbuf_8
*I *3275:Z O *D gf180mcu_fd_sc_mcu7t5v0__clkbuf_16
*CAP
1 *3278:I 0.000729089
2 *3282:I 0.000115985
3 *3281:I 0.000273774
4 *3280:I 0.000643592
5 *3276:I 0
6 *3285:I 0
7 *3284:I 0.000134721
8 *3283:I 0.000245189
9 *3277:I 0.0020495
10 *3290:I 0.000350122
11 *3279:I 0.00139543
12 *3289:I 0.00058967
13 *3286:I 1.79895e-05
14 *3287:I 0.00265942
15 *3288:I 0
16 *3291:I 0.00115604
17 *3275:Z 0
18 *680:240 0.00111372
19 *680:228 0.00155856
20 *680:197 0.00106911
21 *680:189 0.00131925
22 *680:171 0.0029152
23 *680:120 0.00206368
24 *680:49 0.000934742
25 *680:47 0.0013735
26 *680:35 0.00173653
27 *680:31 0.00353544
28 *680:5 0.00159874
29 *3277:I *2753:A1 2.03665e-05
30 *3277:I *3002:A2 9.1213e-05
31 *3277:I *3003:B2 0.00016456
32 *3277:I *3011:B2 1.20889e-05
33 *3277:I *3039:B2 0.000171183
34 *3277:I *3090:A1 5.59457e-05
35 *3277:I *3100:B 0.000305935
36 *3277:I *3264:CLK 0.000472601
37 *3277:I *695:85 0.000580496
38 *3277:I *767:43 1.34641e-06
39 *3277:I *802:72 7.71104e-05
40 *3277:I *802:82 7.31349e-05
41 *3277:I *814:12 6.3983e-05
42 *3277:I *817:10 0.000546697
43 *3278:I *2756:A1 4.49065e-06
44 *3278:I *3100:B 0
45 *3278:I *683:8 0.00016914
46 *3278:I *726:14 2.85944e-05
47 *3279:I *2652:A1 3.40956e-05
48 *3279:I *3015:C2 1.43468e-05
49 *3279:I *3159:CLK 8.2456e-05
50 *3279:I *3163:CLK 0
51 *3279:I *3365:I 0.00110189
52 *3279:I *684:6 0.000171927
53 *3279:I *684:8 0.000107266
54 *3279:I *753:8 0
55 *3279:I *753:21 0
56 *3279:I *759:64 0
57 *3279:I *909:14 5.60606e-05
58 *3281:I *3161:CLK 7.5212e-05
59 *3281:I *759:54 0.00037608
60 *3281:I *804:101 0
61 *3282:I *792:14 0.000160202
62 *3283:I *2592:A1 2.9537e-05
63 *3283:I *3032:A1 2.11054e-05
64 *3283:I *3139:CLK 0.000136328
65 *3283:I *786:34 0.000192718
66 *3284:I *2991:B2 0
67 *3284:I *2999:B2 0.000136871
68 *3284:I *690:10 0
69 *3286:I *763:50 6.73834e-05
70 *3287:I *691:6 0.000239669
71 *3287:I *763:50 8.30464e-05
72 *3289:I *2625:C 6.4431e-05
73 *3289:I *3148:CLK 0
74 *3289:I *3151:CLK 0.000225514
75 *3289:I *3325:I 9.88736e-06
76 *3289:I *799:105 0.00025142
77 *3290:I *3003:B2 0
78 *3290:I *3259:CLK 8.68045e-06
79 *3291:I *3112:A2 0.000118078
80 *3291:I *3268:CLK 0.000129323
81 *3291:I *738:8 0.000110431
82 *680:31 *3326:I 4.74709e-05
83 *680:31 *3365:I 4.0114e-05
84 *680:31 *738:8 9.87926e-05
85 *680:31 *738:10 2.30549e-05
86 *680:35 *2640:A1 0.000169591
87 *680:35 *2978:C1 0.00107443
88 *680:35 *2999:C2 0.00127268
89 *680:35 *3015:C2 0
90 *680:35 *3149:CLK 0
91 *680:35 *3230:CLK 0
92 *680:35 *3326:I 0.000185032
93 *680:35 *684:51 0
94 *680:35 *684:69 0
95 *680:35 *780:8 1.75634e-05
96 *680:35 *780:17 9.07563e-05
97 *680:35 *780:28 2.69281e-06
98 *680:35 *799:12 0.000203643
99 *680:47 *2619:A1 0
100 *680:47 *2978:C1 1.72918e-05
101 *680:49 *3140:CLK 3.80391e-05
102 *680:49 *3148:CLK 0.000102094
103 *680:49 *763:50 3.71904e-05
104 *680:120 *2478:I 1.73565e-05
105 *680:120 *3003:A1 0.000101478
106 *680:120 *3003:B1 0.000130963
107 *680:120 *3003:B2 0.000109452
108 *680:120 *3011:B2 4.2508e-05
109 *680:120 *3112:A2 3.34081e-05
110 *680:120 *699:10 6.24409e-05
111 *680:171 *2579:A2 0.000267835
112 *680:171 *2580:C 5.92049e-05
113 *680:171 *2583:A1 0.000125887
114 *680:171 *2600:A2 3.06387e-05
115 *680:171 *2603:A2 5.23728e-05
116 *680:171 *3000:C2 3.8951e-06
117 *680:171 *3032:A1 0.00019874
118 *680:171 *3128:CLK 3.94276e-05
119 *680:171 *3136:CLK 0
120 *680:171 *3304:I 0
121 *680:171 *691:6 2.22432e-05
122 *680:171 *691:8 8.23822e-05
123 *680:171 *691:12 0.00049639
124 *680:171 *691:14 5.05356e-05
125 *680:171 *724:16 8.12839e-05
126 *680:171 *735:12 0
127 *680:171 *762:35 0.000497928
128 *680:171 *908:10 4.65023e-05
129 *680:189 *3137:CLK 0.000131382
130 *680:189 *3139:CLK 7.87465e-05
131 *680:189 *760:14 0.000279644
132 *680:189 *786:34 0.000505021
133 *680:197 *2540:A2 0.000142185
134 *680:197 *2550:A1 0.000275385
135 *680:197 *2589:A1 0
136 *680:197 *2999:B2 0.000125537
137 *680:197 *3024:B2 1.88812e-05
138 *680:197 *3137:CLK 0.00112021
139 *680:197 *690:10 0.000164563
140 *680:197 *690:12 0.000164563
141 *680:197 *865:8 0.000161672
142 *680:197 *869:10 0.000327464
143 *680:228 *2652:A1 0.000230449
144 *680:228 *766:78 3.73079e-05
145 *680:240 *2652:A1 0.000330692
146 *680:240 *2655:A2 1.08481e-05
147 *680:240 *2656:A1 0.000320873
148 *680:240 *2662:A1 0
149 *680:240 *766:78 6.80909e-05
150 *680:240 *766:89 3.24054e-05
151 *680:240 *792:14 0.000838231
152 *2541:A3 *3284:I 0
153 *2541:A3 *680:197 0
154 *2580:B *680:171 1.34859e-05
155 *2593:A3 *3283:I 0.000176083
156 *2598:A1 *680:49 8.78761e-05
157 *2601:A3 *680:171 0.00010448
158 *2604:A2 *3287:I 0
159 *2604:A2 *680:171 0.000216146
160 *2609:A1 *3286:I 6.73834e-05
161 *2609:A1 *3287:I 0
162 *2620:A2 *680:47 3.77432e-05
163 *2620:A3 *3289:I 3.33035e-05
164 *2620:A3 *680:47 7.6687e-05
165 *2620:A3 *680:49 4.07251e-05
166 *2659:A3 *680:240 0
167 *2662:A2 *3280:I 7.40232e-05
168 *2662:A3 *3280:I 4.82713e-05
169 *2757:A1 *3277:I 0.000214053
170 *2844:A1 *680:49 0.000168421
171 *2844:A2 *680:47 3.24054e-05
172 *2844:A2 *680:49 7.64758e-05
173 *2844:B *680:49 5.23469e-05
174 *2935:B *3279:I 1.72912e-05
175 *2976:A3 *680:35 0
176 *3004:A1 *3290:I 6.62327e-05
177 *3004:A2 *680:120 5.71037e-06
178 *3005:B2 *3290:I 0
179 *3012:A1 *3290:I 6.36468e-06
180 *3013:B2 *3290:I 0
181 *3013:B2 *680:120 0
182 *3052:A2 *680:31 0.000273341
183 *3065:A2 *3277:I 0.000113374
184 *3084:A2 *3277:I 0
185 *3085:A2 *3277:I 0
186 *3085:A2 *3278:I 0.000147836
187 *3110:A1 *3290:I 8.68045e-06
188 *3110:A1 *680:120 7.66484e-06
189 *3112:B *3291:I 7.7362e-06
190 *3112:B *680:120 0.000138258
191 *3134:D *680:171 0.00025281
192 *3135:D *680:171 0
193 *3148:D *3289:I 0.000111867
194 *3156:D *680:35 1.18942e-05
195 *3162:D *3281:I 3.07734e-05
196 *3230:D *3279:I 4.1381e-05
197 *3268:D *3291:I 0
198 *3297:I *3280:I 9.40099e-06
199 *3297:I *680:228 0.000174226
200 *3342:I *3278:I 0.000102007
201 *211:19 *680:49 9.50253e-05
202 *242:16 *3279:I 8.94779e-05
203 *242:16 *680:31 0.000684777
204 *465:12 *680:228 0.000181554
205 *467:30 *3277:I 0.000119152
206 *467:30 *3290:I 9.12619e-05
207 *467:30 *3291:I 0.000108027
208 *467:30 *680:120 9.82987e-06
209 *467:36 *3291:I 0.00026552
210 *467:36 *680:31 0.000178091
211 *469:22 *3280:I 0.000240139
212 *469:32 *3280:I 4.09395e-06
213 *470:14 *3279:I 0
214 *639:20 *3277:I 9.50253e-05
215 *640:33 *3277:I 0.000314281
216 *640:48 *3277:I 0.00052838
*RES
1 *3275:Z *680:5 4.5 
2 *680:5 *3291:I 10.352 
3 *680:5 *680:31 12.252 
4 *680:31 *680:35 20.384 
5 *680:35 *3288:I 4.5 
6 *680:35 *680:47 6.324 
7 *680:47 *680:49 5.092 
8 *680:49 *3287:I 12.04 
9 *680:49 *3286:I 9.38 
10 *680:47 *3289:I 13.332 
11 *680:31 *3279:I 28.488 
12 *3291:I *680:120 12.648 
13 *680:120 *3290:I 11.204 
14 *680:120 *3277:I 24.048 
15 *3287:I *680:171 35.708 
16 *680:171 *3283:I 11.736 
17 *680:171 *680:189 8.908 
18 *680:189 *680:197 19.032 
19 *680:197 *3284:I 5.64 
20 *680:197 *3285:I 4.5 
21 *680:189 *3276:I 4.5 
22 *3279:I *680:228 11.432 
23 *680:228 *3280:I 13.332 
24 *680:228 *680:240 7.676 
25 *680:240 *3281:I 11.584 
26 *680:240 *3282:I 9.988 
27 *3277:I *3278:I 13.636 
*END

*D_NET *681 0.0177691
*CONN
*I *3127:CLK I *D gf180mcu_fd_sc_mcu7t5v0__dffq_1
*I *3130:CLK I *D gf180mcu_fd_sc_mcu7t5v0__dffq_1
*I *3178:CLK I *D gf180mcu_fd_sc_mcu7t5v0__dffq_1
*I *3179:CLK I *D gf180mcu_fd_sc_mcu7t5v0__dffq_1
*I *3180:CLK I *D gf180mcu_fd_sc_mcu7t5v0__dffq_1
*I *3177:CLK I *D gf180mcu_fd_sc_mcu7t5v0__dffq_1
*I *3176:CLK I *D gf180mcu_fd_sc_mcu7t5v0__dffq_1
*I *3172:CLK I *D gf180mcu_fd_sc_mcu7t5v0__dffq_1
*I *3175:CLK I *D gf180mcu_fd_sc_mcu7t5v0__dffq_1
*I *3276:Z O *D gf180mcu_fd_sc_mcu7t5v0__clkbuf_8
*CAP
1 *3127:CLK 0
2 *3130:CLK 0.000417035
3 *3178:CLK 0
4 *3179:CLK 0
5 *3180:CLK 0.000284808
6 *3177:CLK 0.000234871
7 *3176:CLK 0
8 *3172:CLK 0.000472282
9 *3175:CLK 0
10 *3276:Z 0.000579942
11 *681:80 0.000737323
12 *681:74 0.00116294
13 *681:61 0.00114139
14 *681:36 0.00168563
15 *681:24 0.00156745
16 *681:18 0.000993756
17 *681:12 0.0014448
18 *681:6 0.00116415
19 *3130:CLK *2593:A1 0.000734813
20 *3130:CLK *755:55 1.25216e-05
21 *3172:CLK *2694:A1 9.67157e-05
22 *3177:CLK *2710:A1 2.17248e-05
23 *3177:CLK *829:24 3.76237e-05
24 *681:6 *2571:A1 0.000199065
25 *681:6 *2592:A1 0
26 *681:6 *2596:A1 0
27 *681:6 *755:55 0
28 *681:6 *795:46 0
29 *681:6 *852:12 2.43252e-05
30 *681:6 *853:8 2.85028e-05
31 *681:12 *755:55 0.000154091
32 *681:12 *828:24 0
33 *681:18 *2707:A1 0
34 *681:18 *755:55 4.04929e-05
35 *681:18 *829:10 0
36 *681:24 *2709:A1 0.000379283
37 *681:36 *826:12 0.000727911
38 *681:74 *2713:A1 0
39 *681:74 *829:10 1.52691e-05
40 *681:74 *829:24 4.40364e-05
41 *681:74 *830:32 0
42 *681:80 *2715:A1 0.000342519
43 *2572:A2 *3130:CLK 4.13847e-05
44 *2575:A2 *3130:CLK 7.24052e-05
45 *2578:A2 *3130:CLK 0.000170348
46 *2693:I *3172:CLK 0.000386421
47 *2696:A3 *3172:CLK 5.24607e-05
48 *2707:A2 *681:24 0
49 *2709:A2 *681:18 0.000196417
50 *2709:A2 *681:24 7.32209e-05
51 *2711:A2 *681:74 5.17455e-05
52 *2712:A2 *3177:CLK 7.59985e-05
53 *2714:A2 *681:74 0
54 *2715:A2 *681:80 3.77371e-05
55 *2715:A3 *681:80 0
56 *3129:D *681:6 0.000386421
57 *3129:D *681:12 0.000258197
58 *3130:D *3130:CLK 1.82069e-05
59 *3139:D *681:6 8.18778e-05
60 *3173:D *3172:CLK 0
61 *3176:D *681:24 0.000100705
62 *3177:D *3177:CLK 2.05953e-05
63 *3179:D *681:80 2.333e-05
64 *363:8 *681:24 1.02823e-05
65 *363:8 *681:36 0
66 *365:12 *681:61 0.00090738
67 *365:12 *681:74 2.45866e-05
68 *365:14 *681:74 3.40956e-05
*RES
1 *3276:Z *681:6 8.68 
2 *681:6 *681:12 8.604 
3 *681:12 *681:18 7.388 
4 *681:18 *681:24 2.964 
5 *681:24 *681:36 16.752 
6 *681:36 *3175:CLK 4.5 
7 *681:36 *3172:CLK 8.148 
8 *681:24 *3176:CLK 4.5 
9 *681:18 *681:61 11.204 
10 *681:61 *3177:CLK 6.096 
11 *681:61 *681:74 8.452 
12 *681:74 *681:80 7.844 
13 *681:80 *3180:CLK 6.324 
14 *681:80 *3179:CLK 4.5 
15 *681:74 *3178:CLK 9 
16 *681:12 *3130:CLK 12.876 
17 *681:6 *3127:CLK 4.5 
*END

*D_NET *682 0.0185996
*CONN
*I *3243:CLK I *D gf180mcu_fd_sc_mcu7t5v0__dffq_1
*I *3266:CLK I *D gf180mcu_fd_sc_mcu7t5v0__dffq_1
*I *3258:CLK I *D gf180mcu_fd_sc_mcu7t5v0__dffq_1
*I *3250:CLK I *D gf180mcu_fd_sc_mcu7t5v0__dffq_1
*I *3263:CLK I *D gf180mcu_fd_sc_mcu7t5v0__dffq_1
*I *3256:CLK I *D gf180mcu_fd_sc_mcu7t5v0__dffq_1
*I *3251:CLK I *D gf180mcu_fd_sc_mcu7t5v0__dffq_1
*I *3252:CLK I *D gf180mcu_fd_sc_mcu7t5v0__dffq_1
*I *3253:CLK I *D gf180mcu_fd_sc_mcu7t5v0__dffq_1
*I *3277:Z O *D gf180mcu_fd_sc_mcu7t5v0__clkbuf_8
*CAP
1 *3243:CLK 0.000217227
2 *3266:CLK 0
3 *3258:CLK 7.00329e-05
4 *3250:CLK 0
5 *3263:CLK 0.000141449
6 *3256:CLK 3.28034e-05
7 *3251:CLK 0
8 *3252:CLK 0.000430712
9 *3253:CLK 0.000201609
10 *3277:Z 0.00085767
11 *682:112 0.000383191
12 *682:97 0.000482221
13 *682:86 0.000657617
14 *682:35 0.000960168
15 *682:29 0.000934367
16 *682:14 0.000795293
17 *682:12 0.000809304
18 *3243:CLK *3022:A1 6.60524e-05
19 *3243:CLK *3038:A1 0.000726065
20 *3252:CLK *3002:A1 0.000342519
21 *3252:CLK *3010:A1 2.91769e-05
22 *3252:CLK *800:8 0
23 *3252:CLK *800:10 0
24 *3252:CLK *810:27 0.000514812
25 *3252:CLK *816:17 0.000190317
26 *3253:CLK *2747:A1 5.47552e-05
27 *3253:CLK *3102:A1 3.19219e-05
28 *3253:CLK *771:10 3.03346e-05
29 *3258:CLK *2744:A1 2.6126e-05
30 *3258:CLK *2744:A2 0.000379274
31 *3258:CLK *3332:I 1.97747e-05
32 *3258:CLK *3372:I 0.000112434
33 *3263:CLK *3103:B 8.49277e-05
34 *3263:CLK *759:34 8.67558e-05
35 *682:12 *2756:A1 0.000192419
36 *682:12 *3103:A1 2.07082e-05
37 *682:12 *3293:I 0.000192419
38 *682:12 *732:10 2.45927e-05
39 *682:12 *771:23 3.45972e-05
40 *682:14 *3102:A1 0.000264369
41 *682:14 *3103:A1 4.79669e-05
42 *682:14 *771:23 6.18153e-06
43 *682:29 *2741:A1 3.35594e-05
44 *682:29 *3264:CLK 2.37472e-05
45 *682:35 *2741:A1 6.50158e-05
46 *682:35 *3003:B2 0.000156176
47 *682:35 *3064:A1 5.48389e-05
48 *682:35 *3264:CLK 7.45328e-07
49 *682:35 *800:8 0
50 *682:35 *809:29 6.48288e-05
51 *682:86 *2750:A1 0.00103192
52 *682:86 *2995:A2 0.000308615
53 *682:86 *3074:A1 3.80298e-05
54 *682:86 *727:10 4.67662e-05
55 *682:86 *802:27 0.000545575
56 *682:97 *727:10 2.77542e-05
57 *682:97 *769:43 0.000262996
58 *682:112 *2744:A1 0.000395889
59 *682:112 *3038:A1 0.000378481
60 *682:112 *3107:A1 0.000680236
61 *682:112 *3332:I 0.000173755
62 *3036:A1 *3253:CLK 3.03377e-05
63 *3036:A1 *682:14 1.04052e-05
64 *3036:A1 *682:86 0.000455287
65 *3039:C2 *3253:CLK 0.000262996
66 *3039:C2 *682:14 0.000115621
67 *3062:A2 *682:35 2.49331e-05
68 *3064:A2 *682:35 0
69 *3064:A3 *3252:CLK 3.77371e-05
70 *3064:A3 *682:35 6.03784e-05
71 *3075:A2 *682:12 0.000310683
72 *3085:A2 *682:12 4.62315e-06
73 *3085:A2 *682:14 1.44953e-05
74 *3089:A3 *3252:CLK 0.000143649
75 *3099:A2 *3263:CLK 3.39542e-05
76 *3104:A1 *682:29 1.08231e-05
77 *3104:A2 *682:14 6.7444e-05
78 *3251:D *682:35 0.000310356
79 *3252:D *3252:CLK 1.37763e-05
80 *3255:D *682:12 0.000377381
81 *3264:D *682:29 0.000512596
82 *3336:I *682:12 0.000160159
83 *3338:I *682:97 4.43636e-05
84 *3338:I *682:112 8.38532e-05
85 *639:20 *3263:CLK 0.000620728
86 *657:31 *3253:CLK 0.000114958
87 *657:31 *682:29 5.14116e-06
88 *657:33 *682:29 4.97712e-06
89 *657:39 *682:29 1.21175e-05
90 *657:65 *3253:CLK 1.47007e-05
*RES
1 *3277:Z *682:12 13.332 
2 *682:12 *682:14 2.052 
3 *682:14 *3253:CLK 10.976 
4 *682:14 *682:29 7.16 
5 *682:29 *682:35 8.604 
6 *682:35 *3252:CLK 13.332 
7 *682:35 *3251:CLK 9 
8 *682:29 *3256:CLK 4.728 
9 *682:12 *3263:CLK 10.748 
10 *3277:Z *682:86 23.472 
11 *682:86 *3250:CLK 9 
12 *682:86 *682:97 6.096 
13 *682:97 *3258:CLK 5.64 
14 *682:97 *682:112 12.344 
15 *682:112 *3266:CLK 4.5 
16 *682:112 *3243:CLK 6.704 
*END

*D_NET *683 0.0188864
*CONN
*I *3244:CLK I *D gf180mcu_fd_sc_mcu7t5v0__dffq_1
*I *3239:CLK I *D gf180mcu_fd_sc_mcu7t5v0__dffq_1
*I *3245:CLK I *D gf180mcu_fd_sc_mcu7t5v0__dffq_1
*I *3254:CLK I *D gf180mcu_fd_sc_mcu7t5v0__dffq_1
*I *3262:CLK I *D gf180mcu_fd_sc_mcu7t5v0__dffq_1
*I *3257:CLK I *D gf180mcu_fd_sc_mcu7t5v0__dffq_1
*I *3249:CLK I *D gf180mcu_fd_sc_mcu7t5v0__dffq_1
*I *3255:CLK I *D gf180mcu_fd_sc_mcu7t5v0__dffq_1
*I *3293:I I *D gf180mcu_fd_sc_mcu7t5v0__clkbuf_2
*I *3278:Z O *D gf180mcu_fd_sc_mcu7t5v0__clkbuf_8
*CAP
1 *3244:CLK 0.000105894
2 *3239:CLK 0
3 *3245:CLK 0.000393909
4 *3254:CLK 0
5 *3262:CLK 0
6 *3257:CLK 0
7 *3249:CLK 0.00034454
8 *3255:CLK 3.59741e-05
9 *3293:I 0.000144866
10 *3278:Z 0.000509956
11 *683:89 0.000556198
12 *683:87 0.00053621
13 *683:76 0.000319806
14 *683:51 0.000800417
15 *683:43 0.000829368
16 *683:37 0.000582982
17 *683:8 0.000533083
18 *3249:CLK *2747:A1 9.88736e-06
19 *3249:CLK *2987:B2 0.000698514
20 *3249:CLK *808:12 0.00020289
21 *3293:I *2756:A1 0.000409658
22 *3293:I *2995:B1 0.00026757
23 *3293:I *726:14 0.000803603
24 *683:8 *2756:A1 0.000287125
25 *683:8 *3035:A1 0.000474275
26 *683:37 *2525:A1 2.01347e-05
27 *683:37 *3035:C1 0.000853473
28 *683:43 *2750:A1 0.000606597
29 *683:43 *3039:C1 7.83779e-05
30 *683:43 *3070:A1 8.87106e-06
31 *683:43 *3071:A1 0.000487853
32 *683:43 *787:27 0.000416181
33 *683:43 *812:19 0.000614833
34 *683:51 *3039:C1 0.00152987
35 *683:51 *3057:B 6.48283e-06
36 *683:51 *3105:A1 0
37 *683:51 *725:8 0
38 *683:76 *2750:A1 0.000108753
39 *683:76 *744:10 0.000104577
40 *683:87 *3029:A1 0.000142925
41 *683:87 *744:10 0.000101443
42 DAT_O[5] *3245:CLK 0
43 DAT_O[5] *683:87 0.000110986
44 DAT_O[5] *683:89 0
45 *2529:A2 *683:43 4.52268e-05
46 *2988:A1 *3249:CLK 0.000184602
47 *2989:A2 *683:37 0.000360226
48 *2990:A2 *683:37 8.55242e-05
49 *2990:A2 *683:76 4.87601e-06
50 *3029:A2 *683:37 1.8344e-05
51 *3029:B2 *683:76 0.000276717
52 *3029:B2 *683:87 0.000394617
53 *3030:A2 *683:87 0.000576049
54 *3055:A1 *3249:CLK 0.00041486
55 *3058:A1 *683:51 0.000110811
56 *3058:A2 *683:51 2.23385e-05
57 *3070:A2 *683:51 5.86191e-06
58 *3071:A2 *683:43 0.000347577
59 *3072:A3 *683:43 0.000134206
60 *3075:A3 *3293:I 4.04248e-05
61 *3085:A2 *683:8 1.97747e-05
62 *3097:A2 *683:43 5.94709e-06
63 *3239:D *3244:CLK 0.000414937
64 *3239:D *683:89 0.000204129
65 *3249:D *3249:CLK 4.2318e-06
66 *3249:D *683:51 0.000422015
67 *3254:D *683:43 0.000393423
68 *3278:I *683:8 0.00016914
69 *3312:I *3249:CLK 0
70 *682:12 *3293:I 0.000192419
*RES
1 *3278:Z *683:8 7.844 
2 *683:8 *3293:I 16.388 
3 *683:8 *3255:CLK 4.728 
4 *3278:Z *683:37 11.356 
5 *683:37 *683:43 10.428 
6 *683:43 *683:51 13.56 
7 *683:51 *3249:CLK 17.452 
8 *683:51 *3257:CLK 4.5 
9 *683:43 *3262:CLK 4.5 
10 *683:37 *683:76 0.988 
11 *683:76 *3254:CLK 9 
12 *683:76 *683:87 7.92 
13 *683:87 *683:89 1.14 
14 *683:89 *3245:CLK 6.704 
15 *683:89 *3239:CLK 4.5 
16 *683:87 *3244:CLK 5.64 
*END

*D_NET *684 0.0116172
*CONN
*I *3163:CLK I *D gf180mcu_fd_sc_mcu7t5v0__dffq_1
*I *3157:CLK I *D gf180mcu_fd_sc_mcu7t5v0__dffq_1
*I *3230:CLK I *D gf180mcu_fd_sc_mcu7t5v0__dffq_1
*I *3158:CLK I *D gf180mcu_fd_sc_mcu7t5v0__dffq_1
*I *3156:CLK I *D gf180mcu_fd_sc_mcu7t5v0__dffq_1
*I *3149:CLK I *D gf180mcu_fd_sc_mcu7t5v0__dffq_1
*I *3154:CLK I *D gf180mcu_fd_sc_mcu7t5v0__dffq_1
*I *3155:CLK I *D gf180mcu_fd_sc_mcu7t5v0__dffq_1
*I *3159:CLK I *D gf180mcu_fd_sc_mcu7t5v0__dffq_1
*I *3279:Z O *D gf180mcu_fd_sc_mcu7t5v0__clkbuf_8
*CAP
1 *3163:CLK 0.000120464
2 *3157:CLK 0
3 *3230:CLK 8.62212e-05
4 *3158:CLK 4.25998e-05
5 *3156:CLK 0
6 *3149:CLK 0.000514588
7 *3154:CLK 0.000206701
8 *3155:CLK 0
9 *3159:CLK 4.30949e-05
10 *3279:Z 4.78586e-05
11 *684:69 0.000259952
12 *684:51 0.000567522
13 *684:49 0.000343507
14 *684:45 0.000459013
15 *684:25 0.000415982
16 *684:19 0.000671228
17 *684:8 0.000247651
18 *684:6 0.000210502
19 *3149:CLK *2640:A1 0.0001009
20 *3149:CLK *2646:A1 0.000660146
21 *3149:CLK *2978:C1 5.8048e-05
22 *3149:CLK *2991:C2 9.66562e-05
23 *3149:CLK *3015:A1 0.00015172
24 *3149:CLK *799:12 1.90059e-05
25 *3149:CLK *900:12 0.000260701
26 *3154:CLK *2642:A1 0
27 *3154:CLK *2649:A1 3.86019e-05
28 *3158:CLK *2646:A2 0.000386421
29 *3158:CLK *3374:I 0.000201957
30 *3159:CLK *3365:I 8.2456e-05
31 *3163:CLK *766:78 2.56734e-05
32 *684:6 *3365:I 0.000164594
33 *684:8 *3365:I 0.000108211
34 *684:19 *766:10 0.000172453
35 *684:19 *766:78 0.000228415
36 *684:25 *2649:A1 9.99427e-05
37 *684:25 *766:10 3.35674e-05
38 *684:25 *766:12 0.000171712
39 *684:45 *2647:A1 6.25074e-05
40 *684:45 *2649:A2 0.000135056
41 *684:45 *2650:A1 0.000131642
42 *684:45 *803:58 0.000186933
43 *684:49 *2646:A2 0
44 *684:49 *803:58 0.000848846
45 *684:51 *2646:A1 0.000269848
46 *684:69 *2646:A1 0.000406051
47 *2641:A1 *3154:CLK 0
48 *2641:A1 *684:25 0
49 *2644:A2 *3154:CLK 0
50 *2644:A2 *684:45 0.000922786
51 *2644:A3 *3149:CLK 0
52 *2647:A3 *684:49 0
53 *2650:A2 *684:19 0.000255303
54 *2650:A2 *684:25 8.46598e-05
55 *2650:A2 *684:45 0.000145651
56 *3154:D *3154:CLK 1.54542e-05
57 *3155:D *684:25 0
58 *3156:D *3149:CLK 0.000396912
59 *3158:D *684:49 9.58397e-05
60 *3279:I *3159:CLK 8.2456e-05
61 *3279:I *3163:CLK 0
62 *3279:I *684:6 0.000171927
63 *3279:I *684:8 0.000107266
64 *680:35 *3149:CLK 0
65 *680:35 *3230:CLK 0
66 *680:35 *684:51 0
67 *680:35 *684:69 0
*RES
1 *3279:Z *684:6 5.488 
2 *684:6 *684:8 0.684 
3 *684:8 *3159:CLK 5.032 
4 *684:8 *684:19 6.704 
5 *684:19 *684:25 6.324 
6 *684:25 *3155:CLK 4.5 
7 *684:25 *3154:CLK 5.868 
8 *684:19 *684:45 8.452 
9 *684:45 *684:49 6.704 
10 *684:49 *684:51 0.684 
11 *684:51 *3149:CLK 14.396 
12 *684:51 *3156:CLK 9 
13 *684:49 *684:69 1.444 
14 *684:69 *3158:CLK 10.14 
15 *684:69 *3230:CLK 9.532 
16 *684:45 *3157:CLK 4.5 
17 *684:6 *3163:CLK 14.336 
*END

*D_NET *685 0.0158943
*CONN
*I *3227:CLK I *D gf180mcu_fd_sc_mcu7t5v0__dffq_1
*I *3223:CLK I *D gf180mcu_fd_sc_mcu7t5v0__dffq_1
*I *3222:CLK I *D gf180mcu_fd_sc_mcu7t5v0__dffq_1
*I *3220:CLK I *D gf180mcu_fd_sc_mcu7t5v0__dffq_1
*I *3219:CLK I *D gf180mcu_fd_sc_mcu7t5v0__dffq_1
*I *3217:CLK I *D gf180mcu_fd_sc_mcu7t5v0__dffq_1
*I *3221:CLK I *D gf180mcu_fd_sc_mcu7t5v0__dffq_1
*I *3224:CLK I *D gf180mcu_fd_sc_mcu7t5v0__dffq_1
*I *3160:CLK I *D gf180mcu_fd_sc_mcu7t5v0__dffq_1
*I *3280:Z O *D gf180mcu_fd_sc_mcu7t5v0__clkbuf_8
*CAP
1 *3227:CLK 0.000337156
2 *3223:CLK 0
3 *3222:CLK 0
4 *3220:CLK 0
5 *3219:CLK 0
6 *3217:CLK 0.00029782
7 *3221:CLK 0.000433934
8 *3224:CLK 0
9 *3160:CLK 0.000145404
10 *3280:Z 0.000138838
11 *685:91 0.000337156
12 *685:59 0.00061151
13 *685:46 0.00104963
14 *685:40 0.000766439
15 *685:36 0.000697884
16 *685:30 0.000607045
17 *685:19 0.000702907
18 *685:10 0.000613552
19 *3160:CLK *2651:A1 3.02847e-05
20 *3160:CLK *2925:A1 0.000110192
21 *3160:CLK *885:6 0.000186882
22 *3217:CLK *753:54 0
23 *3221:CLK *2910:A1 2.72396e-05
24 *3221:CLK *2910:A3 0.000308746
25 *3221:CLK *751:75 2.96621e-05
26 *3221:CLK *878:10 0.000191702
27 *3221:CLK *879:27 2.9378e-06
28 *3221:CLK *879:37 5.09739e-06
29 *3227:CLK *2921:B 0
30 *3227:CLK *3226:CLK 0
31 *3227:CLK *789:10 5.18727e-05
32 *685:10 *2651:A1 9.09842e-05
33 *685:19 *2924:C 5.86759e-05
34 *685:19 *2925:A1 7.83779e-05
35 *685:19 *888:10 5.76373e-06
36 *685:19 *888:12 3.31249e-05
37 *685:30 *2924:C 7.01996e-05
38 *685:30 *3226:CLK 2.31627e-05
39 *685:30 *789:10 0.000148665
40 *685:30 *888:10 8.74908e-05
41 *685:36 *2921:B 1.72881e-05
42 *685:36 *789:10 0.000184283
43 *685:36 *789:12 0.000105545
44 *685:40 *789:12 7.98925e-05
45 *685:40 *789:18 5.95497e-05
46 *685:46 *789:18 4.46847e-05
47 *685:46 *879:25 3.9695e-05
48 *685:59 *2904:A1 0
49 *685:59 *751:75 4.7806e-05
50 *685:59 *753:37 0
51 *685:59 *753:54 0
52 *685:59 *878:14 0
53 *2653:A2 *3160:CLK 0.000500461
54 *2836:B *685:10 0.000208599
55 *2896:A1 *3217:CLK 9.26705e-05
56 *2896:A2 *3217:CLK 7.4219e-06
57 *2902:I *3217:CLK 0.00034938
58 *2902:I *685:59 0.000578319
59 *2909:A1 *3221:CLK 9.4764e-05
60 *2909:A1 *685:46 9.17202e-06
61 *2909:A1 *685:59 0.00020862
62 *2909:A2 *3221:CLK 5.76063e-06
63 *2909:A2 *685:46 7.22364e-05
64 *2913:B *3221:CLK 0.000139361
65 *2917:A1 *685:40 3.19219e-05
66 *2921:A2 *685:36 0.000115566
67 *2922:A1 *685:40 0.000184096
68 *2924:A2 *3227:CLK 4.31625e-05
69 *2924:A2 *685:30 0
70 *2924:A2 *685:40 8.64425e-05
71 *2924:B *685:36 0
72 *2927:A3 *3227:CLK 0.000144303
73 *3217:D *3217:CLK 0.000111867
74 *3219:D *3217:CLK 0
75 *3220:D *685:46 0.000333372
76 *3222:D *685:40 0.00141054
77 *3223:D *685:36 0.000467288
78 *3226:D *685:30 2.69281e-06
79 *3275:I *3221:CLK 1.95187e-05
80 *3297:I *3217:CLK 0.000184382
81 *3297:I *685:36 0.000147305
82 *3297:I *685:59 0.000301794
83 *3316:I *3160:CLK 0.000135795
84 *3316:I *685:19 5.88474e-05
85 *469:22 *3160:CLK 0
86 *469:32 *685:10 0.000433369
87 *469:47 *3227:CLK 1.3758e-05
88 *469:47 *685:36 0.000133171
89 *469:69 *685:10 0.000409317
*RES
1 *3280:Z *685:10 16.16 
2 *685:10 *3160:CLK 6.552 
3 *685:10 *685:19 2.356 
4 *685:19 *3224:CLK 4.5 
5 *685:19 *685:30 7.388 
6 *685:30 *685:36 7.844 
7 *685:36 *685:40 10.048 
8 *685:40 *685:46 6.932 
9 *685:46 *3221:CLK 8.3 
10 *685:46 *685:59 8.072 
11 *685:59 *3217:CLK 11.888 
12 *685:59 *3219:CLK 9 
13 *685:40 *3220:CLK 9 
14 *685:36 *3222:CLK 4.5 
15 *685:30 *685:91 4.5 
16 *685:91 *3223:CLK 4.5 
17 *685:91 *3227:CLK 6.932 
*END

*D_NET *686 0.0132147
*CONN
*I *3162:CLK I *D gf180mcu_fd_sc_mcu7t5v0__dffq_1
*I *3236:CLK I *D gf180mcu_fd_sc_mcu7t5v0__dffq_1
*I *3238:CLK I *D gf180mcu_fd_sc_mcu7t5v0__dffq_1
*I *3273:CLK I *D gf180mcu_fd_sc_mcu7t5v0__dffq_1
*I *3270:CLK I *D gf180mcu_fd_sc_mcu7t5v0__dffq_1
*I *3272:CLK I *D gf180mcu_fd_sc_mcu7t5v0__dffq_1
*I *3265:CLK I *D gf180mcu_fd_sc_mcu7t5v0__dffq_1
*I *3237:CLK I *D gf180mcu_fd_sc_mcu7t5v0__dffq_1
*I *3161:CLK I *D gf180mcu_fd_sc_mcu7t5v0__dffq_1
*I *3281:Z O *D gf180mcu_fd_sc_mcu7t5v0__clkbuf_8
*CAP
1 *3162:CLK 0
2 *3236:CLK 0.00028828
3 *3238:CLK 0.00066914
4 *3273:CLK 0
5 *3270:CLK 0
6 *3272:CLK 0.000315584
7 *3265:CLK 0.000186872
8 *3237:CLK 0
9 *3161:CLK 0.000447839
10 *3281:Z 8.15531e-05
11 *686:48 0.000502456
12 *686:46 0.000263986
13 *686:42 0.000715429
14 *686:36 0.00128399
15 *686:30 0.000604932
16 *686:21 0.000642864
17 *686:8 0.000937461
18 *686:6 8.15531e-05
19 *3161:CLK *687:10 0.000116355
20 *3161:CLK *759:54 3.01323e-05
21 *3161:CLK *792:14 7.47635e-05
22 *3236:CLK *2939:A2 0
23 *3236:CLK *792:10 3.68917e-05
24 *3238:CLK *2956:A1 3.16765e-06
25 *3265:CLK *804:67 0.00046699
26 *3265:CLK *805:43 0.000320584
27 *3272:CLK *3035:C1 2.25184e-05
28 *3272:CLK *703:35 0.00041397
29 *3272:CLK *703:56 0.000307974
30 *3272:CLK *805:43 0.0010798
31 *686:6 *759:54 0.000502835
32 *686:21 *792:14 0.000202771
33 *686:30 *2499:I 2.0537e-05
34 *686:30 *792:10 6.01536e-05
35 *686:30 *792:14 2.6058e-05
36 *686:36 *703:56 0.000303311
37 *686:36 *927:8 4.88227e-05
38 *686:42 *2499:I 5.79795e-05
39 *686:42 *703:56 0
40 *686:42 *927:8 3.98546e-05
41 *686:46 *804:54 7.45328e-07
42 *2529:A2 *3265:CLK 0.000197677
43 *2939:A4 *3236:CLK 3.08902e-05
44 *2944:A1 *686:6 8.1724e-05
45 *2957:B *3236:CLK 0.000855992
46 *2957:B *686:36 4.13885e-05
47 *2958:A2 *3238:CLK 3.54047e-05
48 *2959:A2 *3238:CLK 8.46598e-05
49 *2959:A2 *686:42 3.83136e-05
50 *2963:A1 *3236:CLK 9.33883e-05
51 *2963:A1 *686:30 8.78761e-05
52 *3162:D *3161:CLK 6.63626e-05
53 *3237:D *686:36 0.00025334
54 *3270:D *686:46 0
55 *3273:D *686:46 0
56 *3281:I *3161:CLK 7.5212e-05
57 *3319:I *3238:CLK 8.69042e-05
58 *3319:I *3265:CLK 0
59 *3319:I *3272:CLK 0
60 *3319:I *686:42 0
61 *3344:I *3272:CLK 1.53727e-05
62 *535:12 *3236:CLK 0
63 *535:12 *686:36 1.20079e-05
64 *535:32 *3236:CLK 0
*RES
1 *3281:Z *686:6 5.792 
2 *686:6 *686:8 4.5 
3 *686:8 *3161:CLK 12.344 
4 *686:8 *686:21 3.268 
5 *686:21 *3237:CLK 9 
6 *686:21 *686:30 1.292 
7 *686:30 *686:36 10.748 
8 *686:36 *686:42 7.388 
9 *686:42 *686:46 1.52 
10 *686:46 *686:48 4.5 
11 *686:48 *3265:CLK 11.356 
12 *686:48 *3272:CLK 13.256 
13 *686:46 *3270:CLK 4.5 
14 *686:42 *3273:CLK 4.5 
15 *686:36 *3238:CLK 13.788 
16 *686:30 *3236:CLK 11.964 
17 *686:6 *3162:CLK 4.5 
*END

*D_NET *687 0.0162808
*CONN
*I *3231:CLK I *D gf180mcu_fd_sc_mcu7t5v0__dffq_1
*I *3235:CLK I *D gf180mcu_fd_sc_mcu7t5v0__dffq_1
*I *3233:CLK I *D gf180mcu_fd_sc_mcu7t5v0__dffq_1
*I *3232:CLK I *D gf180mcu_fd_sc_mcu7t5v0__dffq_1
*I *3228:CLK I *D gf180mcu_fd_sc_mcu7t5v0__dffq_1
*I *3226:CLK I *D gf180mcu_fd_sc_mcu7t5v0__dffq_1
*I *3234:CLK I *D gf180mcu_fd_sc_mcu7t5v0__dffq_1
*I *3225:CLK I *D gf180mcu_fd_sc_mcu7t5v0__dffq_1
*I *3294:I I *D gf180mcu_fd_sc_mcu7t5v0__clkbuf_2
*I *3282:Z O *D gf180mcu_fd_sc_mcu7t5v0__clkbuf_8
*CAP
1 *3231:CLK 0.000864176
2 *3235:CLK 0
3 *3233:CLK 0
4 *3232:CLK 0.000440399
5 *3228:CLK 0
6 *3226:CLK 0.000758813
7 *3234:CLK 0
8 *3225:CLK 3.28034e-05
9 *3294:I 0.000341491
10 *3282:Z 0.00020941
11 *687:97 0.00126439
12 *687:77 0.000633907
13 *687:57 0.00106851
14 *687:53 0.000828304
15 *687:49 0.000858367
16 *687:40 0.000437104
17 *687:25 0.000609916
18 *687:10 0.000823962
19 *3226:CLK *2926:A2 2.57058e-06
20 *3226:CLK *789:10 0
21 *3226:CLK *791:52 0.000378635
22 *3226:CLK *888:10 9.26705e-05
23 *3231:CLK *2938:A1 0.000135624
24 *3231:CLK *2938:A2 3.19219e-05
25 *3231:CLK *921:8 0
26 *3231:CLK *922:25 0
27 *3231:CLK *924:17 1.15312e-05
28 *3294:I *2655:A1 0.000490201
29 *3294:I *2656:A1 0
30 *3294:I *2662:A1 8.59272e-06
31 *3294:I *3023:C2 0.000493324
32 *3294:I *3317:I 6.96334e-06
33 *687:10 *2656:A1 0
34 *687:10 *759:54 0
35 *687:25 *2654:A1 9.88736e-06
36 *687:25 *2659:A1 7.3227e-05
37 *687:40 *2484:I 0.000351554
38 *687:40 *2654:A1 9.98921e-06
39 *687:40 *759:54 0.00053309
40 *687:40 *759:58 0.000342528
41 *687:40 *791:30 0
42 *687:49 *2484:I 0.000144734
43 *687:97 *791:30 2.34618e-06
44 *2656:A2 *3294:I 0.000275979
45 *2656:A2 *687:25 5.85769e-05
46 *2657:A2 *3294:I 0.000129654
47 *2659:A2 *3294:I 8.62813e-05
48 *2659:A2 *687:10 0.00025099
49 *2659:A3 *3294:I 0.000218871
50 *2659:A3 *687:25 3.2657e-05
51 *2927:A3 *3226:CLK 0
52 *2938:A3 *3231:CLK 0.000117908
53 *2939:A4 *3231:CLK 2.6126e-05
54 *2948:A2 *687:53 2.40898e-05
55 *2952:A1 *687:97 7.35859e-05
56 *2952:A2 *687:53 0.000116106
57 *2952:A2 *687:97 3.06356e-05
58 *2953:A1 *3231:CLK 0.000451297
59 *2953:A1 *687:97 3.79932e-05
60 *3161:CLK *687:10 0.000116355
61 *3162:D *687:10 0.000279537
62 *3227:CLK *3226:CLK 0
63 *3228:D *3226:CLK 0.000106153
64 *3232:D *3232:CLK 0
65 *3232:D *687:77 0
66 *3233:D *687:77 0
67 *3234:D *687:53 5.3266e-05
68 *3234:D *687:97 6.53901e-06
69 *3235:D *3231:CLK 2.12006e-05
70 *3235:D *687:97 0.000439102
71 *155:10 *3231:CLK 0.000134206
72 *203:10 *3231:CLK 0.000193933
73 *243:26 *3294:I 0.000129176
74 *546:25 *3231:CLK 0.000317503
75 *549:16 *687:40 6.74574e-05
76 *549:16 *687:49 0.00014902
77 *551:12 *687:97 2.2541e-05
78 *685:30 *3226:CLK 2.31627e-05
*RES
1 *3282:Z *687:10 11.28 
2 *687:10 *3294:I 13.864 
3 *687:10 *687:25 6.096 
4 *687:25 *3225:CLK 4.728 
5 *687:25 *687:40 12.496 
6 *687:40 *3234:CLK 4.5 
7 *687:40 *687:49 1.368 
8 *687:49 *687:53 2.432 
9 *687:53 *687:57 6.704 
10 *687:57 *3226:CLK 14.776 
11 *687:57 *3228:CLK 9 
12 *687:53 *687:77 1.14 
13 *687:77 *3232:CLK 7.236 
14 *687:77 *3233:CLK 4.5 
15 *687:49 *687:97 11.508 
16 *687:97 *3235:CLK 4.5 
17 *687:97 *3231:CLK 20.264 
*END

*D_NET *688 0.0147494
*CONN
*I *3138:CLK I *D gf180mcu_fd_sc_mcu7t5v0__dffq_1
*I *3139:CLK I *D gf180mcu_fd_sc_mcu7t5v0__dffq_1
*I *3135:CLK I *D gf180mcu_fd_sc_mcu7t5v0__dffq_1
*I *3132:CLK I *D gf180mcu_fd_sc_mcu7t5v0__dffq_1
*I *3131:CLK I *D gf180mcu_fd_sc_mcu7t5v0__dffq_1
*I *3184:CLK I *D gf180mcu_fd_sc_mcu7t5v0__dffq_1
*I *3187:CLK I *D gf180mcu_fd_sc_mcu7t5v0__dffq_1
*I *3185:CLK I *D gf180mcu_fd_sc_mcu7t5v0__dffq_1
*I *3186:CLK I *D gf180mcu_fd_sc_mcu7t5v0__dffq_1
*I *3283:Z O *D gf180mcu_fd_sc_mcu7t5v0__clkbuf_8
*CAP
1 *3138:CLK 0
2 *3139:CLK 0.000274031
3 *3135:CLK 3.28034e-05
4 *3132:CLK 0.000376093
5 *3131:CLK 0.000190261
6 *3184:CLK 0.000341169
7 *3187:CLK 0
8 *3185:CLK 0.000258621
9 *3186:CLK 0.000187668
10 *3283:Z 0
11 *688:77 0.000660067
12 *688:73 0.000767609
13 *688:69 0.000286064
14 *688:32 0.000516586
15 *688:26 0.000231183
16 *688:22 0.00104113
17 *688:12 0.000845586
18 *688:4 0.000159905
19 *3131:CLK *2591:A1 2.89664e-05
20 *3131:CLK *755:30 4.70074e-05
21 *3132:CLK *2577:A1 0
22 *3132:CLK *2578:A1 3.25336e-05
23 *3132:CLK *755:12 2.37655e-05
24 *3132:CLK *796:40 0.000187268
25 *3132:CLK *796:51 0.000392093
26 *3139:CLK *786:34 6.15343e-05
27 *3184:CLK *2737:A1 0
28 *3184:CLK *784:56 0.000193133
29 *3185:CLK *2737:A1 0.000734813
30 *3186:CLK *2737:A1 2.6126e-05
31 *688:12 *2591:A1 0.000262996
32 *688:22 *2594:A1 0.00020862
33 *688:22 *2736:A1 5.59457e-05
34 *688:22 *786:34 0.000113237
35 *688:22 *786:36 1.94858e-05
36 *688:22 *786:38 6.01476e-05
37 *688:22 *838:20 0.000142917
38 *688:22 *839:8 0.00011703
39 *688:22 *839:14 0.000905913
40 *688:26 *2736:A1 2.25184e-05
41 *688:26 *2737:A1 0
42 *688:26 *2738:A1 2.74753e-05
43 *688:26 *784:56 1.20079e-05
44 *688:32 *2736:A1 3.28611e-05
45 *688:69 *755:20 0.000224296
46 *688:73 *2594:A2 0.00022273
47 *688:73 *786:34 9.20895e-05
48 *688:77 *2593:A1 0.000301553
49 *688:77 *3032:A1 0
50 *2578:A2 *688:77 7.59709e-05
51 *2584:A1 *3132:CLK 3.42838e-05
52 *2593:A2 *688:22 3.89394e-06
53 *2593:A2 *688:69 0.000502843
54 *2593:A3 *688:77 0.000125453
55 *2596:A2 *3131:CLK 0.000229588
56 *2596:A2 *688:12 0.000116928
57 *2596:A2 *688:22 0.000154348
58 *2731:A2 *3184:CLK 0.00012548
59 *2734:A2 *3184:CLK 1.52595e-05
60 *2734:A2 *3185:CLK 0.000209639
61 *2736:A2 *688:32 0
62 *2737:A2 *688:32 0.000406051
63 *2737:A3 *3185:CLK 0.00029375
64 *2737:A3 *3186:CLK 3.08902e-05
65 *2738:A2 *3184:CLK 5.4634e-05
66 *2738:A2 *688:26 3.08902e-05
67 *2740:A2 *3186:CLK 0
68 *2740:A2 *688:26 0.000317494
69 *3132:D *3132:CLK 0.000372371
70 *3135:D *3132:CLK 2.90426e-05
71 *3185:D *3184:CLK 0.000149579
72 *3186:D *3186:CLK 1.81888e-05
73 *3186:D *688:26 1.5015e-05
74 *3283:I *3139:CLK 0.000136328
75 *370:8 *3131:CLK 0.000123108
76 *370:8 *688:22 1.31172e-05
77 *380:8 *3184:CLK 8.50254e-05
78 *382:35 *3184:CLK 0.000131651
79 *382:35 *688:22 0.000151957
80 *680:189 *3139:CLK 7.87465e-05
*RES
1 *3283:Z *688:4 4.5 
2 *688:4 *688:12 10.14 
3 *688:12 *688:22 14.624 
4 *688:22 *688:26 1.52 
5 *688:26 *688:32 9.988 
6 *688:32 *3186:CLK 5.64 
7 *688:32 *3185:CLK 7.768 
8 *688:26 *3187:CLK 4.5 
9 *688:22 *3184:CLK 7.996 
10 *688:12 *3131:CLK 6.476 
11 *688:4 *688:69 1.292 
12 *688:69 *688:73 6.704 
13 *688:73 *688:77 6.704 
14 *688:77 *3132:CLK 16.768 
15 *688:77 *3135:CLK 4.728 
16 *688:73 *3139:CLK 11.356 
17 *688:69 *3138:CLK 4.5 
*END

*D_NET *689 0.0152222
*CONN
*I *3122:CLK I *D gf180mcu_fd_sc_mcu7t5v0__dffq_1
*I *3125:CLK I *D gf180mcu_fd_sc_mcu7t5v0__dffq_1
*I *3167:CLK I *D gf180mcu_fd_sc_mcu7t5v0__dffq_1
*I *3171:CLK I *D gf180mcu_fd_sc_mcu7t5v0__dffq_1
*I *3170:CLK I *D gf180mcu_fd_sc_mcu7t5v0__dffq_1
*I *3173:CLK I *D gf180mcu_fd_sc_mcu7t5v0__dffq_1
*I *3174:CLK I *D gf180mcu_fd_sc_mcu7t5v0__dffq_1
*I *3124:CLK I *D gf180mcu_fd_sc_mcu7t5v0__dffq_1
*I *3129:CLK I *D gf180mcu_fd_sc_mcu7t5v0__dffq_1
*I *3284:Z O *D gf180mcu_fd_sc_mcu7t5v0__clkbuf_8
*CAP
1 *3122:CLK 0
2 *3125:CLK 0
3 *3167:CLK 0.000307703
4 *3171:CLK 0
5 *3170:CLK 0.000258094
6 *3173:CLK 0
7 *3174:CLK 0.000101856
8 *3124:CLK 0.000369293
9 *3129:CLK 5.46724e-05
10 *3284:Z 0.000632003
11 *689:59 0.000274689
12 *689:57 0.000667499
13 *689:53 0.0007331
14 *689:45 0.00134858
15 *689:43 0.00102261
16 *689:35 0.000564345
17 *689:12 0.00096988
18 *3124:CLK *2554:A1 0
19 *3124:CLK *2562:A1 1.9211e-05
20 *3124:CLK *2562:A2 0.000222453
21 *3167:CLK *3313:I 0.00123186
22 *3170:CLK *785:49 0.000151957
23 *3170:CLK *785:64 0.000157418
24 *3170:CLK *847:12 0.000151957
25 *3174:CLK *2694:A1 0.000340241
26 *3174:CLK *2696:A1 3.26422e-05
27 *689:12 *2562:A2 2.22657e-05
28 *689:35 *2982:B2 0.000202431
29 *689:35 *797:37 0.000533734
30 *689:43 *2559:A2 0.000370534
31 *689:43 *2560:A1 1.15312e-05
32 *689:43 *761:52 0.000122307
33 *689:43 *797:72 5.09861e-05
34 *689:43 *849:16 2.11799e-05
35 *689:45 *2555:A1 0
36 *689:57 *825:10 0.000142219
37 *689:59 *2694:A1 0.000628376
38 *689:59 *2696:A1 9.08447e-05
39 *689:59 *847:12 0.000778045
40 *2549:B *689:12 0.000128035
41 *2551:A1 *689:43 0
42 *2551:A1 *689:45 0
43 *2557:A2 *689:43 4.13778e-05
44 *2557:A2 *689:45 5.29084e-05
45 *2560:A3 *689:43 0.000334515
46 *2566:A2 *3124:CLK 0.000235106
47 *2566:A2 *689:12 1.44832e-05
48 *2689:A1 *689:57 7.50749e-05
49 *2690:A3 *689:57 0.000146149
50 *2694:A2 *3174:CLK 4.27914e-05
51 *2696:A2 *3174:CLK 1.07351e-05
52 *2696:A3 *3174:CLK 2.57058e-06
53 *2699:A1 *689:45 2.29636e-05
54 *2699:A1 *689:53 5.76373e-06
55 *2699:A3 *689:53 4.61366e-05
56 *2699:A3 *689:57 0.000198061
57 *3125:D *689:43 0
58 *3126:D *689:43 4.38725e-05
59 *3171:D *689:57 6.80238e-06
60 *3173:D *3174:CLK 0.000418904
61 *3173:D *689:59 0.000412903
62 *216:19 *689:57 3.53068e-05
63 *217:18 *689:53 0
64 *348:12 *689:53 6.91912e-05
65 *352:36 *3174:CLK 0.000292079
*RES
1 *3284:Z *689:12 16.692 
2 *689:12 *3129:CLK 4.88 
3 *689:12 *3124:CLK 7.768 
4 *3284:Z *689:35 6.172 
5 *689:35 *689:43 13.104 
6 *689:43 *689:45 3.268 
7 *689:45 *689:53 11.736 
8 *689:53 *689:57 6.704 
9 *689:57 *689:59 3.572 
10 *689:59 *3174:CLK 10.976 
11 *689:59 *3173:CLK 9 
12 *689:57 *3170:CLK 11.052 
13 *689:53 *3171:CLK 4.5 
14 *689:45 *3167:CLK 16.464 
15 *689:43 *3125:CLK 4.5 
16 *689:35 *3122:CLK 4.5 
*END

*D_NET *690 0.0154057
*CONN
*I *3119:CLK I *D gf180mcu_fd_sc_mcu7t5v0__dffq_1
*I *3120:CLK I *D gf180mcu_fd_sc_mcu7t5v0__dffq_1
*I *3165:CLK I *D gf180mcu_fd_sc_mcu7t5v0__dffq_1
*I *3166:CLK I *D gf180mcu_fd_sc_mcu7t5v0__dffq_1
*I *3240:CLK I *D gf180mcu_fd_sc_mcu7t5v0__dffq_1
*I *3246:CLK I *D gf180mcu_fd_sc_mcu7t5v0__dffq_1
*I *3123:CLK I *D gf180mcu_fd_sc_mcu7t5v0__dffq_1
*I *3126:CLK I *D gf180mcu_fd_sc_mcu7t5v0__dffq_1
*I *3137:CLK I *D gf180mcu_fd_sc_mcu7t5v0__dffq_1
*I *3285:Z O *D gf180mcu_fd_sc_mcu7t5v0__clkbuf_8
*CAP
1 *3119:CLK 0.000117466
2 *3120:CLK 0.000355692
3 *3165:CLK 0.000119136
4 *3166:CLK 0
5 *3240:CLK 0
6 *3246:CLK 0
7 *3123:CLK 1.08386e-05
8 *3126:CLK 0.000386871
9 *3137:CLK 0.000782211
10 *3285:Z 0.000561939
11 *690:78 0.000525149
12 *690:69 0.000625239
13 *690:58 0.000219227
14 *690:56 0.000525009
15 *690:52 0.000382926
16 *690:12 0.00128869
17 *690:10 0.000596242
18 *3119:CLK *3024:B2 0.00011704
19 *3119:CLK *756:64 8.08741e-05
20 *3120:CLK *797:116 0.000140396
21 *3123:CLK *761:41 0.000140167
22 *3123:CLK *797:46 0.000140167
23 *3126:CLK *2982:B2 2.17248e-05
24 *3126:CLK *795:8 5.86721e-05
25 *3137:CLK *2551:C 3.26302e-05
26 *3137:CLK *2583:A1 0
27 *3137:CLK *3032:C2 0.000599866
28 *3137:CLK *3041:A1 0.000116003
29 *3137:CLK *760:14 1.14822e-05
30 *3137:CLK *858:10 3.73627e-05
31 *690:10 *2540:A2 0.000137452
32 *690:52 *3024:B2 2.22657e-05
33 *690:52 *756:64 2.17248e-05
34 *690:56 *2543:A1 0
35 *2541:A3 *690:10 0.000787065
36 *2546:A2 *3120:CLK 0.000396572
37 *2546:A2 *690:69 1.71121e-05
38 *2549:A1 *3126:CLK 0
39 *2549:B *3126:CLK 0
40 *2551:A1 *3126:CLK 0.00169061
41 *2551:B *3126:CLK 8.18282e-05
42 *2596:A3 *3137:CLK 0.000439272
43 *2674:A2 *690:78 3.7319e-05
44 *3033:A2 *3165:CLK 6.39952e-05
45 *3033:A2 *690:78 0.000147313
46 *3042:A2 *3120:CLK 6.71936e-05
47 *3042:A2 *3137:CLK 0
48 *3042:A2 *690:10 0
49 *3042:A2 *690:12 0
50 *3042:A2 *690:56 7.47635e-05
51 *3042:A2 *690:69 0.000111235
52 *3042:A2 *690:78 0.000310961
53 *3122:D *3126:CLK 5.29084e-05
54 *3123:D *3126:CLK 0.00018402
55 *3139:D *3137:CLK 0.000105993
56 *3284:I *690:10 0
57 *341:8 *3165:CLK 0.000125537
58 *341:8 *690:78 0
59 *341:25 *690:69 0.000777908
60 *341:25 *690:78 0.000178948
61 *680:189 *3137:CLK 0.000131382
62 *680:197 *3137:CLK 0.00112021
63 *680:197 *690:10 0.000164563
64 *680:197 *690:12 0.000164563
*RES
1 *3285:Z *690:10 13.408 
2 *690:10 *690:12 0.988 
3 *690:12 *3137:CLK 18.348 
4 *690:12 *3126:CLK 14.092 
5 *690:10 *3123:CLK 9.38 
6 *3285:Z *690:52 5.26 
7 *690:52 *690:56 5.64 
8 *690:56 *690:58 4.5 
9 *690:58 *3246:CLK 4.5 
10 *690:58 *690:69 2.66 
11 *690:69 *3240:CLK 4.5 
12 *690:69 *690:78 3.952 
13 *690:78 *3166:CLK 4.5 
14 *690:78 *3165:CLK 5.64 
15 *690:56 *3120:CLK 12.496 
16 *690:52 *3119:CLK 5.64 
*END

*D_NET *691 0.013408
*CONN
*I *3144:CLK I *D gf180mcu_fd_sc_mcu7t5v0__dffq_1
*I *3128:CLK I *D gf180mcu_fd_sc_mcu7t5v0__dffq_1
*I *3133:CLK I *D gf180mcu_fd_sc_mcu7t5v0__dffq_1
*I *3141:CLK I *D gf180mcu_fd_sc_mcu7t5v0__dffq_1
*I *3181:CLK I *D gf180mcu_fd_sc_mcu7t5v0__dffq_1
*I *3183:CLK I *D gf180mcu_fd_sc_mcu7t5v0__dffq_1
*I *3182:CLK I *D gf180mcu_fd_sc_mcu7t5v0__dffq_1
*I *3136:CLK I *D gf180mcu_fd_sc_mcu7t5v0__dffq_1
*I *3134:CLK I *D gf180mcu_fd_sc_mcu7t5v0__dffq_1
*I *3286:Z O *D gf180mcu_fd_sc_mcu7t5v0__clkbuf_8
*CAP
1 *3144:CLK 0
2 *3128:CLK 0.000146508
3 *3133:CLK 0
4 *3141:CLK 0.000596266
5 *3181:CLK 0
6 *3183:CLK 0.000260445
7 *3182:CLK 0
8 *3136:CLK 0.000341398
9 *3134:CLK 4.92051e-05
10 *3286:Z 0.000462131
11 *691:50 0.000967554
12 *691:44 0.00100218
13 *691:40 0.00132525
14 *691:34 0.000573551
15 *691:14 0.000571077
16 *691:12 0.000691137
17 *691:8 0.000632602
18 *691:6 0.000577196
19 *3128:CLK *2600:A2 0.000119807
20 *3128:CLK *3000:C2 0.000189146
21 *3128:CLK *724:16 3.20185e-05
22 *3128:CLK *735:12 3.56825e-05
23 *3128:CLK *763:76 0.000342528
24 *3128:CLK *763:82 0.000288951
25 *3136:CLK *796:51 0
26 *3141:CLK *724:16 0
27 *691:6 *2580:C 0.000186933
28 *691:6 *2603:A2 0.000310356
29 *691:6 *2609:A2 5.48455e-05
30 *691:6 *3000:C2 0
31 *691:6 *763:50 0.000150989
32 *691:8 *2580:C 0.000175652
33 *691:8 *3000:C2 0
34 *691:12 *2580:C 0.000272977
35 *691:14 *2582:C 8.55327e-05
36 *691:34 *2582:C 0
37 *691:34 *736:22 0.00027703
38 *691:40 *2722:A1 1.02578e-05
39 *691:40 *736:22 0.000554792
40 *691:44 *736:22 9.96822e-05
41 *691:50 *735:12 0
42 *691:50 *736:22 0.000147798
43 *2580:A1 *691:40 0
44 *2582:A1 *691:34 0
45 *2582:A1 *691:40 0
46 *2582:B *691:12 4.34264e-05
47 *2582:B *691:14 0.000186933
48 *2609:A1 *691:6 1.02823e-05
49 *2722:A2 *691:40 2.6126e-05
50 *3133:D *691:12 2.57058e-06
51 *3134:D *3136:CLK 5.02064e-05
52 *3134:D *691:12 1.72912e-05
53 *3134:D *691:14 0.000262017
54 *3136:D *3136:CLK 2.05953e-05
55 *3144:D *691:6 5.29084e-05
56 *3181:D *691:40 0
57 *3182:D *691:50 3.56825e-05
58 *3287:I *691:6 0.000239669
59 *215:10 *691:40 6.58315e-05
60 *215:20 *691:40 3.47244e-05
61 *227:18 *691:44 0.000104671
62 *227:18 *691:50 1.31662e-05
63 *374:12 *691:40 1.94858e-05
64 *680:171 *3128:CLK 3.94276e-05
65 *680:171 *3136:CLK 0
66 *680:171 *691:6 2.22432e-05
67 *680:171 *691:8 8.23822e-05
68 *680:171 *691:12 0.00049639
69 *680:171 *691:14 5.05356e-05
*RES
1 *3286:Z *691:6 8.984 
2 *691:6 *691:8 1.14 
3 *691:8 *691:12 3.648 
4 *691:12 *691:14 2.204 
5 *691:14 *3134:CLK 4.88 
6 *691:14 *3136:CLK 6.628 
7 *691:12 *691:34 5.944 
8 *691:34 *691:40 8.452 
9 *691:40 *691:44 6.552 
10 *691:44 *691:50 9.364 
11 *691:50 *3182:CLK 4.5 
12 *691:50 *3183:CLK 6.172 
13 *691:44 *3181:CLK 9 
14 *691:40 *3141:CLK 7.768 
15 *691:34 *3133:CLK 9 
16 *691:8 *3128:CLK 16.464 
17 *691:6 *3144:CLK 4.5 
*END

*D_NET *692 0.0218493
*CONN
*I *3142:CLK I *D gf180mcu_fd_sc_mcu7t5v0__dffq_1
*I *3208:CLK I *D gf180mcu_fd_sc_mcu7t5v0__dffq_1
*I *3211:CLK I *D gf180mcu_fd_sc_mcu7t5v0__dffq_1
*I *3213:CLK I *D gf180mcu_fd_sc_mcu7t5v0__dffq_1
*I *3145:CLK I *D gf180mcu_fd_sc_mcu7t5v0__dffq_1
*I *3210:CLK I *D gf180mcu_fd_sc_mcu7t5v0__dffq_1
*I *3209:CLK I *D gf180mcu_fd_sc_mcu7t5v0__dffq_1
*I *3206:CLK I *D gf180mcu_fd_sc_mcu7t5v0__dffq_1
*I *3207:CLK I *D gf180mcu_fd_sc_mcu7t5v0__dffq_1
*I *3287:Z O *D gf180mcu_fd_sc_mcu7t5v0__clkbuf_8
*CAP
1 *3142:CLK 0.000117802
2 *3208:CLK 3.19555e-05
3 *3211:CLK 0
4 *3213:CLK 0.000465935
5 *3145:CLK 0.000425459
6 *3210:CLK 0
7 *3209:CLK 0.000338071
8 *3206:CLK 0.000189371
9 *3207:CLK 5.46724e-05
10 *3287:Z 0.000875589
11 *692:78 0.00117075
12 *692:72 0.000681921
13 *692:57 0.000868297
14 *692:38 0.00171415
15 *692:18 0.000473763
16 *692:12 0.00151347
17 *692:10 0.00116314
18 *3145:CLK *2490:I 3.84145e-06
19 *3145:CLK *2861:A1 0.000107858
20 *3145:CLK *750:78 0.00040667
21 *3145:CLK *750:95 0.001216
22 *3145:CLK *891:57 5.76063e-06
23 *3213:CLK *2863:B1 3.07734e-05
24 *3213:CLK *2872:B 0.000431535
25 *3213:CLK *750:95 0.000291377
26 *3213:CLK *894:12 0.000161663
27 *692:10 *2599:A2 1.98468e-05
28 *692:10 *2602:A1 7.87222e-05
29 *692:10 *2849:A1 3.81953e-05
30 *692:10 *2853:A3 8.32749e-05
31 *692:10 *2853:A4 0.00025232
32 *692:10 *788:60 6.97806e-05
33 *692:10 *884:10 0
34 *692:10 *884:14 0
35 *692:10 *884:18 0.000372137
36 *692:10 *884:28 0.00035308
37 *692:10 *890:14 0
38 *692:10 *890:21 0.000138621
39 *692:12 *2852:A1 4.32304e-05
40 *692:12 *788:60 7.18278e-05
41 *692:38 *2848:A1 0
42 *692:38 *2851:A2 0
43 *692:57 *2860:A1 7.21711e-05
44 *692:72 *2858:A1 2.05156e-05
45 *692:72 *2860:A1 0.000656228
46 *692:72 *2867:A1 6.31678e-05
47 *692:72 *752:38 6.78163e-05
48 *692:72 *788:40 0.0011212
49 *692:72 *788:54 7.83779e-05
50 *692:72 *891:12 0.000189499
51 *692:72 *891:31 0.000122961
52 *692:78 *750:95 4.03922e-06
53 *692:78 *752:24 0
54 *692:78 *752:34 0
55 *692:78 *788:34 0.00059878
56 *692:78 *788:40 0.000604506
57 *2601:A2 *3142:CLK 0.00035308
58 *2609:A1 *3145:CLK 0
59 *2611:A1 *3145:CLK 0.000161672
60 *2826:A2 *3145:CLK 0.000374234
61 *2848:A2 *3208:CLK 3.17732e-05
62 *2848:A2 *692:10 0
63 *2848:A2 *692:12 0
64 *2851:B2 *3208:CLK 6.73834e-05
65 *2854:A2 *692:10 4.725e-05
66 *2855:B2 *692:10 0.000441055
67 *2860:A2 *692:72 2.76941e-05
68 *2868:A2 *692:72 7.66741e-05
69 *2868:A2 *692:78 3.2964e-05
70 *2872:A2 *3213:CLK 0.000275755
71 *2873:A2 *3213:CLK 6.22405e-05
72 *3145:D *3145:CLK 0.000141888
73 *3207:D *692:12 0.000310758
74 *3207:D *692:18 0.000412903
75 *3207:D *692:38 2.40935e-05
76 *3209:D *3209:CLK 0.000129114
77 *3209:D *692:38 2.74245e-05
78 *3209:D *692:57 0.00015313
79 *209:6 *3145:CLK 5.83634e-05
80 *488:6 *3145:CLK 0.000694178
81 *488:6 *3213:CLK 8.55327e-05
*RES
1 *3287:Z *692:10 16.144 
2 *692:10 *692:12 2.508 
3 *692:12 *692:18 6.476 
4 *692:18 *3207:CLK 4.88 
5 *692:18 *3206:CLK 5.64 
6 *692:12 *692:38 14.548 
7 *692:38 *3209:CLK 11.128 
8 *692:38 *692:57 2.736 
9 *692:57 *3210:CLK 9 
10 *692:57 *692:72 10.048 
11 *692:72 *692:78 12.116 
12 *692:78 *3145:CLK 11.492 
13 *692:78 *3213:CLK 9.06 
14 *692:72 *3211:CLK 4.5 
15 *692:10 *3208:CLK 9.38 
16 *3287:Z *3142:CLK 9.988 
*END

*D_NET *693 0.0197559
*CONN
*I *3117:CLK I *D gf180mcu_fd_sc_mcu7t5v0__dffq_1
*I *3118:CLK I *D gf180mcu_fd_sc_mcu7t5v0__dffq_1
*I *3152:CLK I *D gf180mcu_fd_sc_mcu7t5v0__dffq_1
*I *3151:CLK I *D gf180mcu_fd_sc_mcu7t5v0__dffq_1
*I *3150:CLK I *D gf180mcu_fd_sc_mcu7t5v0__dffq_1
*I *3147:CLK I *D gf180mcu_fd_sc_mcu7t5v0__dffq_1
*I *3205:CLK I *D gf180mcu_fd_sc_mcu7t5v0__dffq_1
*I *3148:CLK I *D gf180mcu_fd_sc_mcu7t5v0__dffq_1
*I *3140:CLK I *D gf180mcu_fd_sc_mcu7t5v0__dffq_1
*I *3288:Z O *D gf180mcu_fd_sc_mcu7t5v0__clkbuf_8
*CAP
1 *3117:CLK 0
2 *3118:CLK 0.000191592
3 *3152:CLK 0.00025629
4 *3151:CLK 0.000420168
5 *3150:CLK 0
6 *3147:CLK 0.000197794
7 *3205:CLK 0
8 *3148:CLK 0.000102626
9 *3140:CLK 0.00062297
10 *3288:Z 0.0013197
11 *693:98 0.00136012
12 *693:22 0.000806655
13 *693:18 0.000149884
14 *693:14 0.000390169
15 *693:12 0.000136494
16 *693:10 0.000556531
17 *693:8 0.000530891
18 *3118:CLK *2536:A2 2.6126e-05
19 *3118:CLK *2978:A1 0.000432315
20 *3140:CLK *2491:I 6.39906e-05
21 *3140:CLK *763:14 0.000101095
22 *3140:CLK *763:68 0
23 *3140:CLK *763:76 0
24 *3140:CLK *798:10 0.000144293
25 *3140:CLK *798:63 0
26 *3147:CLK *2843:B 0.0010286
27 *3147:CLK *798:10 0.000457219
28 *3148:CLK *2843:B 1.5015e-05
29 *3148:CLK *798:10 2.25184e-05
30 *3151:CLK *3292:I 0.000122513
31 *3151:CLK *3295:I 0.001582
32 *3152:CLK *2622:A1 0
33 *3152:CLK *2991:A1 0
34 *3152:CLK *3007:B1 8.72537e-05
35 *3152:CLK *764:44 0.000562336
36 *693:8 *2619:A1 0.000156903
37 *693:8 *2978:B2 0.000315892
38 *693:8 *781:6 0.000217472
39 *693:10 *2619:A1 0.000443057
40 *693:10 *764:44 0.000596614
41 *693:10 *799:95 6.33213e-05
42 *693:12 *2619:A1 0.000118153
43 *693:14 *2619:A1 0.000197957
44 *693:14 *3007:B2 2.97354e-06
45 *693:14 *750:10 4.0437e-05
46 *693:18 *750:10 1.58383e-05
47 *693:22 *2491:I 7.68666e-06
48 *693:22 *2843:A2 6.77492e-05
49 *693:22 *798:10 0.000547958
50 *693:98 *2978:A1 0.000533146
51 *693:98 *2978:B2 0.000364779
52 *693:98 *2982:A1 0.000441063
53 *693:98 *761:8 2.11524e-05
54 *693:98 *761:31 0.000149409
55 *693:98 *764:31 0
56 *693:98 *781:6 0.000836952
57 *693:98 *783:20 5.96667e-05
58 *2598:A1 *3140:CLK 2.01673e-05
59 *2614:A3 *3151:CLK 0.000104712
60 *2620:A2 *3151:CLK 0.000146298
61 *2620:A3 *3151:CLK 7.83779e-05
62 *2620:A3 *693:10 8.15645e-05
63 *2620:A3 *693:12 0.000269857
64 *2620:A3 *693:14 0.000340241
65 *2625:A1 *3147:CLK 0.000204528
66 *2843:A1 *3140:CLK 0.000300836
67 *2843:A1 *693:22 0.000147313
68 *2844:A1 *3140:CLK 0
69 *2844:A2 *3140:CLK 3.02222e-05
70 *2844:A2 *3148:CLK 9.77285e-05
71 *2844:A2 *693:14 1.75634e-05
72 *2844:A2 *693:18 9.17565e-06
73 *2978:A2 *693:98 0.000404433
74 *2983:A1 *693:98 5.28608e-05
75 *3009:A1 *693:98 8.37207e-05
76 *3009:A2 *3118:CLK 2.54723e-05
77 *3009:A2 *693:98 1.5015e-05
78 *3140:D *3140:CLK 1.54542e-05
79 *3147:D *3151:CLK 1.8346e-05
80 *3148:D *3148:CLK 0
81 *3289:I *3148:CLK 0
82 *3289:I *3151:CLK 0.000225514
83 *3379:I *693:98 2.05156e-05
84 *569:12 *693:98 2.05156e-05
85 *680:49 *3140:CLK 3.80391e-05
86 *680:49 *3148:CLK 0.000102094
*RES
1 *3288:Z *693:8 11.052 
2 *693:8 *693:10 2.66 
3 *693:10 *693:12 0.684 
4 *693:12 *693:14 1.596 
5 *693:14 *693:18 4.88 
6 *693:18 *693:22 5.944 
7 *693:22 *3140:CLK 13.408 
8 *693:22 *3148:CLK 10.216 
9 *693:18 *3205:CLK 4.5 
10 *693:14 *3147:CLK 12.572 
11 *693:12 *3150:CLK 9 
12 *693:10 *3151:CLK 14.396 
13 *693:8 *3152:CLK 11.356 
14 *3288:Z *693:98 15.824 
15 *693:98 *3118:CLK 6.324 
16 *693:98 *3117:CLK 4.5 
*END

*D_NET *694 0.0241382
*CONN
*I *3216:CLK I *D gf180mcu_fd_sc_mcu7t5v0__dffq_1
*I *3218:CLK I *D gf180mcu_fd_sc_mcu7t5v0__dffq_1
*I *3153:CLK I *D gf180mcu_fd_sc_mcu7t5v0__dffq_1
*I *3215:CLK I *D gf180mcu_fd_sc_mcu7t5v0__dffq_1
*I *3214:CLK I *D gf180mcu_fd_sc_mcu7t5v0__dffq_1
*I *3146:CLK I *D gf180mcu_fd_sc_mcu7t5v0__dffq_1
*I *3212:CLK I *D gf180mcu_fd_sc_mcu7t5v0__dffq_1
*I *3292:I I *D gf180mcu_fd_sc_mcu7t5v0__clkbuf_2
*I *3143:CLK I *D gf180mcu_fd_sc_mcu7t5v0__dffq_1
*I *3289:Z O *D gf180mcu_fd_sc_mcu7t5v0__clkbuf_8
*CAP
1 *3216:CLK 0.0001873
2 *3218:CLK 0.00013419
3 *3153:CLK 0.000785195
4 *3215:CLK 0
5 *3214:CLK 0.000142762
6 *3146:CLK 0.000823968
7 *3212:CLK 0
8 *3292:I 0.000288085
9 *3143:CLK 0.00057025
10 *3289:Z 0.000808951
11 *694:95 0.00127204
12 *694:89 0.000816519
13 *694:53 0.00090214
14 *694:47 0.00116674
15 *694:39 0.00203132
16 *694:4 0.000858335
17 *3143:CLK *2606:A1 0.00113177
18 *3143:CLK *2625:A2 0
19 *3143:CLK *3007:B2 0.00115643
20 *3143:CLK *758:36 0.000204383
21 *3143:CLK *764:52 0.000433917
22 *3143:CLK *764:54 0
23 *3143:CLK *798:14 0
24 *3146:CLK *2610:A1 1.02578e-05
25 *3146:CLK *2612:A1 7.01996e-05
26 *3146:CLK *2869:A1 0
27 *3146:CLK *752:20 8.60761e-05
28 *3146:CLK *758:36 0.000323712
29 *3146:CLK *894:40 4.16955e-05
30 *3146:CLK *895:10 1.53727e-05
31 *3146:CLK *895:14 2.29412e-05
32 *3146:CLK *895:20 0.00118757
33 *3153:CLK *2621:A1 0
34 *3153:CLK *2629:A1 0
35 *3214:CLK *2880:A2 0.000291299
36 *3214:CLK *895:6 0
37 *3214:CLK *896:37 5.75052e-05
38 *3216:CLK *2626:A1 8.89956e-05
39 *3216:CLK *2887:A1 0
40 *3218:CLK *2893:A1 0.000115731
41 *3292:I *2843:B 0
42 *3292:I *764:52 0.000135941
43 *3292:I *764:54 0.000496517
44 *694:39 *2616:A1 0.000107858
45 *694:39 *2626:A1 0.00030067
46 *694:39 *3007:A1 4.55832e-05
47 *694:47 *2488:I 9.94174e-05
48 *694:47 *2843:B 0.000243955
49 *694:47 *2880:A2 2.6126e-05
50 *694:47 *788:30 0.000433369
51 *694:47 *788:34 4.94358e-05
52 *694:47 *874:10 3.93381e-05
53 *694:47 *874:21 6.48268e-05
54 *694:47 *895:14 0
55 *694:47 *896:26 3.15134e-05
56 *694:47 *896:37 2.96621e-05
57 *694:53 *2872:B 0.000514812
58 *694:53 *789:123 0.000426379
59 *694:89 *2626:A1 0.000706866
60 *694:95 *2626:A1 8.7332e-05
61 *2617:A3 *694:39 0.000706228
62 *2623:A2 *3153:CLK 7.71175e-06
63 *2623:A2 *694:39 0
64 *2625:B *3143:CLK 1.97747e-05
65 *2625:B *3292:I 0.000280313
66 *2625:B *694:39 0.000142194
67 *2628:A2 *694:39 5.23856e-05
68 *2633:B *3153:CLK 0
69 *2832:A2 *694:47 5.83567e-05
70 *2844:A2 *3143:CLK 0.000486169
71 *2844:A2 *694:39 0.000324704
72 *2844:A2 *694:89 1.91466e-05
73 *2870:I *694:47 1.3758e-05
74 *2871:B2 *694:47 3.74244e-05
75 *2874:A2 *3214:CLK 9.81111e-06
76 *2874:A2 *694:47 2.40328e-06
77 *2884:A1 *694:89 6.86356e-05
78 *2885:B *694:89 7.24161e-06
79 *2888:A1 *3216:CLK 2.22758e-05
80 *2888:A1 *694:53 0.000262996
81 *2892:A2 *3216:CLK 5.97938e-05
82 *2893:A2 *3153:CLK 2.6126e-05
83 *2897:A4 *3218:CLK 2.64584e-05
84 *2897:A4 *694:95 1.54006e-05
85 *2900:A2 *3153:CLK 1.64194e-05
86 *3143:D *3143:CLK 7.18327e-05
87 *3147:D *3292:I 0.00011955
88 *3150:D *3143:CLK 0.00013198
89 *3151:D *694:39 2.7925e-05
90 *3151:CLK *3292:I 0.000122513
91 *3216:D *3216:CLK 0
92 *471:24 *3218:CLK 2.00139e-05
93 *471:24 *694:95 0.000187772
94 *491:10 *3146:CLK 0.000266206
95 *491:10 *694:53 0.000102192
96 *491:19 *694:53 0.000181256
97 *491:30 *694:53 5.43087e-05
98 *502:8 *694:89 0.000142809
99 *502:17 *694:89 0.000120187
100 *502:17 *694:95 5.86602e-05
*RES
1 *3289:Z *694:4 4.5 
2 *694:4 *3143:CLK 21.556 
3 *694:4 *3292:I 16.92 
4 *3289:Z *694:39 11.872 
5 *694:39 *694:47 15.992 
6 *694:47 *694:53 11.356 
7 *694:53 *3212:CLK 4.5 
8 *694:53 *3146:CLK 12.252 
9 *694:47 *3214:CLK 5.64 
10 *694:39 *3215:CLK 4.5 
11 *694:39 *694:89 11.812 
12 *694:89 *694:95 7.388 
13 *694:95 *3153:CLK 13.332 
14 *694:95 *3218:CLK 9.988 
15 *694:89 *3216:CLK 5.944 
*END

*D_NET *695 0.0171538
*CONN
*I *3264:CLK I *D gf180mcu_fd_sc_mcu7t5v0__dffq_1
*I *3260:CLK I *D gf180mcu_fd_sc_mcu7t5v0__dffq_1
*I *3259:CLK I *D gf180mcu_fd_sc_mcu7t5v0__dffq_1
*I *3242:CLK I *D gf180mcu_fd_sc_mcu7t5v0__dffq_1
*I *3241:CLK I *D gf180mcu_fd_sc_mcu7t5v0__dffq_1
*I *3121:CLK I *D gf180mcu_fd_sc_mcu7t5v0__dffq_1
*I *3168:CLK I *D gf180mcu_fd_sc_mcu7t5v0__dffq_1
*I *3169:CLK I *D gf180mcu_fd_sc_mcu7t5v0__dffq_1
*I *3271:CLK I *D gf180mcu_fd_sc_mcu7t5v0__dffq_1
*I *3290:Z O *D gf180mcu_fd_sc_mcu7t5v0__clkbuf_8
*CAP
1 *3264:CLK 0.000349765
2 *3260:CLK 0
3 *3259:CLK 0.00016355
4 *3242:CLK 0
5 *3241:CLK 0
6 *3121:CLK 0
7 *3168:CLK 0
8 *3169:CLK 0.000100204
9 *3271:CLK 6.81585e-05
10 *3290:Z 9.73245e-06
11 *695:85 0.000797264
12 *695:43 0.000837199
13 *695:28 0.000944407
14 *695:24 0.000722476
15 *695:20 0.000783707
16 *695:16 0.000753576
17 *695:10 0.000942822
18 *695:6 0.000683411
19 *3169:CLK *3367:I 0.000448201
20 *3259:CLK *3002:A2 4.34497e-05
21 *3259:CLK *800:46 5.29122e-05
22 *3264:CLK *2747:A1 2.44925e-05
23 *3271:CLK *3373:I 3.21075e-05
24 *695:6 *707:58 8.55242e-05
25 *695:10 *3002:A1 0
26 *695:16 *2997:A1 0.000522619
27 *695:16 *3013:A1 4.51132e-05
28 *695:20 *2997:A1 1.95806e-05
29 *695:20 *3045:A1 0.00055094
30 *695:20 *3046:A1 0
31 *695:24 *3045:A1 0.000224654
32 *695:24 *3046:A1 0
33 *695:24 *3324:I 0.000209085
34 *695:24 *3373:I 0.000753236
35 *695:28 *3373:I 4.32082e-05
36 *695:43 *3367:I 0.00221592
37 *695:43 *785:12 0
38 *695:43 *785:16 0
39 *695:85 *3002:A2 1.11891e-05
40 *695:85 *3091:B 0
41 *695:85 *3094:A1 8.66733e-05
42 *695:85 *707:58 0.000776553
43 *695:85 *767:39 4.02633e-05
44 *2757:A1 *3264:CLK 0.0002451
45 *2770:A2 *695:43 0.000116899
46 *2997:A2 *695:16 2.23783e-05
47 *2998:A2 *695:16 5.86721e-05
48 *2998:A2 *695:20 0.000522548
49 *3004:A1 *3259:CLK 0.000307974
50 *3004:A1 *695:16 8.5208e-05
51 *3012:A1 *695:10 9.6672e-05
52 *3012:A1 *695:16 9.15501e-05
53 *3012:A2 *695:16 0
54 *3044:A1 *3264:CLK 0
55 *3044:A1 *695:85 0
56 *3045:A2 *695:16 0
57 *3045:B1 *695:16 5.14116e-06
58 *3087:A2 *695:85 6.07523e-05
59 *3089:A2 *695:6 5.32287e-05
60 *3089:A2 *695:85 0.000125453
61 *3188:D *695:43 0.000109303
62 *3277:I *3264:CLK 0.000472601
63 *3277:I *695:85 0.000580496
64 *3290:I *3259:CLK 8.68045e-06
65 *467:30 *3259:CLK 0.00032883
66 *467:30 *695:10 4.47565e-05
67 *467:30 *695:16 6.54978e-05
68 *562:36 *695:16 0.000373528
69 *563:35 *695:16 1.20889e-05
70 *656:95 *695:85 0
71 *682:29 *3264:CLK 2.37472e-05
72 *682:35 *3264:CLK 7.45328e-07
*RES
1 *3290:Z *695:6 4.728 
2 *695:6 *695:10 5.944 
3 *695:10 *695:16 10.276 
4 *695:16 *695:20 2.736 
5 *695:20 *695:24 5.776 
6 *695:24 *695:28 0.912 
7 *695:28 *3271:CLK 5.032 
8 *695:28 *695:43 16.144 
9 *695:43 *3169:CLK 5.64 
10 *695:43 *3168:CLK 4.5 
11 *695:24 *3121:CLK 4.5 
12 *695:20 *3241:CLK 4.5 
13 *695:16 *3242:CLK 4.5 
14 *695:10 *3259:CLK 11.204 
15 *695:6 *695:85 9.82 
16 *695:85 *3260:CLK 9 
17 *695:85 *3264:CLK 12.648 
*END

*D_NET *696 0.0193892
*CONN
*I *3229:CLK I *D gf180mcu_fd_sc_mcu7t5v0__dffq_1
*I *3269:CLK I *D gf180mcu_fd_sc_mcu7t5v0__dffq_1
*I *3261:CLK I *D gf180mcu_fd_sc_mcu7t5v0__dffq_1
*I *3268:CLK I *D gf180mcu_fd_sc_mcu7t5v0__dffq_1
*I *3267:CLK I *D gf180mcu_fd_sc_mcu7t5v0__dffq_1
*I *3247:CLK I *D gf180mcu_fd_sc_mcu7t5v0__dffq_1
*I *3274:CLK I *D gf180mcu_fd_sc_mcu7t5v0__dffq_1
*I *3248:CLK I *D gf180mcu_fd_sc_mcu7t5v0__dffq_1
*I *3164:CLK I *D gf180mcu_fd_sc_mcu7t5v0__dffq_1
*I *3291:Z O *D gf180mcu_fd_sc_mcu7t5v0__clkbuf_8
*CAP
1 *3229:CLK 0.000739376
2 *3269:CLK 0
3 *3261:CLK 0
4 *3268:CLK 0.000149536
5 *3267:CLK 0.000197709
6 *3247:CLK 0.000472172
7 *3274:CLK 0.000382897
8 *3248:CLK 0
9 *3164:CLK 0.000189985
10 *3291:Z 4.44696e-05
11 *696:93 0.00122006
12 *696:86 0.000662146
13 *696:40 0.00104395
14 *696:29 0.00063608
15 *696:14 0.000706386
16 *696:12 0.000481367
17 *696:10 0.000420038
18 *696:6 0.000281975
19 *3229:CLK *2513:A1 1.08611e-05
20 *3229:CLK *2519:A1 8.45236e-05
21 *3229:CLK *3015:C2 6.07288e-05
22 *3229:CLK *3326:I 0.000302034
23 *3229:CLK *702:50 2.30549e-05
24 *3229:CLK *702:65 3.4591e-05
25 *3229:CLK *707:10 0.000442387
26 *3229:CLK *707:16 0.000269857
27 *3229:CLK *707:58 2.90524e-05
28 *3229:CLK *803:21 8.7332e-05
29 *3247:CLK *736:46 3.73627e-05
30 *3247:CLK *736:57 1.5015e-05
31 *3267:CLK *3011:A1 9.88736e-06
32 *3268:CLK *3112:A2 0.000334951
33 *696:6 *800:59 0.00013063
34 *696:10 *3011:B1 0.000664482
35 *696:10 *3112:A2 0.000126956
36 *696:12 *3011:B1 0.00097501
37 *696:12 *3112:A2 4.78829e-05
38 *696:29 *3011:A1 2.43911e-05
39 *696:29 *736:46 0.000193231
40 *696:40 *736:46 0.000176687
41 *696:40 *736:57 6.54978e-05
42 *696:86 *707:58 8.81341e-06
43 *696:86 *800:59 0.000363388
44 *696:93 *3114:C 7.14125e-05
45 *696:93 *707:58 0.000302483
46 *696:93 *803:21 2.05156e-05
47 *2839:C *3229:CLK 0.000431651
48 *2840:A2 *3229:CLK 9.26705e-05
49 *2932:A1 *3229:CLK 6.45583e-05
50 *2932:A2 *3229:CLK 0.000119883
51 *2966:A3 *3247:CLK 4.48273e-05
52 *2988:A1 *3247:CLK 3.39083e-05
53 *2993:A2 *3274:CLK 0.000222333
54 *2996:A1 *3164:CLK 9.26705e-05
55 *3011:A2 *696:12 0.000118153
56 *3011:C *3267:CLK 4.22854e-06
57 *3012:A2 *3267:CLK 0
58 *3018:A2 *3274:CLK 0
59 *3026:A2 *3274:CLK 0.000147137
60 *3036:A1 *696:29 3.75431e-05
61 *3043:A1 *696:29 0
62 *3044:A1 *3164:CLK 0
63 *3044:A1 *3267:CLK 1.91917e-06
64 *3044:A1 *696:12 0
65 *3044:A1 *696:14 0
66 *3044:A2 *3164:CLK 0
67 *3044:A2 *3267:CLK 3.26997e-05
68 *3044:A2 *696:29 9.54229e-05
69 *3050:A2 *3247:CLK 6.73834e-05
70 *3051:A2 *3247:CLK 7.50749e-05
71 *3053:A1 *3247:CLK 0.000124396
72 *3112:A1 *696:86 0.000292033
73 *3112:A1 *696:93 2.6126e-05
74 *3112:B *3268:CLK 1.83901e-05
75 *3248:D *696:40 0
76 *3267:D *3267:CLK 7.71175e-06
77 *3275:I *3247:CLK 0
78 *3291:I *3268:CLK 0.000129323
79 *3376:I *3274:CLK 3.11588e-05
80 *3376:I *696:40 4.86993e-06
81 *212:62 *3164:CLK 0.000210233
82 *212:62 *696:10 0.000136691
83 *212:62 *696:12 0.000405633
84 *212:62 *696:14 8.56396e-05
85 *221:12 *3247:CLK 0.000134622
86 *221:12 *3274:CLK 5.37016e-05
87 *221:12 *696:40 1.85312e-05
88 *221:14 *3247:CLK 4.21577e-06
89 *221:27 *3247:CLK 5.69306e-05
90 *221:59 *3247:CLK 7.58195e-05
91 *242:48 *696:93 0.000866163
92 *467:30 *696:6 1.4689e-05
93 *467:30 *696:86 6.94603e-05
94 *467:36 *3229:CLK 0.000512859
95 *467:36 *696:86 0.000115207
96 *467:36 *696:93 0.000696561
97 *468:8 *3229:CLK 3.30388e-05
98 *469:22 *3229:CLK 0.000649313
99 *536:12 *3229:CLK 4.66861e-05
100 *561:8 *696:29 1.72912e-05
101 *561:8 *696:40 5.67536e-05
102 *580:12 *696:93 0.000195427
103 *580:22 *696:93 3.73535e-05
104 *616:22 *3274:CLK 2.10698e-05
105 *616:22 *696:40 1.80963e-05
*RES
1 *3291:Z *696:6 4.88 
2 *696:6 *696:10 6.248 
3 *696:10 *696:12 3.724 
4 *696:12 *696:14 0.684 
5 *696:14 *3164:CLK 10.824 
6 *696:14 *696:29 7.616 
7 *696:29 *3248:CLK 4.5 
8 *696:29 *696:40 6.324 
9 *696:40 *3274:CLK 12.268 
10 *696:40 *3247:CLK 12.876 
11 *696:12 *3267:CLK 10.292 
12 *696:10 *3268:CLK 10.596 
13 *696:6 *696:86 2.052 
14 *696:86 *3261:CLK 4.5 
15 *696:86 *696:93 6.46 
16 *696:93 *3269:CLK 4.5 
17 *696:93 *3229:CLK 23.152 
*END

*D_NET *697 0.00576432
*CONN
*I *2664:A1 I *D gf180mcu_fd_sc_mcu7t5v0__or2_1
*I *2663:A1 I *D gf180mcu_fd_sc_mcu7t5v0__nor2_1
*I *2480:I I *D gf180mcu_fd_sc_mcu7t5v0__clkinv_1
*I *2987:A1 I *D gf180mcu_fd_sc_mcu7t5v0__aoi222_1
*I *3265:Q O *D gf180mcu_fd_sc_mcu7t5v0__dffq_1
*CAP
1 *2664:A1 0.000135424
2 *2663:A1 0
3 *2480:I 0
4 *2987:A1 0.000571523
5 *3265:Q 6.20407e-05
6 *697:30 0.000239763
7 *697:19 0.000225585
8 *697:10 0.000754811
9 *2664:A1 *2498:I 0.000190571
10 *2664:A1 *704:25 0.000158809
11 *2664:A1 *804:90 0
12 *2664:A1 *804:101 0
13 *2664:A1 *805:43 0.000161681
14 *2987:A1 *3057:B 0.000404411
15 *2987:A1 *725:25 0.000822651
16 *697:10 *2498:I 8.03759e-06
17 *697:19 *3057:B 4.58601e-06
18 *697:19 *804:90 7.42484e-05
19 *697:30 *2498:I 0.000396912
20 *697:30 *804:90 1.3758e-05
21 *697:30 *805:49 0
22 *3058:A2 *2987:A1 0.00035308
23 *3106:B *2987:A1 0
24 *3106:B *697:19 0
25 *3265:D *697:10 0.000183434
26 *3312:I *2987:A1 0.000633975
27 *3319:I *2664:A1 0.000168413
28 *3319:I *697:30 7.98048e-05
29 *200:12 *697:10 0.000120799
*RES
1 *3265:Q *697:10 14.792 
2 *697:10 *2987:A1 10.96 
3 *697:10 *697:19 0.836 
4 *697:19 *2480:I 4.5 
5 *697:19 *697:30 5.716 
6 *697:30 *2663:A1 9 
7 *697:30 *2664:A1 10.824 
*END

*D_NET *698 0.00201685
*CONN
*I *2479:I I *D gf180mcu_fd_sc_mcu7t5v0__clkinv_1
*I *2995:A1 I *D gf180mcu_fd_sc_mcu7t5v0__aoi222_1
*I *3266:Q O *D gf180mcu_fd_sc_mcu7t5v0__dffq_1
*CAP
1 *2479:I 0.000240612
2 *2995:A1 3.28034e-05
3 *3266:Q 3.02548e-05
4 *698:6 0.000303671
5 *2479:I *2750:A1 4.98138e-05
6 *2479:I *727:10 0.00021071
7 *2479:I *806:8 1.72887e-05
8 *2995:A1 *2750:A1 0
9 *698:6 *2750:A1 0
10 DAT_O[4] *698:6 5.76373e-06
11 *3338:I *2479:I 0.00112593
*RES
1 *3266:Q *698:6 4.728 
2 *698:6 *2995:A1 4.728 
3 *698:6 *2479:I 7.768 
*END

*D_NET *699 0.00226334
*CONN
*I *3003:A1 I *D gf180mcu_fd_sc_mcu7t5v0__aoi221_1
*I *2478:I I *D gf180mcu_fd_sc_mcu7t5v0__clkinv_1
*I *3267:Q O *D gf180mcu_fd_sc_mcu7t5v0__dffq_1
*CAP
1 *3003:A1 0.000213574
2 *2478:I 9.27379e-06
3 *3267:Q 0.000196567
4 *699:10 0.000419415
5 *3003:A1 *3003:B2 1.81275e-05
6 *3003:A1 *3011:B2 0.000770702
7 *699:10 *3112:A2 0.000137776
8 *2996:A2 *3003:A1 0
9 *3003:A2 *3003:A1 8.55242e-05
10 *3013:B2 *699:10 0
11 *3110:A1 *2478:I 8.55242e-05
12 *3110:A1 *699:10 5.29103e-05
13 *562:16 *3003:A1 9.26705e-05
14 *680:120 *2478:I 1.73565e-05
15 *680:120 *3003:A1 0.000101478
16 *680:120 *699:10 6.24409e-05
*RES
1 *3267:Q *699:10 6.096 
2 *699:10 *2478:I 4.728 
3 *699:10 *3003:A1 15.78 
*END

*D_NET *700 0.00435241
*CONN
*I *2477:I I *D gf180mcu_fd_sc_mcu7t5v0__clkinv_1
*I *3011:A1 I *D gf180mcu_fd_sc_mcu7t5v0__aoi221_1
*I *3268:Q O *D gf180mcu_fd_sc_mcu7t5v0__dffq_1
*CAP
1 *2477:I 0.000232651
2 *3011:A1 0.000190433
3 *3268:Q 0
4 *700:4 0.000423085
5 *2477:I *3112:C 0.000979568
6 *2477:I *800:72 8.84331e-05
7 *3011:C *2477:I 8.56396e-05
8 *3011:C *3011:A1 3.46053e-05
9 *3036:A1 *2477:I 0.00212939
10 *3267:CLK *3011:A1 9.88736e-06
11 *212:62 *2477:I 0.00015433
12 *229:20 *3011:A1 0
13 *696:29 *3011:A1 2.43911e-05
*RES
1 *3268:Q *700:4 4.5 
2 *700:4 *3011:A1 5.64 
3 *700:4 *2477:I 18.896 
*END

*D_NET *701 0.00788235
*CONN
*I *2520:A1 I *D gf180mcu_fd_sc_mcu7t5v0__nand2_1
*I *3019:A1 I *D gf180mcu_fd_sc_mcu7t5v0__aoi222_1
*I *2934:A1 I *D gf180mcu_fd_sc_mcu7t5v0__aoi221_1
*I *2476:I I *D gf180mcu_fd_sc_mcu7t5v0__clkinv_1
*I *3269:Q O *D gf180mcu_fd_sc_mcu7t5v0__dffq_1
*CAP
1 *2520:A1 6.56842e-05
2 *3019:A1 0.000247297
3 *2934:A1 0.000579198
4 *2476:I 0
5 *3269:Q 0
6 *701:42 0.000845405
7 *701:16 0.00101494
8 *701:4 0.000968161
9 *2934:A1 *2519:A1 3.12138e-06
10 *2934:A1 *702:65 2.9378e-06
11 *2934:A1 *707:10 0.000369763
12 *2934:A1 *707:58 0
13 *3019:A1 *3019:B2 0
14 *3019:A1 *792:34 3.71041e-05
15 *701:16 *3326:I 7.84009e-05
16 *701:16 *792:34 0
17 *701:42 *767:6 4.84684e-05
18 *701:42 *767:106 4.27211e-05
19 *701:42 *792:34 4.74973e-05
20 *2519:B *2934:A1 0
21 *2519:B *701:16 0
22 *2839:A1 *2934:A1 4.58601e-06
23 *2932:A1 *2934:A1 0.00027369
24 *2932:A2 *2934:A1 4.06693e-05
25 *3019:A2 *3019:A1 0.000287483
26 *3019:A2 *701:42 0.000193907
27 *3114:A1 *701:16 0.000164236
28 *3114:A1 *701:42 6.63909e-05
29 *3114:B *701:42 6.07958e-06
30 *3312:I *701:42 1.80387e-05
31 *196:8 *701:16 7.95739e-05
32 *229:63 *701:42 4.94368e-05
33 *230:26 *701:16 3.19854e-05
34 *233:8 *2934:A1 0
35 *239:12 *701:16 0.000292033
36 *243:16 *701:16 0.00025099
37 *452:10 *2934:A1 0
38 *468:8 *2934:A1 4.26303e-05
39 *469:22 *2934:A1 0.000272327
40 *536:12 *2934:A1 0
41 *580:28 *2520:A1 0.00047187
42 *657:10 *2520:A1 0.000498355
43 *657:25 *2520:A1 0.000487374
*RES
1 *3269:Q *701:4 4.5 
2 *701:4 *701:16 12.8 
3 *701:16 *2476:I 4.5 
4 *701:16 *2934:A1 8.908 
5 *701:4 *701:42 3.952 
6 *701:42 *3019:A1 6.476 
7 *701:42 *2520:A1 16.008 
*END

*D_NET *702 0.0169745
*CONN
*I *3027:A1 I *D gf180mcu_fd_sc_mcu7t5v0__aoi222_1
*I *2518:A1 I *D gf180mcu_fd_sc_mcu7t5v0__oai21_1
*I *2841:A1 I *D gf180mcu_fd_sc_mcu7t5v0__and4_1
*I *2839:B I *D gf180mcu_fd_sc_mcu7t5v0__oai211_1
*I *2822:A1 I *D gf180mcu_fd_sc_mcu7t5v0__nand2_1
*I *2519:A1 I *D gf180mcu_fd_sc_mcu7t5v0__oai21_1
*I *2475:I I *D gf180mcu_fd_sc_mcu7t5v0__clkinv_1
*I *3270:Q O *D gf180mcu_fd_sc_mcu7t5v0__dffq_1
*CAP
1 *3027:A1 0.000691116
2 *2518:A1 2.07444e-05
3 *2841:A1 0.000254395
4 *2839:B 0
5 *2822:A1 0
6 *2519:A1 0.000240305
7 *2475:I 0.000125955
8 *3270:Q 0.000420752
9 *702:65 0.000419476
10 *702:50 0.000227332
11 *702:39 0.000467274
12 *702:35 0.000484964
13 *702:16 0.000523893
14 *702:10 0.0012103
15 *2475:I *704:29 2.5211e-05
16 *2475:I *767:131 0.000120313
17 *2475:I *804:54 2.84988e-05
18 *2518:A1 *2518:B 1.02578e-05
19 *2518:A1 *3106:A2 1.76898e-05
20 *2519:A1 *792:34 0
21 *3027:A1 *2525:A1 0.000125377
22 *3027:A1 *3035:C1 0.000769254
23 *3027:A1 *3115:A1 0.000106702
24 *702:10 *2510:A1 0
25 *702:10 *3116:C 6.40545e-05
26 *702:10 *703:12 0.000814135
27 *702:16 *767:131 0.000173961
28 *702:16 *769:25 0.000197953
29 *702:35 *2524:A2 0.000108753
30 *702:35 *3105:A2 0.00107739
31 *702:35 *759:12 0.000680464
32 *702:35 *767:114 4.86993e-06
33 *702:35 *767:131 7.93657e-06
34 *702:35 *792:34 0.000167874
35 *702:35 *804:54 0.000125479
36 *702:39 *792:34 0.000151957
37 *2519:B *2518:A1 2.6126e-05
38 *2519:B *2519:A1 7.57844e-05
39 *2822:A2 *702:50 3.08902e-05
40 *2822:A2 *702:65 0.000255714
41 *2839:A1 *2841:A1 5.22519e-05
42 *2839:A1 *702:65 2.6126e-05
43 *2839:C *2841:A1 7.83779e-05
44 *2839:C *702:65 2.6126e-05
45 *2932:A1 *702:39 8.73286e-05
46 *2932:A1 *702:65 0
47 *2933:A1 *2841:A1 0
48 *2933:A1 *702:65 0
49 *2934:A1 *2519:A1 3.12138e-06
50 *2934:A1 *702:65 2.9378e-06
51 *2934:A2 *2841:A1 0.000195828
52 *2934:B1 *2841:A1 5.12369e-05
53 *2935:B *2841:A1 1.5961e-05
54 *2935:C *2841:A1 0.000513594
55 *2935:C *702:65 0.000387765
56 *3028:A2 *3027:A1 0.000148087
57 *3105:B1 *702:35 5.35759e-05
58 *3105:B2 *702:35 3.32987e-05
59 *3229:CLK *2519:A1 8.45236e-05
60 *3229:CLK *702:50 2.30549e-05
61 *3229:CLK *702:65 3.4591e-05
62 *3303:I *702:35 0.000283447
63 *3344:I *702:10 0
64 *3354:I *702:10 1.66395e-05
65 *230:14 *702:10 0.00101861
66 *230:14 *702:16 0.000145131
67 *230:20 *2475:I 0.000250586
68 *230:20 *702:16 0.000538158
69 *230:20 *702:35 0.00221371
70 *241:10 *702:39 2.93981e-05
71 *241:27 *2518:A1 8.0352e-06
72 *241:27 *2519:A1 2.00003e-05
73 *241:27 *702:50 2.25184e-05
74 *243:26 *702:35 0.000165235
75 *243:26 *702:39 7.2647e-05
76 *468:8 *702:65 1.5015e-05
77 *469:22 *702:65 0.000104422
78 *616:22 *3027:A1 0
*RES
1 *3270:Q *702:10 13.56 
2 *702:10 *702:16 2.356 
3 *702:16 *2475:I 10.216 
4 *702:16 *702:35 16.752 
5 *702:35 *702:39 5.944 
6 *702:39 *2519:A1 6.248 
7 *702:39 *702:50 0.608 
8 *702:50 *2822:A1 4.5 
9 *702:50 *702:65 11.052 
10 *702:65 *2839:B 4.5 
11 *702:65 *2841:A1 16.312 
12 *702:35 *2518:A1 9.228 
13 *702:10 *3027:A1 23.168 
*END

*D_NET *703 0.0133463
*CONN
*I *2956:A1 I *D gf180mcu_fd_sc_mcu7t5v0__nor2_1
*I *2499:I I *D gf180mcu_fd_sc_mcu7t5v0__clkinv_1
*I *2525:B2 I *D gf180mcu_fd_sc_mcu7t5v0__oai32_1
*I *3035:C1 I *D gf180mcu_fd_sc_mcu7t5v0__aoi222_1
*I *3272:Q O *D gf180mcu_fd_sc_mcu7t5v0__dffq_1
*CAP
1 *2956:A1 0.000181063
2 *2499:I 0.000157082
3 *2525:B2 0
4 *3035:C1 0.000761463
5 *3272:Q 0.000238147
6 *703:56 0.00105529
7 *703:35 0.000822202
8 *703:12 0.00110467
9 *3035:C1 *2525:A1 5.16651e-05
10 *3035:C1 *2750:A1 0.000955234
11 *3035:C1 *3027:A2 7.74495e-05
12 *3035:C1 *3115:A1 3.1394e-06
13 *3035:C1 *3326:I 0
14 *3035:C1 *744:10 3.2235e-05
15 *3035:C1 *769:25 0.00041486
16 *3035:C1 *769:43 0.000201947
17 *703:12 *2510:A2 3.73535e-05
18 *703:12 *2526:A1 3.02222e-05
19 *703:12 *3116:C 6.31034e-05
20 *703:12 *805:22 0.000165303
21 *703:35 *2525:A1 2.63195e-05
22 *703:56 *927:8 6.00599e-05
23 *2525:B1 *3035:C1 7.71175e-06
24 *2526:A2 *703:12 2.28275e-05
25 *2957:B *703:56 2.97523e-05
26 *2958:A2 *2956:A1 0.000197957
27 *2959:A2 *2499:I 3.80298e-05
28 *2959:A2 *2956:A1 4.24048e-05
29 *2963:A1 *2499:I 5.93303e-05
30 *2963:A1 *2956:A1 0.000221495
31 *2989:A2 *3035:C1 0.000109236
32 *3027:A1 *3035:C1 0.000769254
33 *3028:A2 *3035:C1 0.000429998
34 *3029:B2 *3035:C1 0.00069415
35 *3238:CLK *2956:A1 3.16765e-06
36 *3272:D *703:12 0.000959469
37 *3272:CLK *3035:C1 2.25184e-05
38 *3272:CLK *703:35 0.00041397
39 *3272:CLK *703:56 0.000307974
40 *3319:I *703:56 9.20566e-06
41 *3344:I *3035:C1 0
42 *3344:I *703:12 1.44988e-05
43 *3344:I *703:56 3.52735e-05
44 *230:14 *703:12 0.000216296
45 *562:101 *3035:C1 0.000253521
46 *683:37 *3035:C1 0.000853473
47 *686:30 *2499:I 2.0537e-05
48 *686:36 *703:56 0.000303311
49 *686:42 *2499:I 5.79795e-05
50 *686:42 *703:56 0
51 *702:10 *703:12 0.000814135
*RES
1 *3272:Q *703:12 17.908 
2 *703:12 *3035:C1 15.14 
3 *703:12 *703:35 1.14 
4 *703:35 *2525:B2 4.5 
5 *703:35 *703:56 9.896 
6 *703:56 *2499:I 10.292 
7 *703:56 *2956:A1 11.356 
*END

*D_NET *704 0.0171401
*CONN
*I *2940:A1 I *D gf180mcu_fd_sc_mcu7t5v0__nand3_1
*I *2943:A1 I *D gf180mcu_fd_sc_mcu7t5v0__nand2_1
*I *2930:A1 I *D gf180mcu_fd_sc_mcu7t5v0__nand2_1
*I *3039:C1 I *D gf180mcu_fd_sc_mcu7t5v0__aoi222_1
*I *2527:A1 I *D gf180mcu_fd_sc_mcu7t5v0__nand3_1
*I *2498:I I *D gf180mcu_fd_sc_mcu7t5v0__clkinv_1
*I *3273:Q O *D gf180mcu_fd_sc_mcu7t5v0__dffq_1
*CAP
1 *2940:A1 0.00015085
2 *2943:A1 0.000168521
3 *2930:A1 0
4 *3039:C1 0.00164473
5 *2527:A1 3.67708e-05
6 *2498:I 0.00035028
7 *3273:Q 0
8 *704:69 0.000306452
9 *704:65 0.000817224
10 *704:29 0.00221412
11 *704:25 0.0012429
12 *704:6 0.000532119
13 *2498:I *804:67 8.0338e-05
14 *2498:I *805:49 0
15 *2498:I *805:57 0.000171918
16 *2498:I *872:10 0.000222333
17 *2940:A1 *791:17 0
18 *2943:A1 *791:17 2.7935e-05
19 *2943:A1 *792:14 3.07991e-05
20 *3039:C1 *2741:A1 9.08478e-05
21 *3039:C1 *2987:B2 4.86993e-06
22 *3039:C1 *725:25 1.2018e-05
23 *3039:C1 *787:12 7.67669e-06
24 *3039:C1 *804:54 0
25 *704:25 *804:67 9.96758e-05
26 *704:29 *2527:A2 2.07535e-05
27 *704:29 *759:8 2.23598e-06
28 *704:29 *759:54 2.46566e-05
29 *704:29 *804:54 0
30 *704:65 *2930:A2 4.27914e-05
31 *704:65 *759:54 3.84254e-05
32 *704:65 *791:17 0
33 *704:69 *792:14 4.36472e-05
34 *2475:I *704:29 2.5211e-05
35 *2529:A1 *704:29 0.000371486
36 *2529:A2 *3039:C1 0.000231941
37 *2529:A2 *704:29 3.75371e-05
38 *2664:A1 *2498:I 0.000190571
39 *2664:A1 *704:25 0.000158809
40 *2940:A2 *2943:A1 0.000113292
41 *2941:A1 *2943:A1 2.6126e-05
42 *2944:A1 *2940:A1 0.00023197
43 *2944:A1 *704:65 0.00119486
44 *3039:C2 *3039:C1 0
45 *3057:A2 *3039:C1 0.00013063
46 *3058:A1 *3039:C1 0.000305938
47 *3058:A2 *3039:C1 0.000645228
48 *3070:A2 *3039:C1 0.000157421
49 *3072:A3 *3039:C1 0.000625358
50 *3072:A3 *704:29 5.76373e-06
51 *3081:A2 *3039:C1 0
52 *3103:A2 *3039:C1 4.50449e-05
53 *3104:A1 *3039:C1 3.07734e-05
54 *3249:D *3039:C1 0.000159251
55 *3264:D *3039:C1 6.46383e-05
56 *3265:D *2498:I 0
57 *3273:D *704:29 0.00010635
58 *3273:D *704:65 4.58601e-06
59 *3319:I *704:25 0.000138364
60 *200:12 *2498:I 0.000302458
61 *219:14 *2943:A1 6.879e-05
62 *535:10 *2943:A1 0.000467288
63 *543:8 *2940:A1 2.8431e-05
64 *640:84 *3039:C1 1.27163e-05
65 *656:31 *3039:C1 0.000861158
66 *657:31 *3039:C1 0
67 *683:43 *3039:C1 7.83779e-05
68 *683:51 *3039:C1 0.00152987
69 *697:10 *2498:I 8.03759e-06
70 *697:30 *2498:I 0.000396912
*RES
1 *3273:Q *704:6 9 
2 *704:6 *2498:I 13.408 
3 *704:6 *704:25 6.248 
4 *704:25 *704:29 3.648 
5 *704:29 *2527:A1 4.728 
6 *704:29 *3039:C1 29.08 
7 *704:25 *704:65 4.636 
8 *704:65 *704:69 5.184 
9 *704:69 *2930:A1 9 
10 *704:69 *2943:A1 11.128 
11 *704:65 *2940:A1 5.716 
*END

*D_NET *705 0.00141801
*CONN
*I *2500:I I *D gf180mcu_fd_sc_mcu7t5v0__clkinv_1
*I *3271:Q O *D gf180mcu_fd_sc_mcu7t5v0__dffq_1
*CAP
1 *2500:I 0.000393576
2 *3271:Q 0.000393576
3 *2500:I *2769:A1 7.4219e-06
4 *2500:I *3314:I 0.00015398
5 *2500:I *3369:I 4.75402e-05
6 *2500:I *706:6 1.02578e-05
7 *3189:D *2500:I 4.46661e-05
8 *3315:I *2500:I 0.000366991
*RES
1 *3271:Q *2500:I 12.42 
*END

*D_NET *706 0.00342351
*CONN
*I *2769:A1 I *D gf180mcu_fd_sc_mcu7t5v0__nor2_1
*I *2492:I I *D gf180mcu_fd_sc_mcu7t5v0__clkinv_1
*I *3188:Q O *D gf180mcu_fd_sc_mcu7t5v0__dffq_1
*CAP
1 *2769:A1 0.000272325
2 *2492:I 0
3 *3188:Q 0.000203592
4 *706:6 0.000475917
5 *2769:A1 *3314:I 0.000404606
6 *2769:A1 *3324:I 0
7 *2769:A1 *3369:I 0.000315719
8 *706:6 *3189:CLK 0
9 *706:6 *3369:I 0.000792491
10 *2500:I *2769:A1 7.4219e-06
11 *2500:I *706:6 1.02578e-05
12 *2769:A2 *2769:A1 0.000941183
13 *3315:I *706:6 0
*RES
1 *3188:Q *706:6 6.704 
2 *706:6 *2492:I 4.5 
3 *706:6 *2769:A1 17.3 
*END

*D_NET *707 0.0197535
*CONN
*I *2771:A1 I *D gf180mcu_fd_sc_mcu7t5v0__nand2_1
*I *2773:A1 I *D gf180mcu_fd_sc_mcu7t5v0__and3_1
*I *2665:A1 I *D gf180mcu_fd_sc_mcu7t5v0__nand2_1
*I *2778:A1 I *D gf180mcu_fd_sc_mcu7t5v0__and4_1
*I *2934:B2 I *D gf180mcu_fd_sc_mcu7t5v0__aoi221_1
*I *2485:I I *D gf180mcu_fd_sc_mcu7t5v0__clkinv_1
*I *3230:Q O *D gf180mcu_fd_sc_mcu7t5v0__dffq_1
*CAP
1 *2771:A1 0
2 *2773:A1 9.91941e-05
3 *2665:A1 0.000226253
4 *2778:A1 0.000257859
5 *2934:B2 0
6 *2485:I 0.000210006
7 *3230:Q 0.000114213
8 *707:75 0.00038858
9 *707:60 0.000374173
10 *707:58 0.00231087
11 *707:16 0.000435392
12 *707:10 0.00259729
13 *2665:A1 *2665:A2 0.000499602
14 *2665:A1 *3324:I 0
15 *2665:A1 *792:51 8.1274e-05
16 *2773:A1 *708:25 4.63165e-05
17 *2778:A1 *2778:A3 9.2366e-05
18 *2778:A1 *708:19 0.000132619
19 *2778:A1 *715:16 0.000664276
20 *707:10 *3015:C2 0
21 *707:16 *3015:C2 0.000318943
22 *707:58 *2513:A1 8.44403e-05
23 *707:58 *3002:A2 0.000689562
24 *707:58 *3015:C2 0.000173764
25 *707:58 *3089:A1 0.000207586
26 *707:58 *3091:B 0
27 *707:58 *3109:A1 0.000801962
28 *707:58 *3109:A2 3.60816e-06
29 *707:58 *3114:C 0.000369754
30 *707:58 *800:59 6.03924e-05
31 *707:58 *803:21 0.000206527
32 *707:75 *708:25 1.18008e-05
33 *707:75 *792:51 6.05381e-05
34 *2520:A2 *707:58 0.000103389
35 *2523:A3 *707:58 0
36 *2772:A1 *2778:A1 0.000193448
37 *2772:A2 *2778:A1 4.50449e-05
38 *2774:A2 *2778:A1 2.23385e-05
39 *2774:A2 *707:60 6.42585e-05
40 *2775:A1 *2665:A1 8.62306e-05
41 *2775:A2 *2665:A1 0.000614417
42 *2775:A2 *2773:A1 9.52854e-05
43 *2776:A1 *707:58 1.45141e-05
44 *2841:A4 *2485:I 6.35733e-05
45 *2841:A4 *707:16 7.83779e-05
46 *2934:A1 *707:10 0.000369763
47 *2934:A1 *707:58 0
48 *2935:A1 *2485:I 0.000264894
49 *3080:A1 *707:58 7.83779e-05
50 *3087:A2 *707:58 1.95729e-05
51 *3089:A2 *707:58 0.000186861
52 *3095:A2 *707:58 0.000156004
53 *3095:A3 *707:58 2.0087e-05
54 *3110:B *707:58 2.96621e-05
55 *3112:A1 *707:58 6.07523e-05
56 *3114:B *707:58 7.50749e-05
57 *3229:CLK *707:10 0.000442387
58 *3229:CLK *707:16 0.000269857
59 *3229:CLK *707:58 2.90524e-05
60 *3261:D *707:58 7.04692e-05
61 *3269:D *707:58 0.000101271
62 *212:29 *707:58 0
63 *212:58 *707:58 0.00187993
64 *240:8 *707:58 0
65 *242:16 *2485:I 4.23613e-05
66 *242:16 *707:16 2.57058e-06
67 *416:6 *2778:A1 3.73535e-05
68 *416:6 *707:58 9.88736e-06
69 *416:6 *707:60 7.41459e-05
70 *420:10 *2778:A1 0.00031292
71 *467:36 *707:16 0.000150768
72 *536:12 *707:10 0.000225107
73 *536:12 *707:16 1.11891e-05
74 *580:12 *707:58 0.000138299
75 *580:22 *707:58 1.97747e-05
76 *656:87 *707:58 0
77 *657:10 *707:58 0.000601661
78 *695:6 *707:58 8.55242e-05
79 *695:85 *707:58 0.000776553
80 *696:86 *707:58 8.81341e-06
81 *696:93 *707:58 0.000302483
*RES
1 *3230:Q *707:10 11.128 
2 *707:10 *707:16 7.236 
3 *707:16 *2485:I 6.476 
4 *707:16 *2934:B2 4.5 
5 *707:10 *707:58 27.984 
6 *707:58 *707:60 0.532 
7 *707:60 *2778:A1 8.376 
8 *707:60 *707:75 5.032 
9 *707:75 *2665:A1 12.572 
10 *707:75 *2773:A1 9.912 
11 *707:58 *2771:A1 4.5 
*END

*D_NET *708 0.00746354
*CONN
*I *2747:A2 I *D gf180mcu_fd_sc_mcu7t5v0__xor2_1
*I *2766:A4 I *D gf180mcu_fd_sc_mcu7t5v0__nor4_1
*I *2774:A1 I *D gf180mcu_fd_sc_mcu7t5v0__oai21_1
*I *2773:A2 I *D gf180mcu_fd_sc_mcu7t5v0__and3_1
*I *2778:A3 I *D gf180mcu_fd_sc_mcu7t5v0__and4_1
*I *3189:Q O *D gf180mcu_fd_sc_mcu7t5v0__dffq_1
*CAP
1 *2747:A2 0.000280481
2 *2766:A4 4.8929e-05
3 *2774:A1 0.000103002
4 *2773:A2 0
5 *2778:A3 0.000132214
6 *3189:Q 0
7 *708:43 0.000483288
8 *708:25 0.000256975
9 *708:19 0.000336021
10 *708:4 0.000160384
11 *2747:A2 *2752:A1 2.11326e-05
12 *2747:A2 *3324:I 0.000580653
13 *2747:A2 *792:34 0.000372137
14 *2747:A2 *792:40 4.27417e-05
15 *2766:A4 *2745:A2 6.23713e-06
16 *2766:A4 *716:42 9.88736e-06
17 *2778:A3 *715:16 0.000733203
18 *708:25 *3324:I 0.000523951
19 *708:25 *792:51 0
20 *708:43 *3324:I 0.00060781
21 *708:43 *792:40 1.45386e-05
22 *708:43 *792:51 0
23 *2755:A1 *2747:A2 0.000255712
24 *2755:A2 *2747:A2 1.66121e-06
25 *2755:A3 *2747:A2 0.000135062
26 *2760:A1 *2747:A2 0.000134162
27 *2768:B *2747:A2 0.000656894
28 *2772:A1 *2778:A3 0.000398439
29 *2772:A1 *708:19 3.73843e-05
30 *2772:A1 *708:25 9.52957e-06
31 *2773:A1 *708:25 4.63165e-05
32 *2774:A2 *2774:A1 9.60518e-06
33 *2774:A2 *708:25 1.72912e-05
34 *2775:A2 *2774:A1 0.00020657
35 *2775:A2 *708:25 7.33934e-06
36 *2778:A1 *2778:A3 9.2366e-05
37 *2778:A1 *708:19 0.000132619
38 *3190:D *2778:A3 0.000173454
39 *212:23 *2774:A1 5.4634e-05
40 *212:23 *708:25 0.000264755
41 *212:29 *2774:A1 7.02831e-05
42 *414:14 *2778:A3 3.25235e-05
43 *420:10 *2766:A4 1.54665e-06
44 *422:12 *2778:A3 0
45 *707:75 *708:25 1.18008e-05
*RES
1 *3189:Q *708:4 4.5 
2 *708:4 *2778:A3 7.312 
3 *708:4 *708:19 4.88 
4 *708:19 *708:25 6.476 
5 *708:25 *2773:A2 4.5 
6 *708:25 *2774:A1 5.64 
7 *708:19 *708:43 1.596 
8 *708:43 *2766:A4 9.228 
9 *708:43 *2747:A2 13.408 
*END

*D_NET *709 0.00879078
*CONN
*I *2805:A1 I *D gf180mcu_fd_sc_mcu7t5v0__nor2_1
*I *2806:A1 I *D gf180mcu_fd_sc_mcu7t5v0__and4_1
*I *2746:A2 I *D gf180mcu_fd_sc_mcu7t5v0__xor2_1
*I *2763:A2 I *D gf180mcu_fd_sc_mcu7t5v0__nor4_1
*I *3199:Q O *D gf180mcu_fd_sc_mcu7t5v0__dffq_1
*CAP
1 *2805:A1 0.000547882
2 *2806:A1 2.06391e-05
3 *2746:A2 0.000403391
4 *2763:A2 0
5 *3199:Q 9.41321e-05
6 *709:20 0.0008855
7 *709:14 0.000818742
8 *709:8 0.000958007
9 *2746:A2 *2741:A1 0.000686802
10 *2746:A2 *2743:A1 7.02539e-05
11 *2746:A2 *2753:A2 4.87796e-05
12 *2746:A2 *722:23 1.02578e-05
13 *2805:A1 *2804:A1 0
14 *2805:A1 *723:19 0
15 *2805:A1 *723:21 0
16 *2806:A1 *2800:A1 7.83779e-05
17 *709:8 *723:21 7.18046e-05
18 *709:14 *723:21 3.38222e-05
19 *709:14 *754:112 6.09629e-05
20 *709:20 *2801:A1 0.000189632
21 *709:20 *710:20 0.000438704
22 *709:20 *721:8 7.9315e-06
23 *709:20 *721:32 0
24 *709:20 *722:23 0.000262408
25 *709:20 *754:112 7.62177e-05
26 *2758:A1 *2746:A2 0.000383666
27 *2759:A3 *2746:A2 0.000360997
28 *2767:A1 *2746:A2 0.000547681
29 *2800:A2 *2806:A1 2.6126e-05
30 *2800:A2 *709:14 0.000305928
31 *2800:A2 *709:20 6.817e-05
32 *2801:A2 *2806:A1 1.91917e-06
33 *2801:A2 *709:20 0.000737587
34 *2806:A4 *709:14 8.25105e-05
35 *2807:A2 *2805:A1 0.000413792
36 *3197:D *2806:A1 0
37 *3197:D *709:20 1.97747e-05
38 *435:25 *709:14 7.83779e-05
39 *441:16 *709:14 0
*RES
1 *3199:Q *709:8 5.412 
2 *709:8 *709:14 6.78 
3 *709:14 *709:20 9.82 
4 *709:20 *2763:A2 4.5 
5 *709:20 *2746:A2 9.44 
6 *709:14 *2806:A1 9.228 
7 *709:8 *2805:A1 8.756 
*END

*D_NET *710 0.0079523
*CONN
*I *2809:A1 I *D gf180mcu_fd_sc_mcu7t5v0__oai21_1
*I *2808:A1 I *D gf180mcu_fd_sc_mcu7t5v0__and2_1
*I *2763:A1 I *D gf180mcu_fd_sc_mcu7t5v0__nor4_1
*I *2752:A2 I *D gf180mcu_fd_sc_mcu7t5v0__xor2_1
*I *3200:Q O *D gf180mcu_fd_sc_mcu7t5v0__dffq_1
*CAP
1 *2809:A1 0
2 *2808:A1 0
3 *2763:A1 0
4 *2752:A2 0.000565356
5 *3200:Q 0.000179783
6 *710:20 0.00144905
7 *710:14 0.00137057
8 *710:10 0.000666656
9 *2752:A2 *2756:A2 0.000436911
10 *2752:A2 *719:30 0.000193933
11 *2752:A2 *720:38 9.39206e-05
12 *710:10 *2777:I 0.000170371
13 *710:10 *711:12 0.000358235
14 *710:14 *711:12 0.000639572
15 *710:20 *721:32 6.78059e-05
16 *710:20 *794:25 2.59561e-05
17 *710:20 *794:38 3.64733e-05
18 *2760:A1 *2752:A2 0
19 *2762:A1 *2752:A2 7.66156e-05
20 *2762:A2 *2752:A2 9.88736e-06
21 *2767:A1 *710:20 2.6126e-05
22 *2768:A2 *2752:A2 0.000174123
23 *2768:B *2752:A2 0
24 *2809:A2 *710:14 0.000104631
25 *420:18 *2752:A2 0.000325641
26 *420:26 *710:14 3.19219e-05
27 *435:17 *710:20 8.78018e-05
28 *435:25 *710:20 4.38664e-05
29 *441:16 *710:14 4.4998e-05
30 *441:16 *710:20 0.000333388
31 *709:20 *710:20 0.000438704
*RES
1 *3200:Q *710:10 10.824 
2 *710:10 *710:14 3.496 
3 *710:14 *710:20 11.188 
4 *710:20 *2752:A2 19.58 
5 *710:20 *2763:A1 4.5 
6 *710:14 *2808:A1 9 
7 *710:10 *2809:A1 9 
*END

*D_NET *711 0.00862062
*CONN
*I *2764:A4 I *D gf180mcu_fd_sc_mcu7t5v0__nor4_1
*I *2757:A2 I *D gf180mcu_fd_sc_mcu7t5v0__xor2_1
*I *2813:A1 I *D gf180mcu_fd_sc_mcu7t5v0__aoi21_1
*I *2811:A1 I *D gf180mcu_fd_sc_mcu7t5v0__nor2_1
*I *2814:A2 I *D gf180mcu_fd_sc_mcu7t5v0__and3_1
*I *2812:A1 I *D gf180mcu_fd_sc_mcu7t5v0__aoi211_1
*I *3201:Q O *D gf180mcu_fd_sc_mcu7t5v0__dffq_1
*CAP
1 *2764:A4 2.43499e-05
2 *2757:A2 0.000126956
3 *2813:A1 0
4 *2811:A1 7.22895e-05
5 *2814:A2 0
6 *2812:A1 0
7 *3201:Q 0.000576032
8 *711:50 0.000292211
9 *711:36 0.000130627
10 *711:34 0.00035751
11 *711:21 0.000410263
12 *711:12 0.000828026
13 *2757:A2 *2748:A2 0.000315276
14 *2757:A2 *2749:A2 1.76797e-05
15 *2757:A2 *2750:A2 8.15645e-05
16 *2757:A2 *2751:A2 3.19219e-05
17 *2757:A2 *2756:A2 2.96621e-05
18 *2757:A2 *714:18 0.000109341
19 *2757:A2 *794:109 0.00032652
20 *2764:A4 *2750:A2 4.58601e-06
21 *2764:A4 *712:25 5.22519e-05
22 *2764:A4 *794:109 5.87561e-06
23 *2811:A1 *2813:B 1.5015e-05
24 *2811:A1 *794:94 3.94624e-05
25 *711:12 *2777:I 0
26 *711:21 *2814:A1 3.08902e-05
27 *711:34 *2814:A1 7.76871e-05
28 *711:34 *712:10 0.000142237
29 *711:34 *712:14 0.000317938
30 *711:36 *2813:B 7.31258e-05
31 *711:36 *712:25 7.47441e-05
32 *711:50 *712:25 0.000512789
33 *711:50 *794:109 8.81341e-06
34 *2757:A1 *2757:A2 9.88736e-06
35 *2767:A2 *2757:A2 0.000742688
36 *2807:A1 *711:21 1.3758e-05
37 *2809:A2 *711:12 0.000157232
38 *2812:A2 *711:21 1.5015e-05
39 *2815:A2 *2811:A1 0.000193933
40 *2815:A3 *711:21 0.000106782
41 *2815:A3 *711:34 7.50749e-05
42 *3202:D *2811:A1 1.44832e-05
43 *3202:D *711:21 3.2235e-05
44 *3202:D *711:34 5.26975e-06
45 *3202:D *711:36 4.46796e-05
46 *3202:D *711:50 2.7435e-05
47 *420:18 *711:21 0.000310356
48 *420:26 *711:12 0.00020862
49 *420:26 *711:21 0.00041486
50 *421:23 *711:12 0
51 *442:30 *2811:A1 2.74753e-05
52 *442:30 *711:21 7.24161e-06
53 *446:25 *711:34 5.73066e-06
54 *446:25 *711:50 0
55 *447:25 *2757:A2 5.69191e-05
56 *447:25 *711:34 6.74911e-05
57 *710:10 *711:12 0.000358235
58 *710:14 *711:12 0.000639572
*RES
1 *3201:Q *711:12 18.668 
2 *711:12 *2812:A1 4.5 
3 *711:12 *711:21 2.584 
4 *711:21 *2814:A2 4.5 
5 *711:21 *711:34 10.824 
6 *711:34 *711:36 0.684 
7 *711:36 *2811:A1 5.336 
8 *711:36 *2813:A1 4.5 
9 *711:34 *711:50 1.444 
10 *711:50 *2757:A2 16.54 
11 *711:50 *2764:A4 4.728 
*END

*D_NET *712 0.0046462
*CONN
*I *2814:A1 I *D gf180mcu_fd_sc_mcu7t5v0__and3_1
*I *2764:A3 I *D gf180mcu_fd_sc_mcu7t5v0__nor4_1
*I *2750:A2 I *D gf180mcu_fd_sc_mcu7t5v0__xor2_1
*I *2813:B I *D gf180mcu_fd_sc_mcu7t5v0__aoi21_1
*I *3202:Q O *D gf180mcu_fd_sc_mcu7t5v0__dffq_1
*CAP
1 *2814:A1 1.83563e-05
2 *2764:A3 0
3 *2750:A2 0.000115647
4 *2813:B 7.51825e-05
5 *3202:Q 0.00049119
6 *712:25 0.000265095
7 *712:14 0.000318309
8 *712:10 0.000603225
9 *2750:A2 *2764:A2 4.03623e-05
10 *2750:A2 *3203:CLK 0.000326954
11 *2750:A2 *714:18 0.000262996
12 *2750:A2 *794:109 0.000119514
13 *2813:B *794:94 6.54282e-05
14 *712:10 *3332:I 4.33819e-05
15 *712:25 *794:94 5.04921e-05
16 *712:25 *794:109 5.26936e-05
17 *2757:A2 *2750:A2 8.15645e-05
18 *2764:A4 *2750:A2 4.58601e-06
19 *2764:A4 *712:25 5.22519e-05
20 *2811:A1 *2813:B 1.5015e-05
21 *2814:A3 *712:10 4.08125e-05
22 *2814:A3 *712:14 4.32371e-05
23 *2819:A2 *712:10 8.59527e-06
24 *2820:B *712:10 6.48268e-05
25 *3202:D *2814:A1 0.000203975
26 *3343:I *712:10 0
27 *420:18 *712:14 2.41128e-05
28 *447:25 *712:10 2.62902e-05
29 *447:25 *712:14 2.69281e-06
30 *447:25 *712:25 0
31 *711:21 *2814:A1 3.08902e-05
32 *711:34 *2814:A1 7.76871e-05
33 *711:34 *712:10 0.000142237
34 *711:34 *712:14 0.000317938
35 *711:36 *2813:B 7.31258e-05
36 *711:36 *712:25 7.47441e-05
37 *711:50 *712:25 0.000512789
*RES
1 *3202:Q *712:10 12.04 
2 *712:10 *712:14 5.488 
3 *712:14 *2813:B 5.26 
4 *712:14 *712:25 1.748 
5 *712:25 *2750:A2 15.172 
6 *712:25 *2764:A3 4.5 
7 *712:10 *2814:A1 9.532 
*END

*D_NET *713 0.00740708
*CONN
*I *2744:A2 I *D gf180mcu_fd_sc_mcu7t5v0__xor2_1
*I *2816:A1 I *D gf180mcu_fd_sc_mcu7t5v0__and2_1
*I *2764:A2 I *D gf180mcu_fd_sc_mcu7t5v0__nor4_1
*I *2817:A1 I *D gf180mcu_fd_sc_mcu7t5v0__oai21_1
*I *3203:Q O *D gf180mcu_fd_sc_mcu7t5v0__dffq_1
*CAP
1 *2744:A2 0.000260861
2 *2816:A1 0
3 *2764:A2 0.000298148
4 *2817:A1 0.000128309
5 *3203:Q 0
6 *713:19 0.000547519
7 *713:17 0.000913969
8 *713:4 0.000532045
9 *2744:A2 *3332:I 0.00165728
10 *2744:A2 *3372:I 0.000167624
11 *2764:A2 *2750:A1 0.000778308
12 *2764:A2 *3203:CLK 3.84832e-06
13 *2817:A1 *802:8 0.000107858
14 *713:17 *802:8 7.70742e-05
15 *2750:A2 *2764:A2 4.03623e-05
16 *2761:A1 *2744:A2 2.83071e-05
17 *2761:A1 *2764:A2 0.000260709
18 *2761:A1 *713:19 0.000492181
19 *2761:A2 *2764:A2 1.44832e-05
20 *3258:CLK *2744:A2 0.000379274
21 *447:12 *2764:A2 0.000718919
22 *447:25 *2764:A2 0
*RES
1 *3203:Q *713:4 4.5 
2 *713:4 *2817:A1 5.488 
3 *713:4 *713:17 7.084 
4 *713:17 *713:19 2.204 
5 *713:19 *2764:A2 12.876 
6 *713:19 *2816:A1 9 
7 *713:17 *2744:A2 13.332 
*END

*D_NET *714 0.00868747
*CONN
*I *2819:A1 I *D gf180mcu_fd_sc_mcu7t5v0__oai21_1
*I *2820:A1 I *D gf180mcu_fd_sc_mcu7t5v0__aoi21_1
*I *2764:A1 I *D gf180mcu_fd_sc_mcu7t5v0__nor4_1
*I *2751:A2 I *D gf180mcu_fd_sc_mcu7t5v0__xor2_1
*I *3204:Q O *D gf180mcu_fd_sc_mcu7t5v0__dffq_1
*CAP
1 *2819:A1 0.000105654
2 *2820:A1 0.000152611
3 *2764:A1 0
4 *2751:A2 0.000331764
5 *3204:Q 0.000100235
6 *714:18 0.00060226
7 *714:12 0.000658361
8 *714:10 0.000441143
9 *2751:A2 *2741:A1 0
10 *2751:A2 *2749:A1 0.000711682
11 *2751:A2 *2749:A2 0.000307974
12 *2751:A2 *2753:A1 0.000116841
13 *2751:A2 *2756:A2 2.57058e-06
14 *2751:A2 *3324:I 0.00101909
15 *2819:A1 *3332:I 0
16 *2820:A1 *3332:I 0.000106772
17 *714:18 *3324:I 0.00075922
18 *714:18 *794:109 1.46914e-05
19 *2750:A2 *714:18 0.000262996
20 *2757:A2 *2751:A2 3.19219e-05
21 *2757:A2 *714:18 0.000109341
22 *2759:A2 *2751:A2 4.90714e-05
23 *2767:A2 *2751:A2 0.000954609
24 *2817:B *2819:A1 6.22304e-05
25 *2817:B *714:10 0.000147313
26 *2818:A2 *714:12 0
27 *2818:A2 *714:18 0
28 *2819:A2 *714:12 0.000167793
29 *2819:A2 *714:18 1.28891e-05
30 *2820:A2 *2820:A1 0.000911397
31 *2820:B *2820:A1 0.000335478
32 *2820:B *714:12 0
33 *3204:D *2820:A1 7.99775e-05
34 *3343:I *714:10 1.34641e-06
35 *447:25 *714:18 0.000130243
*RES
1 *3204:Q *714:10 9.76 
2 *714:10 *714:12 2.052 
3 *714:12 *714:18 3.572 
4 *714:18 *2751:A2 14.852 
5 *714:18 *2764:A1 9 
6 *714:12 *2820:A1 11.964 
7 *714:10 *2819:A1 9.684 
*END

*D_NET *715 0.0100965
*CONN
*I *2748:A2 I *D gf180mcu_fd_sc_mcu7t5v0__xor2_1
*I *2766:A3 I *D gf180mcu_fd_sc_mcu7t5v0__nor4_1
*I *2778:A2 I *D gf180mcu_fd_sc_mcu7t5v0__and4_1
*I *2779:A1 I *D gf180mcu_fd_sc_mcu7t5v0__nor2_1
*I *3190:Q O *D gf180mcu_fd_sc_mcu7t5v0__dffq_1
*CAP
1 *2748:A2 0.00117992
2 *2766:A3 3.48657e-05
3 *2778:A2 0
4 *2779:A1 0.000194593
5 *3190:Q 5.42135e-05
6 *715:16 0.000492458
7 *715:10 0.000465751
8 *715:8 0.00136716
9 *2748:A2 *2741:A2 5.48503e-05
10 *2748:A2 *2756:A1 4.71484e-05
11 *2748:A2 *2756:A2 4.48763e-05
12 *2748:A2 *2765:A1 0.000184558
13 *2748:A2 *2765:A2 8.64281e-06
14 *2748:A2 *2765:A3 0
15 *2748:A2 *2765:A4 9.98239e-05
16 *2748:A2 *3324:I 8.05328e-06
17 *2766:A3 *716:42 0.000147313
18 *715:8 *2754:A2 0.000126873
19 *715:8 *717:43 0.000171918
20 *715:8 *718:36 4.50449e-05
21 *715:10 *3324:I 5.98831e-05
22 *715:16 *3324:I 0.00015894
23 *2757:A1 *2748:A2 0.000453684
24 *2757:A2 *2748:A2 0.000315276
25 *2761:A3 *2748:A2 0
26 *2767:A1 *2748:A2 0.000913741
27 *2767:A2 *2748:A2 0.000364091
28 *2767:A3 *2748:A2 0.00125883
29 *2767:A3 *715:10 8.8425e-05
30 *2769:A2 *2779:A1 0
31 *2778:A1 *715:16 0.000664276
32 *2778:A3 *715:16 0.000733203
33 *3190:D *715:16 1.2018e-05
34 *3203:D *2748:A2 1.33547e-05
35 *212:10 *2779:A1 0.000166035
36 *414:14 *2748:A2 0
37 *414:14 *2779:A1 5.9337e-05
38 *414:14 *715:10 0
39 *414:14 *715:16 0
40 *420:10 *2766:A3 0
41 *420:10 *715:16 2.25184e-05
42 *447:25 *2748:A2 8.48036e-05
*RES
1 *3190:Q *715:8 9.988 
2 *715:8 *715:10 0.988 
3 *715:10 *715:16 8.3 
4 *715:16 *2779:A1 15.248 
5 *715:16 *2778:A2 4.5 
6 *715:10 *2766:A3 9.38 
7 *715:8 *2748:A2 21.008 
*END

*D_NET *716 0.00816468
*CONN
*I *2782:A1 I *D gf180mcu_fd_sc_mcu7t5v0__nor2_1
*I *2745:A2 I *D gf180mcu_fd_sc_mcu7t5v0__xor2_1
*I *2766:A2 I *D gf180mcu_fd_sc_mcu7t5v0__nor4_1
*I *2787:A3 I *D gf180mcu_fd_sc_mcu7t5v0__and4_1
*I *2781:A1 I *D gf180mcu_fd_sc_mcu7t5v0__and2_1
*I *3191:Q O *D gf180mcu_fd_sc_mcu7t5v0__dffq_1
*CAP
1 *2782:A1 0
2 *2745:A2 8.97709e-05
3 *2766:A2 0
4 *2787:A3 8.42617e-05
5 *2781:A1 0
6 *3191:Q 0.000132913
7 *716:42 0.000633361
8 *716:31 0.000711483
9 *716:20 0.000288014
10 *716:12 0.000337296
11 *2745:A2 *2742:A2 9.3227e-05
12 *2745:A2 *717:43 9.88736e-06
13 *2787:A3 *717:32 3.04307e-05
14 *2787:A3 *717:43 0.00033417
15 *2787:A3 *754:8 1.3758e-05
16 *716:12 *2785:A1 0
17 *716:12 *3368:I 0.000363322
18 *716:12 *3369:I 0.000370468
19 *716:20 *754:12 0.000464026
20 *716:31 *754:12 0.000336541
21 *716:31 *754:43 0.000197036
22 *716:42 *2742:A2 2.57058e-06
23 *716:42 *717:43 0.00103958
24 *716:42 *754:8 0.000395378
25 *2766:A3 *716:42 0.000147313
26 *2766:A4 *2745:A2 6.23713e-06
27 *2766:A4 *716:42 9.88736e-06
28 *2782:A2 *716:20 0.000633952
29 *2783:A3 *716:20 0.000319962
30 *2784:A2 *2787:A3 9.88736e-06
31 *2785:A2 *716:12 0.000433376
32 *2786:A3 *716:20 0
33 *2787:A4 *2787:A3 4.22754e-05
34 *2787:A4 *716:20 0.00011914
35 *2787:A4 *716:31 0.000314329
36 *420:10 *2745:A2 0
37 *420:10 *716:42 0
38 *422:29 *716:20 0.000200822
*RES
1 *3191:Q *716:12 15.78 
2 *716:12 *716:20 7.768 
3 *716:20 *2781:A1 9 
4 *716:20 *716:31 5.944 
5 *716:31 *2787:A3 5.488 
6 *716:31 *716:42 6.08 
7 *716:42 *2766:A2 4.5 
8 *716:42 *2745:A2 5.184 
9 *716:12 *2782:A1 4.5 
*END

*D_NET *717 0.00772892
*CONN
*I *2742:A2 I *D gf180mcu_fd_sc_mcu7t5v0__xor2_1
*I *2766:A1 I *D gf180mcu_fd_sc_mcu7t5v0__nor4_1
*I *2787:A2 I *D gf180mcu_fd_sc_mcu7t5v0__and4_1
*I *2784:A1 I *D gf180mcu_fd_sc_mcu7t5v0__and2_1
*I *2785:A1 I *D gf180mcu_fd_sc_mcu7t5v0__nor2_1
*I *3192:Q O *D gf180mcu_fd_sc_mcu7t5v0__dffq_1
*CAP
1 *2742:A2 0.000310146
2 *2766:A1 0
3 *2787:A2 0
4 *2784:A1 0.000108018
5 *2785:A1 0.000184276
6 *3192:Q 0
7 *717:43 0.000870985
8 *717:32 0.000664286
9 *717:21 0.000934127
10 *717:6 0.000906938
11 *2742:A2 *2742:A1 3.73535e-05
12 *2742:A2 *2745:A1 0.000177177
13 *2742:A2 *2754:A2 4.83026e-05
14 *2742:A2 *792:51 7.57513e-06
15 *2784:A1 *718:10 0.000141888
16 *2785:A1 *3369:I 0
17 *717:21 *3195:CLK 0.000120187
18 *717:21 *3321:I 0
19 *717:21 *737:12 0
20 *717:21 *793:10 0
21 *717:21 *793:16 0
22 *717:21 *793:107 0.00044901
23 *717:32 *718:10 0.0002149
24 *717:43 *2754:A2 4.9333e-05
25 *717:43 *718:10 4.45306e-05
26 *717:43 *718:21 0.000312195
27 *717:43 *718:36 0.000227518
28 *2745:A2 *2742:A2 9.3227e-05
29 *2745:A2 *717:43 9.88736e-06
30 *2776:A1 *2742:A2 0
31 *2784:A2 *2784:A1 6.68164e-05
32 *2784:A2 *717:21 0
33 *2784:A2 *717:32 0.000113206
34 *2785:A2 *2785:A1 1.02578e-05
35 *2785:A2 *717:21 0
36 *2787:A3 *717:32 3.04307e-05
37 *2787:A3 *717:43 0.00033417
38 *428:8 *2784:A1 0
39 *428:23 *717:21 4.81124e-05
40 *715:8 *717:43 0.000171918
41 *716:12 *2785:A1 0
42 *716:42 *2742:A2 2.57058e-06
43 *716:42 *717:43 0.00103958
*RES
1 *3192:Q *717:6 9 
2 *717:6 *2785:A1 10.216 
3 *717:6 *717:21 9.744 
4 *717:21 *2784:A1 5.564 
5 *717:21 *717:32 1.292 
6 *717:32 *2787:A2 4.5 
7 *717:32 *717:43 7.22 
8 *717:43 *2766:A1 4.5 
9 *717:43 *2742:A2 7.008 
*END

*D_NET *718 0.0078195
*CONN
*I *2754:A2 I *D gf180mcu_fd_sc_mcu7t5v0__xor2_1
*I *2765:A4 I *D gf180mcu_fd_sc_mcu7t5v0__nor4_1
*I *2788:A1 I *D gf180mcu_fd_sc_mcu7t5v0__nor2_1
*I *2787:A1 I *D gf180mcu_fd_sc_mcu7t5v0__and4_1
*I *3193:Q O *D gf180mcu_fd_sc_mcu7t5v0__dffq_1
*CAP
1 *2754:A2 0.00041456
2 *2765:A4 0.000126245
3 *2788:A1 0.00031725
4 *2787:A1 0
5 *3193:Q 0.000317933
6 *718:36 0.00108653
7 *718:21 0.00105631
8 *718:10 0.000511265
9 *2754:A2 *2745:A1 0.000220301
10 *718:10 *2789:A1 0
11 *718:10 *2792:A1 1.44832e-05
12 *718:10 *754:47 0.000756982
13 *718:10 *754:51 0.000308501
14 *718:21 *754:47 0.00030882
15 *2742:A2 *2754:A2 4.83026e-05
16 *2748:A2 *2765:A4 9.98239e-05
17 *2755:A1 *2754:A2 0.000260558
18 *2755:A4 *2754:A2 0.000161663
19 *2768:B *2754:A2 4.90683e-05
20 *2768:B *718:36 6.55544e-05
21 *2784:A1 *718:10 0.000141888
22 *2789:A2 *718:10 0
23 *3194:D *718:10 8.61707e-05
24 *414:14 *2765:A4 0.000104378
25 *426:10 *2788:A1 0.000342519
26 *428:8 *718:10 0
27 *715:8 *2754:A2 0.000126873
28 *715:8 *718:36 4.50449e-05
29 *717:32 *718:10 0.0002149
30 *717:43 *2754:A2 4.9333e-05
31 *717:43 *718:10 4.45306e-05
32 *717:43 *718:21 0.000312195
33 *717:43 *718:36 0.000227518
*RES
1 *3193:Q *718:10 8.528 
2 *718:10 *2787:A1 4.5 
3 *718:10 *718:21 6.628 
4 *718:21 *2788:A1 11.052 
5 *718:21 *718:36 8.452 
6 *718:36 *2765:A4 14.792 
7 *718:36 *2754:A2 8.68 
*END

*D_NET *719 0.0106537
*CONN
*I *2790:A1 I *D gf180mcu_fd_sc_mcu7t5v0__nor2_1
*I *2756:A2 I *D gf180mcu_fd_sc_mcu7t5v0__xor2_1
*I *2765:A3 I *D gf180mcu_fd_sc_mcu7t5v0__nor4_1
*I *2797:A3 I *D gf180mcu_fd_sc_mcu7t5v0__and4_1
*I *2791:A1 I *D gf180mcu_fd_sc_mcu7t5v0__and2_1
*I *3194:Q O *D gf180mcu_fd_sc_mcu7t5v0__dffq_1
*CAP
1 *2790:A1 0.000219103
2 *2756:A2 0.000922872
3 *2765:A3 7.36119e-05
4 *2797:A3 0
5 *2791:A1 0.000300807
6 *3194:Q 6.5024e-05
7 *719:30 0.00138466
8 *719:21 0.000561821
9 *719:12 0.000542695
10 *719:8 0.000352369
11 *2756:A2 *2741:A2 0.00148572
12 *2756:A2 *2749:A1 6.92538e-05
13 *2756:A2 *2749:A2 9.63111e-05
14 *2756:A2 *2756:A1 1.26428e-05
15 *2756:A2 *2763:A3 9.25265e-05
16 *2756:A2 *2765:A2 0.000199473
17 *2765:A3 *2765:A2 0.000142801
18 *2790:A1 *3196:CLK 0
19 *2790:A1 *720:16 0.000307307
20 *2790:A1 *754:97 0
21 *2791:A1 *720:16 4.27813e-05
22 *719:8 *720:16 0.000140167
23 *719:12 *2794:A1 4.51089e-05
24 *719:12 *720:16 3.35674e-05
25 *719:21 *720:16 5.45175e-05
26 *719:21 *720:29 0.000130152
27 *719:30 *3321:I 3.81361e-05
28 *719:30 *720:29 1.02578e-05
29 *719:30 *720:38 0.000372033
30 *2748:A2 *2756:A2 4.48763e-05
31 *2748:A2 *2765:A3 0
32 *2751:A2 *2756:A2 2.57058e-06
33 *2752:A2 *2756:A2 0.000436911
34 *2752:A2 *719:30 0.000193933
35 *2757:A1 *2756:A2 0.000681282
36 *2757:A2 *2756:A2 2.96621e-05
37 *2768:A2 *719:30 0.000317494
38 *2790:A2 *2790:A1 5.70962e-05
39 *2790:A2 *719:12 5.96987e-05
40 *2791:A2 *2791:A1 0.000194266
41 *2795:A2 *2791:A1 0
42 *2796:A2 *719:8 0
43 *2797:A4 *2791:A1 9.74225e-05
44 *2797:A4 *719:21 0.000105398
45 *2798:A2 *2790:A1 0
46 *3196:D *719:21 0.000478301
47 *3196:D *719:30 5.4634e-05
48 *414:14 *2765:A3 6.06919e-05
49 *420:18 *2756:A2 0
50 *420:18 *2765:A3 0
51 *428:32 *2791:A1 0.000143734
52 *447:25 *2756:A2 0
*RES
1 *3194:Q *719:8 9.532 
2 *719:8 *719:12 5.184 
3 *719:12 *2791:A1 7.008 
4 *719:12 *719:21 2.052 
5 *719:21 *2797:A3 4.5 
6 *719:21 *719:30 8.376 
7 *719:30 *2765:A3 9.684 
8 *719:30 *2756:A2 18.272 
9 *719:8 *2790:A1 11.356 
*END

*D_NET *720 0.00871313
*CONN
*I *2793:A1 I *D gf180mcu_fd_sc_mcu7t5v0__and2_1
*I *2741:A2 I *D gf180mcu_fd_sc_mcu7t5v0__xor2_1
*I *2765:A2 I *D gf180mcu_fd_sc_mcu7t5v0__nor4_1
*I *2797:A2 I *D gf180mcu_fd_sc_mcu7t5v0__and4_1
*I *2794:A1 I *D gf180mcu_fd_sc_mcu7t5v0__nor2_1
*I *3195:Q O *D gf180mcu_fd_sc_mcu7t5v0__dffq_1
*CAP
1 *2793:A1 0
2 *2741:A2 0.000126253
3 *2765:A2 3.95089e-05
4 *2797:A2 0
5 *2794:A1 0.000415912
6 *3195:Q 0.00019429
7 *720:38 0.000633665
8 *720:29 0.000646434
9 *720:16 0.000763849
10 *720:8 0.000363697
11 *2741:A2 *2765:A1 0.000843856
12 *2765:A2 *2765:A1 0.000206333
13 *2794:A1 *3195:CLK 1.83741e-05
14 *2794:A1 *3196:CLK 7.1896e-05
15 *720:29 *2797:A1 9.26705e-05
16 *720:29 *3196:CLK 5.71738e-05
17 *720:38 *2797:A1 9.26705e-05
18 *720:38 *794:6 0.000155868
19 *2748:A2 *2741:A2 5.48503e-05
20 *2748:A2 *2765:A2 8.64281e-06
21 *2752:A2 *720:38 9.39206e-05
22 *2756:A2 *2741:A2 0.00148572
23 *2756:A2 *2765:A2 0.000199473
24 *2765:A3 *2765:A2 0.000142801
25 *2790:A1 *720:16 0.000307307
26 *2790:A2 *2794:A1 0
27 *2790:A2 *720:16 0.000712243
28 *2791:A1 *720:16 4.27813e-05
29 *2792:A2 *720:8 0.000141888
30 *2793:A2 *2794:A1 0
31 *2795:A2 *720:8 0
32 *2796:A2 *720:8 9.59587e-06
33 *2796:A2 *720:16 0
34 *2796:A2 *720:29 0
35 *2798:A2 *2794:A1 5.64786e-06
36 *437:8 *720:8 0
37 *719:8 *720:16 0.000140167
38 *719:12 *2794:A1 4.51089e-05
39 *719:12 *720:16 3.35674e-05
40 *719:21 *720:16 5.45175e-05
41 *719:21 *720:29 0.000130152
42 *719:30 *720:29 1.02578e-05
43 *719:30 *720:38 0.000372033
*RES
1 *3195:Q *720:8 5.868 
2 *720:8 *720:16 11.736 
3 *720:16 *2794:A1 16.008 
4 *720:16 *720:29 1.444 
5 *720:29 *2797:A2 4.5 
6 *720:29 *720:38 8.528 
7 *720:38 *2765:A2 9.836 
8 *720:38 *2741:A2 12.724 
9 *720:8 *2793:A1 4.5 
*END

*D_NET *721 0.00569215
*CONN
*I *2743:A2 I *D gf180mcu_fd_sc_mcu7t5v0__xor2_1
*I *2765:A1 I *D gf180mcu_fd_sc_mcu7t5v0__nor4_1
*I *2796:A1 I *D gf180mcu_fd_sc_mcu7t5v0__nor2_1
*I *2797:A1 I *D gf180mcu_fd_sc_mcu7t5v0__and4_1
*I *3196:Q O *D gf180mcu_fd_sc_mcu7t5v0__dffq_1
*CAP
1 *2743:A2 0.000151997
2 *2765:A1 0.000149647
3 *2796:A1 0
4 *2797:A1 2.68575e-05
5 *3196:Q 0.000267288
6 *721:32 0.00100621
7 *721:12 4.07019e-05
8 *721:8 0.000985701
9 *2743:A2 *2743:A1 2.6126e-05
10 *2797:A1 *3196:CLK 9.26705e-05
11 *2797:A1 *754:97 1.53833e-05
12 *2797:A1 *794:6 5.4634e-05
13 *2797:A1 *794:25 0.000342528
14 *721:8 *722:10 3.58062e-05
15 *721:12 *794:25 0.000381142
16 *2741:A2 *2765:A1 0.000843856
17 *2748:A2 *2765:A1 0.000184558
18 *2758:A1 *2743:A2 5.56237e-05
19 *2760:A3 *2743:A2 8.59996e-05
20 *2760:A3 *721:32 4.58601e-06
21 *2765:A2 *2765:A1 0.000206333
22 *2767:A1 *2743:A2 5.76749e-06
23 *2767:A1 *721:32 2.60034e-05
24 *2796:A2 *721:8 0
25 *3197:D *721:8 5.05165e-05
26 *435:17 *2797:A1 0.0001908
27 *435:17 *721:12 0.000200335
28 *709:20 *721:8 7.9315e-06
29 *709:20 *721:32 0
30 *710:20 *721:32 6.78059e-05
31 *720:29 *2797:A1 9.26705e-05
32 *720:38 *2797:A1 9.26705e-05
*RES
1 *3196:Q *721:8 6.172 
2 *721:8 *721:12 5.488 
3 *721:12 *2797:A1 10.368 
4 *721:12 *2796:A1 9 
5 *721:8 *721:32 4.028 
6 *721:32 *2765:A1 16.008 
7 *721:32 *2743:A2 5.64 
*END

*D_NET *722 0.0081692
*CONN
*I *2806:A3 I *D gf180mcu_fd_sc_mcu7t5v0__and4_1
*I *2800:A1 I *D gf180mcu_fd_sc_mcu7t5v0__and2_1
*I *2753:A2 I *D gf180mcu_fd_sc_mcu7t5v0__xor2_1
*I *2763:A4 I *D gf180mcu_fd_sc_mcu7t5v0__nor4_1
*I *2799:A1 I *D gf180mcu_fd_sc_mcu7t5v0__nor2_1
*I *3197:Q O *D gf180mcu_fd_sc_mcu7t5v0__dffq_1
*CAP
1 *2806:A3 0.000138285
2 *2800:A1 0.000160804
3 *2753:A2 0.000486293
4 *2763:A4 0
5 *2799:A1 0
6 *3197:Q 8.21313e-05
7 *722:53 0.000324908
8 *722:23 0.000779575
9 *722:14 0.000375128
10 *722:10 0.000189795
11 *2753:A2 *2741:A1 0.000227842
12 *2753:A2 *2743:A1 8.12225e-05
13 *2753:A2 *2749:A2 3.30315e-05
14 *2753:A2 *3324:I 0.000378617
15 *2753:A2 *723:28 1.91917e-06
16 *2800:A1 *723:21 0.000441862
17 *2800:A1 *723:28 0.000369426
18 *2806:A3 *723:21 3.04307e-05
19 *2806:A3 *723:28 0.000399857
20 *2806:A3 *794:25 0.000129252
21 *722:10 *754:97 0.000155017
22 *722:10 *794:25 0.000625851
23 *722:14 *723:28 9.82012e-06
24 *722:23 *723:28 0.00015385
25 *722:53 *794:25 0.000304625
26 *2746:A2 *2753:A2 4.87796e-05
27 *2746:A2 *722:23 1.02578e-05
28 *2758:A1 *2753:A2 0.000186897
29 *2759:A2 *2753:A2 0.000135759
30 *2760:A3 *2753:A2 0.00015813
31 *2799:A2 *722:14 4.76719e-05
32 *2799:A2 *722:23 3.08902e-05
33 *2800:A2 *2800:A1 0.000186337
34 *2801:A2 *2800:A1 7.14164e-06
35 *2801:A2 *722:14 0.000361006
36 *2801:A2 *722:23 4.98138e-05
37 *2806:A1 *2800:A1 7.83779e-05
38 *2806:A4 *2806:A3 1.75512e-05
39 *3197:D *2806:A3 9.90914e-05
40 *3197:D *722:10 0.000247093
41 *3197:D *722:53 0.000272992
42 *435:25 *2806:A3 5.36581e-05
43 *709:20 *722:23 0.000262408
44 *721:8 *722:10 3.58062e-05
*RES
1 *3197:Q *722:10 10.824 
2 *722:10 *722:14 5.488 
3 *722:14 *2799:A1 4.5 
4 *722:14 *722:23 2.888 
5 *722:23 *2763:A4 4.5 
6 *722:23 *2753:A2 17.984 
7 *722:10 *722:53 0.836 
8 *722:53 *2800:A1 11.204 
9 *722:53 *2806:A3 10.52 
*END

*D_NET *723 0.00583574
*CONN
*I *2803:A1 I *D gf180mcu_fd_sc_mcu7t5v0__and2_1
*I *2749:A2 I *D gf180mcu_fd_sc_mcu7t5v0__xnor2_1
*I *2763:A3 I *D gf180mcu_fd_sc_mcu7t5v0__nor4_1
*I *2806:A2 I *D gf180mcu_fd_sc_mcu7t5v0__and4_1
*I *2802:A1 I *D gf180mcu_fd_sc_mcu7t5v0__nor2_1
*I *3198:Q O *D gf180mcu_fd_sc_mcu7t5v0__dffq_1
*CAP
1 *2803:A1 3.67755e-05
2 *2749:A2 0.000362224
3 *2763:A3 0.000129859
4 *2806:A2 0
5 *2802:A1 0
6 *3198:Q 0.000249045
7 *723:28 0.00110054
8 *723:21 0.000820251
9 *723:19 0.000387962
10 *723:8 0.000388436
11 *2751:A2 *2749:A2 0.000307974
12 *2753:A2 *2749:A2 3.30315e-05
13 *2753:A2 *723:28 1.91917e-06
14 *2756:A2 *2749:A2 9.63111e-05
15 *2756:A2 *2763:A3 9.25265e-05
16 *2757:A1 *2749:A2 0.000184352
17 *2757:A2 *2749:A2 1.76797e-05
18 *2792:A2 *723:8 0
19 *2799:A2 *723:28 1.96579e-05
20 *2800:A1 *723:21 0.000441862
21 *2800:A1 *723:28 0.000369426
22 *2805:A1 *723:19 0
23 *2805:A1 *723:21 0
24 *2806:A3 *723:21 3.04307e-05
25 *2806:A3 *723:28 0.000399857
26 *420:18 *2763:A3 6.3814e-05
27 *435:25 *723:28 1.17512e-05
28 *437:8 *723:21 2.07594e-05
29 *709:8 *723:21 7.18046e-05
30 *709:14 *723:21 3.38222e-05
31 *722:14 *723:28 9.82012e-06
32 *722:23 *723:28 0.00015385
*RES
1 *3198:Q *723:8 5.868 
2 *723:8 *2802:A1 4.5 
3 *723:8 *723:19 0.988 
4 *723:19 *723:21 2.052 
5 *723:21 *2806:A2 4.5 
6 *723:21 *723:28 4.636 
7 *723:28 *2763:A3 14.488 
8 *723:28 *2749:A2 7.312 
9 *723:19 *2803:A1 4.728 
*END

*D_NET *724 0.0132094
*CONN
*I *2986:A1 I *D gf180mcu_fd_sc_mcu7t5v0__nor3_1
*I *2502:I I *D gf180mcu_fd_sc_mcu7t5v0__clkinv_1
*I *2965:A1 I *D gf180mcu_fd_sc_mcu7t5v0__aoi21_1
*I *2981:A1 I *D gf180mcu_fd_sc_mcu7t5v0__nor3_1
*I *2964:A1 I *D gf180mcu_fd_sc_mcu7t5v0__nand2_1
*I *3334:Z O *D gf180mcu_fd_sc_mcu7t5v0__dlyb_1
*CAP
1 *2986:A1 5.53141e-05
2 *2502:I 6.951e-05
3 *2965:A1 0.000165107
4 *2981:A1 0.00011234
5 *2964:A1 0
6 *3334:Z 0.00160902
7 *724:39 0.000432737
8 *724:31 0.000556715
9 *724:16 0.00188562
10 *2965:A1 *765:54 0.000113139
11 *2965:A1 *775:20 0.000115621
12 *2965:A1 *775:26 0.000206333
13 *2981:A1 *2981:A2 0.000379283
14 *2981:A1 *765:54 1.94399e-05
15 *2986:A1 *2986:A2 0.000107934
16 *724:16 *2565:A1 0
17 *724:16 *2601:A1 0
18 *724:16 *2608:A1 0.000168613
19 *724:16 *3000:C2 9.77249e-05
20 *724:16 *3016:C2 0.000244676
21 *724:16 *735:23 8.04367e-06
22 *724:16 *798:74 0
23 *724:16 *798:78 0
24 *724:16 *798:80 0
25 *724:31 *735:12 3.73535e-05
26 *724:31 *735:23 0.000479178
27 *724:31 *775:26 0.000977281
28 *724:31 *776:22 0.00059841
29 *724:31 *851:6 2.68145e-05
30 *724:39 *775:26 0.00107689
31 *2507:A1 *724:16 0
32 *2566:A3 *724:16 0.000180841
33 *2601:A3 *724:16 0.000771193
34 *2604:A3 *724:16 2.35105e-05
35 *2965:B *2986:A1 3.00299e-05
36 *2974:A3 *724:31 1.20079e-05
37 *2976:A1 *724:39 2.23783e-05
38 *2976:A2 *724:31 9.02535e-05
39 *2978:A2 *724:39 8.8425e-05
40 *2981:A3 *2981:A1 9.17202e-06
41 *2983:A1 *2502:I 8.44791e-05
42 *2983:A1 *724:39 0.000137776
43 *2984:A2 *2965:A1 0
44 *2984:A2 *724:39 0
45 *2985:A2 *2965:A1 7.73593e-05
46 *3009:A1 *2502:I 9.43665e-05
47 *3009:A1 *724:39 1.3758e-05
48 *3025:A2 *2981:A1 2.10218e-05
49 *3128:CLK *724:16 3.20185e-05
50 *3141:CLK *724:16 0
51 *3363:I *724:39 2.6126e-05
52 *3377:I *2981:A1 0.000339655
53 *227:26 *2986:A1 0.000133171
54 *228:12 *724:39 0.000164555
55 *559:14 *724:31 0.000466437
56 *560:14 *2965:A1 4.29636e-06
57 *560:14 *2986:A1 0.000134636
58 *566:10 *724:39 0.000426133
59 *567:20 *724:16 3.17618e-05
60 *567:20 *724:31 0.000169691
61 *680:171 *724:16 8.12839e-05
*RES
1 *3334:Z *724:16 25.964 
2 *724:16 *2964:A1 4.5 
3 *724:16 *724:31 14.092 
4 *724:31 *724:39 7.92 
5 *724:39 *2981:A1 10.596 
6 *724:39 *2965:A1 10.292 
7 *724:31 *2502:I 5.184 
8 *2965:A1 *2986:A1 9.988 
*END

*D_NET *725 0.00917975
*CONN
*I *3057:A1 I *D gf180mcu_fd_sc_mcu7t5v0__aoi21_1
*I *3081:A1 I *D gf180mcu_fd_sc_mcu7t5v0__nor2_1
*I *3105:A1 I *D gf180mcu_fd_sc_mcu7t5v0__oai22_1
*I *3335:Z O *D gf180mcu_fd_sc_mcu7t5v0__dlyb_1
*CAP
1 *3057:A1 0
2 *3081:A1 0.000114357
3 *3105:A1 0.000466428
4 *3335:Z 0.00102547
5 *725:25 0.000262863
6 *725:8 0.00164041
7 *3105:A1 *3326:I 0
8 *3105:A1 *3329:I 0.00116391
9 *725:8 *3057:B 3.24134e-05
10 *725:8 *3070:A1 0
11 *725:8 *3326:I 0
12 *725:8 *730:14 3.45972e-05
13 *725:8 *769:43 2.71239e-05
14 *725:8 *804:28 0.000431808
15 *725:25 *3057:B 0.00111802
16 *2987:A1 *725:25 0.000822651
17 *2988:A1 *3081:A1 9.16934e-05
18 *3039:C1 *725:25 1.2018e-05
19 *3058:A1 *3105:A1 0
20 *3058:A2 *725:25 0.000153305
21 *3083:A2 *3081:A1 9.52854e-05
22 *3098:A2 *725:8 0.000179551
23 *3257:D *3105:A1 7.2647e-05
24 *3312:I *3081:A1 0.000150074
25 *3312:I *3105:A1 0
26 *230:20 *3105:A1 0.000111499
27 *230:26 *3105:A1 0.000470541
28 *236:65 *3081:A1 0.000703096
29 *616:22 *725:8 0
30 *683:51 *3105:A1 0
31 *683:51 *725:8 0
*RES
1 *3335:Z *725:8 15.46 
2 *725:8 *3105:A1 14.016 
3 *725:8 *725:25 7.996 
4 *725:25 *3081:A1 15.248 
5 *725:25 *3057:A1 4.5 
*END

*D_NET *726 0.00890946
*CONN
*I *3107:A1 I *D gf180mcu_fd_sc_mcu7t5v0__nor2_1
*I *3060:A1 I *D gf180mcu_fd_sc_mcu7t5v0__aoi21_1
*I *3084:A1 I *D gf180mcu_fd_sc_mcu7t5v0__nor2_1
*I *3336:Z O *D gf180mcu_fd_sc_mcu7t5v0__dlyb_1
*CAP
1 *3107:A1 0.000356344
2 *3060:A1 1.76345e-05
3 *3084:A1 0
4 *3336:Z 0.000163956
5 *726:25 0.000478649
6 *726:14 0.000268626
7 *3060:A1 *727:10 0.000118153
8 *3107:A1 *3022:A1 0.000107367
9 *3107:A1 *3038:A1 0.000408037
10 *3107:A1 *727:10 0.000320314
11 *3107:A1 *802:35 5.43087e-05
12 *726:14 *2756:A1 0.00016679
13 *726:14 *3100:B 4.97386e-06
14 *726:25 *2756:A1 0.000403683
15 *2996:A2 *3060:A1 0.000387765
16 *2996:A2 *3107:A1 0.000489657
17 *3036:A1 *726:14 2.23783e-05
18 *3085:A2 *726:14 0.00147201
19 *3085:A2 *726:25 0.000157679
20 *3108:B *3107:A1 0
21 *3266:D *3107:A1 5.54728e-05
22 *3278:I *726:14 2.85944e-05
23 *3293:I *726:14 0.000803603
24 *3336:I *726:14 0.000324233
25 *3338:I *3107:A1 0.00146705
26 *639:57 *3060:A1 0.000151949
27 *682:112 *3107:A1 0.000680236
*RES
1 *3336:Z *726:14 17.832 
2 *726:14 *3084:A1 4.5 
3 *726:14 *726:25 5.868 
4 *726:25 *3060:A1 9.988 
5 *726:25 *3107:A1 15.916 
*END

*D_NET *727 0.0125062
*CONN
*I *3062:A1 I *D gf180mcu_fd_sc_mcu7t5v0__nor2_1
*I *3087:A1 I *D gf180mcu_fd_sc_mcu7t5v0__nor2_1
*I *3109:A1 I *D gf180mcu_fd_sc_mcu7t5v0__nor2_1
*I *3337:Z O *D gf180mcu_fd_sc_mcu7t5v0__dlyb_1
*CAP
1 *3062:A1 0
2 *3087:A1 0
3 *3109:A1 0.00010367
4 *3337:Z 0.00117954
5 *727:12 0.000519071
6 *727:10 0.00159494
7 *727:10 *2750:A1 0
8 *727:10 *2751:A1 6.91944e-05
9 *727:10 *3064:A1 0.000299417
10 *727:10 *728:14 0.000444276
11 *727:10 *802:41 9.10024e-05
12 *727:10 *806:8 0.00103802
13 *727:10 *806:16 0.000525689
14 *727:12 *3010:A1 2.97354e-06
15 *727:12 *3064:A1 4.07337e-05
16 *727:12 *728:14 0.000198967
17 *727:12 *728:27 0.000344165
18 *2479:I *727:10 0.00021071
19 *2996:A2 *3109:A1 5.0128e-05
20 *2996:A2 *727:12 0.000450707
21 *3012:A1 *3109:A1 0.000199756
22 *3012:A1 *727:12 0.00123151
23 *3059:A2 *727:10 0.000129252
24 *3060:A1 *727:10 0.000118153
25 *3078:A2 *727:10 0.000449002
26 *3107:A1 *727:10 0.000320314
27 *3338:I *727:10 0.000402474
28 *212:58 *3109:A1 0.00081862
29 *639:57 *727:10 0.000797457
30 *682:86 *727:10 4.67662e-05
31 *682:97 *727:10 2.77542e-05
32 *707:58 *3109:A1 0.000801962
*RES
1 *3337:Z *727:10 22.984 
2 *727:10 *727:12 5.7 
3 *727:12 *3109:A1 11.736 
4 *727:12 *3087:A1 9 
5 *727:10 *3062:A1 9 
*END

*D_NET *728 0.00939433
*CONN
*I *3091:A1 I *D gf180mcu_fd_sc_mcu7t5v0__aoi21_1
*I *3111:A1 I *D gf180mcu_fd_sc_mcu7t5v0__nor2_1
*I *3065:A1 I *D gf180mcu_fd_sc_mcu7t5v0__nor2_1
*I *3338:Z O *D gf180mcu_fd_sc_mcu7t5v0__dlyb_1
*CAP
1 *3091:A1 0
2 *3111:A1 0.000237852
3 *3065:A1 0
4 *3338:Z 0.000911529
5 *728:27 0.000337103
6 *728:14 0.00101078
7 *3111:A1 *2742:A1 0
8 *3111:A1 *3094:A1 3.08902e-05
9 *728:14 *2750:A1 1.98468e-05
10 *728:14 *2751:A1 0.000269857
11 *728:14 *2756:A1 0.000495742
12 *728:14 *2995:B2 0
13 *728:14 *2995:C2 0.000735633
14 *728:14 *3010:A1 0.000105292
15 *728:14 *3010:A2 1.23388e-05
16 *728:14 *3059:A1 0.00023922
17 *728:14 *809:10 0
18 *728:14 *809:29 0.000934339
19 *728:14 *810:27 0
20 *728:27 *3010:A2 2.03665e-05
21 *728:27 *792:34 2.03665e-05
22 *2996:A2 *728:27 0.000759751
23 *3012:A1 *728:14 0.000134622
24 *3059:A2 *728:14 1.90748e-05
25 *3066:A2 *728:14 0.000482145
26 *3067:A2 *728:14 0.000248576
27 *3067:A2 *728:27 2.6126e-05
28 *3086:A2 *728:14 0.000901106
29 *3092:A2 *3111:A1 0.000110632
30 *3260:D *3111:A1 6.50663e-05
31 *656:95 *3111:A1 0.000278663
32 *727:10 *728:14 0.000444276
33 *727:12 *728:14 0.000198967
34 *727:12 *728:27 0.000344165
*RES
1 *3338:Z *728:14 26.344 
2 *728:14 *3065:A1 4.5 
3 *728:14 *728:27 11.28 
4 *728:27 *3111:A1 6.628 
5 *728:27 *3091:A1 4.5 
*END

*D_NET *729 0.00861372
*CONN
*I *3068:A1 I *D gf180mcu_fd_sc_mcu7t5v0__nor2_1
*I *3113:A1 I *D gf180mcu_fd_sc_mcu7t5v0__nor2_1
*I *3093:A1 I *D gf180mcu_fd_sc_mcu7t5v0__nor2_1
*I *3339:Z O *D gf180mcu_fd_sc_mcu7t5v0__dlyb_1
*CAP
1 *3068:A1 4.1781e-05
2 *3113:A1 9.02286e-05
3 *3093:A1 0
4 *3339:Z 0.000990161
5 *729:16 0.000391555
6 *729:10 0.00133327
7 *3068:A1 *2747:A1 8.02751e-06
8 *3068:A1 *792:34 2.23385e-05
9 *3113:A1 *767:33 2.54637e-05
10 *3113:A1 *773:8 0.00016061
11 *729:10 *2750:A1 6.00778e-05
12 *729:10 *2995:A2 2.14203e-05
13 *729:10 *3035:B1 0.000136499
14 *729:10 *3035:C2 1.41717e-05
15 *729:10 *3073:A1 1.24006e-05
16 *729:10 *731:10 0.000246919
17 *729:10 *731:12 1.85774e-05
18 *729:10 *745:14 0.000158809
19 *729:10 *759:34 7.84076e-05
20 *729:10 *770:8 4.16068e-05
21 *729:10 *770:21 9.29478e-05
22 *729:16 *767:33 2.15203e-05
23 *729:16 *770:8 4.75539e-05
24 *729:16 *773:8 0.000141897
25 *3019:A2 *3113:A1 5.76063e-06
26 *3037:B1 *729:10 0
27 *3039:C2 *729:10 4.31196e-05
28 *3039:C2 *729:16 0.000277013
29 *3069:B *3068:A1 0.000137785
30 *3073:A2 *729:10 0.000260718
31 *3093:A2 *3113:A1 0.000227292
32 *3093:A2 *729:16 0.000210554
33 *3342:I *729:10 0.00138671
34 *616:22 *729:10 0.000350564
35 *616:22 *729:16 0.000103773
36 *640:12 *729:10 0.000199473
37 *640:16 *3068:A1 5.71374e-05
38 *640:80 *729:10 0.00119758
39 *657:25 *729:16 0
*RES
1 *3339:Z *729:10 20.096 
2 *729:10 *729:16 7.692 
3 *729:16 *3093:A1 4.5 
4 *729:16 *3113:A1 5.64 
5 *729:10 *3068:A1 9.532 
*END

*D_NET *730 0.00493417
*CONN
*I *3115:A1 I *D gf180mcu_fd_sc_mcu7t5v0__nor2_1
*I *3097:A1 I *D gf180mcu_fd_sc_mcu7t5v0__aoi21_1
*I *3070:A1 I *D gf180mcu_fd_sc_mcu7t5v0__nor2_1
*I *3340:Z O *D gf180mcu_fd_sc_mcu7t5v0__dlyb_1
*CAP
1 *3115:A1 0.000173237
2 *3097:A1 2.29511e-05
3 *3070:A1 0.000479978
4 *3340:Z 0.00022986
5 *730:14 0.000617848
6 *730:10 0.000518017
7 *3070:A1 *3071:A1 1.91917e-06
8 *3115:A1 *2525:A1 0.000343565
9 *3115:A1 *804:37 0.000191033
10 *730:10 *2525:A1 8.84331e-05
11 *730:10 *3326:I 0.000483804
12 *730:10 *804:28 0.00024199
13 *730:10 *819:12 5.13643e-06
14 *730:14 *2525:A1 8.15645e-05
15 *730:14 *804:28 5.43087e-05
16 *730:14 *819:12 2.69281e-06
17 *3027:A1 *3115:A1 0.000106702
18 *3028:A2 *730:10 9.08953e-05
19 *3028:A2 *730:14 6.04444e-06
20 *3029:B2 *730:10 0.000108532
21 *3035:C1 *3115:A1 3.1394e-06
22 *3072:A2 *3097:A1 4.2318e-06
23 *3072:A3 *3070:A1 3.24828e-05
24 *3097:A2 *3070:A1 0.000171927
25 *3097:A2 *3097:A1 2.23385e-05
26 *3098:A1 *3070:A1 0.000362601
27 *3098:A2 *3070:A1 0
28 *3116:B *3115:A1 0.000100734
29 *3254:D *3070:A1 0.000164236
30 *3254:D *3097:A1 0.000131074
31 *3254:D *3115:A1 7.24161e-06
32 *3262:D *3070:A1 0
33 *580:49 *3070:A1 4.21822e-05
34 *683:43 *3070:A1 8.87106e-06
35 *725:8 *3070:A1 0
36 *725:8 *730:14 3.45972e-05
*RES
1 *3340:Z *730:10 11.888 
2 *730:10 *730:14 5.336 
3 *730:14 *3070:A1 17.452 
4 *730:14 *3097:A1 4.88 
5 *730:10 *3115:A1 11.508 
*END

*D_NET *731 0.0122666
*CONN
*I *2525:A1 I *D gf180mcu_fd_sc_mcu7t5v0__oai32_1
*I *3100:A1 I *D gf180mcu_fd_sc_mcu7t5v0__aoi21_1
*I *3073:A1 I *D gf180mcu_fd_sc_mcu7t5v0__nor2_1
*I *3341:Z O *D gf180mcu_fd_sc_mcu7t5v0__dlyb_1
*CAP
1 *2525:A1 0.000823189
2 *3100:A1 0
3 *3073:A1 0.000150012
4 *3341:Z 0.00049094
5 *731:12 0.000511667
6 *731:10 0.00167578
7 *2525:A1 *3027:A2 7.09301e-06
8 *2525:A1 *769:25 0.000388734
9 *2525:A1 *769:43 0.000209085
10 *2525:A1 *804:28 0.000135047
11 *2525:A1 *819:12 0.000417311
12 *2525:A1 *819:24 0.000155334
13 *3073:A1 *2753:A1 0.000327183
14 *3073:A1 *759:34 8.78761e-05
15 *731:10 *2750:A1 0.00021144
16 *731:10 *806:45 0.000766943
17 DAT_O[0] *731:10 0.000651592
18 DAT_O[0] *731:12 0.000758565
19 DAT_O[4] *731:10 0.000286609
20 *2525:B1 *2525:A1 4.50449e-05
21 *2989:B2 *2525:A1 0.000200139
22 *2990:A2 *2525:A1 2.17248e-05
23 *3027:A1 *2525:A1 0.000125377
24 *3028:A2 *2525:A1 0.000137715
25 *3029:A2 *2525:A1 4.98138e-05
26 *3035:A2 *2525:A1 5.54829e-05
27 *3035:C1 *2525:A1 5.16651e-05
28 *3075:A2 *3073:A1 0.000147313
29 *3096:A2 *3073:A1 6.85843e-06
30 *3096:A2 *731:12 9.17988e-05
31 *3101:A2 *3073:A1 0.000361707
32 *3115:A1 *2525:A1 0.000343565
33 *3116:B *2525:A1 0.000121626
34 *3254:D *2525:A1 0.000959658
35 *3270:D *2525:A1 7.1358e-06
36 *3342:I *731:10 8.59687e-05
37 *3342:I *731:12 0.000113507
38 *563:70 *2525:A1 0.000246194
39 *616:22 *2525:A1 0
40 *639:20 *3073:A1 0.000545584
41 *683:37 *2525:A1 2.01347e-05
42 *703:35 *2525:A1 2.63195e-05
43 *729:10 *3073:A1 1.24006e-05
44 *729:10 *731:10 0.000246919
45 *729:10 *731:12 1.85774e-05
46 *730:10 *2525:A1 8.84331e-05
47 *730:14 *2525:A1 8.15645e-05
*RES
1 *3341:Z *731:10 15.384 
2 *731:10 *731:12 3.268 
3 *731:12 *3073:A1 11.584 
4 *731:12 *3100:A1 9 
5 *731:10 *2525:A1 36.652 
*END

*D_NET *732 0.00690497
*CONN
*I *2528:A1 I *D gf180mcu_fd_sc_mcu7t5v0__nand3_1
*I *3076:A1 I *D gf180mcu_fd_sc_mcu7t5v0__nor2_1
*I *3103:A1 I *D gf180mcu_fd_sc_mcu7t5v0__aoi21_1
*I *3342:Z O *D gf180mcu_fd_sc_mcu7t5v0__dlyb_1
*CAP
1 *2528:A1 0.000437764
2 *3076:A1 0.000359014
3 *3103:A1 0.000112175
4 *3342:Z 0
5 *732:10 0.000751986
6 *732:4 0.000718561
7 *2528:A1 *2753:A1 0.00014619
8 *2528:A1 *3100:B 6.11873e-05
9 *2528:A1 *759:34 0.000165438
10 *3076:A1 *2753:A1 0.000234245
11 *3076:A1 *3039:B2 7.31121e-05
12 *3076:A1 *802:82 0.000265489
13 *3076:A1 *814:14 1.97747e-05
14 *732:10 *2753:A1 0.000843944
15 *732:10 *3100:B 9.04313e-05
16 *2529:A2 *2528:A1 5.1289e-05
17 *3071:A2 *2528:A1 0.00019803
18 *3075:A2 *3076:A1 0.000362608
19 *3078:A2 *3076:A1 0.00013063
20 *3085:A2 *3103:A1 0.000432986
21 *3085:A2 *732:10 0.000135941
22 *3100:A2 *2528:A1 0.000414869
23 *639:20 *3076:A1 0.000775146
24 *639:26 *3076:A1 3.08902e-05
25 *682:12 *3103:A1 2.07082e-05
26 *682:12 *732:10 2.45927e-05
27 *682:14 *3103:A1 4.79669e-05
*RES
1 *3342:Z *732:4 4.5 
2 *732:4 *732:10 7.236 
3 *732:10 *3103:A1 10.14 
4 *732:10 *3076:A1 13.484 
5 *732:4 *2528:A1 8.528 
*END

*D_NET *733 0.00653227
*CONN
*I *3332:I I *D gf180mcu_fd_sc_mcu7t5v0__dlyb_1
*I *3343:Z O *D gf180mcu_fd_sc_mcu7t5v0__dlyb_1
*CAP
1 *3332:I 0.00108563
2 *3343:Z 0.00108563
3 *3332:I *2744:A1 0.000135795
4 *3332:I *802:8 0
5 *3332:I *806:16 0
6 *2744:A2 *3332:I 0.00165728
7 *2819:A1 *3332:I 0
8 *2820:A1 *3332:I 0.000106772
9 *2820:B *3332:I 0.000308746
10 *3258:CLK *3332:I 1.97747e-05
11 *3337:I *3332:I 0.0019155
12 *446:25 *3332:I 0
13 *682:112 *3332:I 0.000173755
14 *712:10 *3332:I 4.33819e-05
*RES
1 *3343:Z *3332:I 20.78 
*END

*D_NET *734 0.00237809
*CONN
*I *2510:A2 I *D gf180mcu_fd_sc_mcu7t5v0__nand2_1
*I *3344:Z O *D gf180mcu_fd_sc_mcu7t5v0__dlyb_1
*CAP
1 *2510:A2 0.000721484
2 *3344:Z 0.000721484
3 *2510:A2 *2510:A1 3.38323e-05
4 *2510:A2 *2526:A1 0.00085433
5 *2510:A2 *804:8 0
6 *3238:D *2510:A2 0
7 *230:14 *2510:A2 9.60518e-06
8 *703:12 *2510:A2 3.73535e-05
*RES
1 *3344:Z *2510:A2 14.548 
*END

*D_NET *735 0.0145368
*CONN
*I *2986:A2 I *D gf180mcu_fd_sc_mcu7t5v0__nor3_1
*I *2965:A2 I *D gf180mcu_fd_sc_mcu7t5v0__aoi21_1
*I *2508:A2 I *D gf180mcu_fd_sc_mcu7t5v0__nand2_1
*I *2981:A2 I *D gf180mcu_fd_sc_mcu7t5v0__nor3_1
*I *2969:A2 I *D gf180mcu_fd_sc_mcu7t5v0__or2_1
*I *2964:A2 I *D gf180mcu_fd_sc_mcu7t5v0__nand2_1
*I *3345:Z O *D gf180mcu_fd_sc_mcu7t5v0__dlyb_1
*CAP
1 *2986:A2 0.000100168
2 *2965:A2 3.67755e-05
3 *2508:A2 2.65427e-05
4 *2981:A2 0.000138144
5 *2969:A2 2.678e-05
6 *2964:A2 0
7 *3345:Z 0.00157786
8 *735:64 0.000285114
9 *735:49 0.00019113
10 *735:34 0.000255179
11 *735:23 0.000718915
12 *735:12 0.00216937
13 *2508:A2 *774:26 0.000125479
14 *2981:A2 *764:18 6.96624e-05
15 *2981:A2 *774:26 0.000179736
16 *2986:A2 *2991:B2 0.000108532
17 *735:12 *2581:A1 0.000526238
18 *735:12 *2600:A2 9.45209e-05
19 *735:12 *3000:A1 0.00122272
20 *735:12 *3000:C2 0
21 *735:12 *3016:C2 0.000542792
22 *735:12 *763:82 0.000143087
23 *735:12 *768:12 7.22944e-05
24 *735:12 *851:6 4.10175e-06
25 *735:23 *2565:A1 9.4211e-05
26 *735:23 *2566:A1 0
27 *735:23 *2597:A1 0.000213975
28 *735:23 *2978:A1 0.000140493
29 *735:23 *3015:B2 0
30 *735:23 *775:26 3.45972e-05
31 *735:23 *776:22 0.000989353
32 *735:34 *775:26 4.32349e-05
33 *735:64 *2991:B2 4.58601e-06
34 *735:64 *775:20 0.000113316
35 *2508:A1 *735:23 8.59272e-06
36 *2508:A1 *735:34 5.22633e-05
37 *2509:A1 *735:64 5.46321e-06
38 *2509:A2 *735:34 8.15645e-05
39 *2509:A2 *735:49 0.000135941
40 *2509:A2 *735:64 0.000201325
41 *2566:A2 *735:12 0
42 *2566:A2 *735:23 0
43 *2969:A1 *2969:A2 0.000134622
44 *2970:A2 *735:12 0
45 *2981:A1 *2981:A2 0.000379283
46 *2981:A3 *2981:A2 9.88736e-06
47 *2985:A2 *735:34 7.8324e-05
48 *2985:A2 *735:49 5.19228e-05
49 *2985:A2 *735:64 0.000181022
50 *2986:A1 *2986:A2 0.000107934
51 *3017:A1 *2986:A2 5.76063e-06
52 *3017:A1 *735:64 6.52995e-05
53 *3128:CLK *735:12 3.56825e-05
54 *3377:I *2508:A2 0.000184886
55 *3377:I *2981:A2 1.65939e-05
56 *3379:I *735:23 1.49146e-05
57 *222:8 *735:23 7.25782e-05
58 *227:18 *735:12 0.00106994
59 *228:6 *2508:A2 2.05156e-05
60 *228:12 *2981:A2 0.000313734
61 *229:12 *735:64 7.9584e-05
62 *560:14 *2986:A2 0.000134048
63 *567:20 *735:23 0.000266775
64 *575:8 *2969:A2 5.4883e-05
65 *680:171 *735:12 0
66 *691:50 *735:12 0
67 *724:16 *735:23 8.04367e-06
68 *724:31 *735:12 3.73535e-05
69 *724:31 *735:23 0.000479178
*RES
1 *3345:Z *735:12 29.46 
2 *735:12 *2964:A2 4.5 
3 *735:12 *735:23 11.188 
4 *735:23 *2969:A2 9.38 
5 *735:23 *735:34 0.988 
6 *735:34 *2981:A2 11.052 
7 *735:34 *735:49 0.38 
8 *735:49 *2508:A2 9.532 
9 *735:49 *735:64 6.324 
10 *735:64 *2965:A2 4.728 
11 *735:64 *2986:A2 5.64 
*END

*D_NET *736 0.0193526
*CONN
*I *2516:A1 I *D gf180mcu_fd_sc_mcu7t5v0__and2_1
*I *2966:A1 I *D gf180mcu_fd_sc_mcu7t5v0__nand3_1
*I *2501:I I *D gf180mcu_fd_sc_mcu7t5v0__clkinv_1
*I *3001:B I *D gf180mcu_fd_sc_mcu7t5v0__aoi21_1
*I *3009:B I *D gf180mcu_fd_sc_mcu7t5v0__aoi21_1
*I *3346:Z O *D gf180mcu_fd_sc_mcu7t5v0__dlyb_1
*CAP
1 *2516:A1 0.000603736
2 *2966:A1 0
3 *2501:I 0
4 *3001:B 0
5 *3009:B 1.37301e-05
6 *3346:Z 0.00223603
7 *736:57 0.00074317
8 *736:46 0.000642413
9 *736:33 0.000617527
10 *736:22 0.00236431
11 *2516:A1 *738:8 0.000653993
12 *3009:B *2532:A1 0.000441055
13 *3009:B *2999:B2 0.000448201
14 *736:22 *2532:A1 0.00041486
15 *736:22 *2534:A2 0.000548216
16 *736:22 *2724:A1 0.000258081
17 *736:22 *2992:A1 0.000389028
18 *736:22 *2999:B2 0.000391116
19 *736:22 *3000:B2 0
20 *736:22 *760:78 0.000286377
21 *736:22 *760:84 0.000545266
22 *736:22 *761:31 0.000517099
23 *736:22 *833:8 0.000187017
24 *736:33 *3306:I 0.000941191
25 *736:33 *756:12 0.000206769
26 *736:46 *3306:I 0.000158809
27 *2580:A1 *736:22 0.000130983
28 *2966:A2 *2516:A1 1.54747e-06
29 *2966:A3 *736:46 7.24161e-06
30 *2966:A3 *736:57 1.52691e-05
31 *2993:A2 *736:22 5.94709e-06
32 *2994:A2 *736:46 0.000449002
33 *3001:A2 *736:22 0
34 *3003:C *736:33 0.000276717
35 *3003:C *736:46 0.00214106
36 *3011:C *736:33 0
37 *3017:A2 *736:22 4.53069e-05
38 *3017:A2 *736:46 0.000213918
39 *3018:A2 *736:46 5.37788e-05
40 *3020:A1 *736:46 6.25831e-05
41 *3036:A1 *736:46 9.88736e-06
42 *3043:A1 *736:46 6.80238e-06
43 *3182:D *736:22 0.000148933
44 *3247:CLK *736:46 3.73627e-05
45 *3247:CLK *736:57 1.5015e-05
46 *3248:D *736:46 0
47 *3274:D *736:22 1.11891e-05
48 *3376:I *2516:A1 0.000254326
49 *3376:I *736:57 0.000162642
50 *221:12 *736:57 3.08902e-05
51 *221:27 *736:46 7.21225e-05
52 *221:29 *736:46 2.80216e-05
53 *227:18 *736:22 0
54 *234:6 *2516:A1 4.97712e-06
55 *242:48 *2516:A1 4.43253e-05
56 *374:12 *736:22 0
57 *616:22 *2516:A1 0
58 *616:22 *736:46 0
59 *616:22 *736:57 0
60 *691:34 *736:22 0.00027703
61 *691:40 *736:22 0.000554792
62 *691:44 *736:22 9.96822e-05
63 *691:50 *736:22 0.000147798
64 *696:29 *736:46 0.000193231
65 *696:40 *736:46 0.000176687
66 *696:40 *736:57 6.54978e-05
*RES
1 *3346:Z *736:22 35.16 
2 *736:22 *3009:B 5.64 
3 *736:22 *736:33 6.856 
4 *736:33 *3001:B 9 
5 *736:33 *736:46 12.252 
6 *736:46 *2501:I 4.5 
7 *736:46 *736:57 6.02 
8 *736:57 *2966:A1 9 
9 *736:57 *2516:A1 14.016 
*END

*D_NET *737 0.00634554
*CONN
*I *3321:I I *D gf180mcu_fd_sc_mcu7t5v0__dlyb_1
*I *3320:I I *D gf180mcu_fd_sc_mcu7t5v0__dlyb_1
*I *3347:Z O *D gf180mcu_fd_sc_mcu7t5v0__dlyb_1
*CAP
1 *3321:I 0.000884752
2 *3320:I 0
3 *3347:Z 0.000433924
4 *737:12 0.00131868
5 *3321:I *2789:A1 0.000256876
6 *3321:I *2792:A1 7.50489e-05
7 *3321:I *3196:CLK 6.78649e-05
8 *737:12 *3193:CLK 7.57767e-05
9 *737:12 *3368:I 0.000149579
10 *2794:A2 *3321:I 7.1776e-05
11 *2797:A4 *3321:I 0.000371929
12 *3195:D *3321:I 0.000657859
13 *3196:D *3321:I 3.25235e-05
14 *428:23 *3321:I 0.00150514
15 *428:32 *3321:I 0.000129087
16 *431:15 *3321:I 2.79319e-05
17 *435:17 *3321:I 0.000248663
18 *717:21 *3321:I 0
19 *717:21 *737:12 0
20 *719:30 *3321:I 3.81361e-05
*RES
1 *3347:Z *737:12 12.116 
2 *737:12 *3320:I 9 
3 *737:12 *3321:I 27.956 
*END

*D_NET *738 0.0147867
*CONN
*I *3052:A1 I *D gf180mcu_fd_sc_mcu7t5v0__nand2_1
*I *3365:I I *D gf180mcu_fd_sc_mcu7t5v0__dlyb_1
*I *2514:A1 I *D gf180mcu_fd_sc_mcu7t5v0__nor2_1
*I *3248:Q O *D gf180mcu_fd_sc_mcu7t5v0__dffq_1
*CAP
1 *3052:A1 3.28034e-05
2 *3365:I 0.0018261
3 *2514:A1 0.000109993
4 *3248:Q 0.000547856
5 *738:10 0.00206266
6 *738:8 0.000707225
7 *2514:A1 *803:25 7.35289e-05
8 *3365:I *2834:A2 0.000481175
9 *3365:I *2916:B 0.000637776
10 *3365:I *2921:A1 0.000261833
11 *3365:I *3374:I 0.00355148
12 *3365:I *748:19 8.67087e-05
13 *3365:I *751:14 0.000326528
14 *3365:I *788:12 0
15 *3365:I *881:45 5.77568e-05
16 *3365:I *881:49 9.79497e-05
17 *3365:I *882:6 6.69004e-05
18 *3365:I *882:8 9.88736e-06
19 *3365:I *909:14 0
20 *738:8 *3048:A1 3.28106e-05
21 *738:10 *3048:A1 4.16955e-05
22 *738:10 *748:19 9.935e-05
23 *2516:A1 *738:8 0.000653993
24 *2835:I *3365:I 7.37283e-05
25 *2836:A2 *3365:I 0
26 *2915:B2 *3365:I 0.000585577
27 *2917:A1 *3365:I 3.75508e-05
28 *2918:A3 *3365:I 0.000151957
29 *3052:A2 *3365:I 0.000209963
30 *3052:A2 *738:10 0.000191702
31 *3159:CLK *3365:I 8.2456e-05
32 *3268:D *738:8 7.71175e-06
33 *3279:I *3365:I 0.00110189
34 *3291:I *738:8 0.000110431
35 *3376:I *738:8 0
36 *234:6 *738:8 0
37 *580:12 *2514:A1 3.2964e-05
38 *680:31 *3365:I 4.0114e-05
39 *680:31 *738:8 9.87926e-05
40 *680:31 *738:10 2.30549e-05
41 *684:6 *3365:I 0.000164594
42 *684:8 *3365:I 0.000108211
*RES
1 *3248:Q *738:8 8.908 
2 *738:8 *738:10 1.444 
3 *738:10 *2514:A1 14.488 
4 *738:10 *3365:I 36.832 
5 *738:8 *3052:A1 4.728 
*END

*D_NET *739 0.00314772
*CONN
*I *2989:A1 I *D gf180mcu_fd_sc_mcu7t5v0__aoi22_1
*I *3366:I I *D gf180mcu_fd_sc_mcu7t5v0__dlyb_1
*I *3239:Q O *D gf180mcu_fd_sc_mcu7t5v0__dffq_1
*CAP
1 *2989:A1 0
2 *3366:I 0.000294967
3 *3239:Q 6.14326e-05
4 *739:10 0.0003564
5 *3366:I *2750:A1 0
6 *739:10 *2750:A1 0.000137785
7 *739:10 *806:45 1.53696e-05
8 DAT_O[0] *3366:I 7.79823e-05
9 *3029:A2 *3366:I 8.06703e-05
10 *3029:A2 *739:10 0.000307324
11 *3029:B1 *3366:I 0.000135047
12 *3029:B1 *739:10 0.000278459
13 *3096:A2 *3366:I 0.000955595
14 *3097:A2 *3366:I 0.000428484
15 *3098:A1 *3366:I 1.82078e-05
*RES
1 *3239:Q *739:10 10.216 
2 *739:10 *3366:I 12.876 
3 *739:10 *2989:A1 9 
*END

*D_NET *740 0.0103183
*CONN
*I *2997:A1 I *D gf180mcu_fd_sc_mcu7t5v0__aoi22_1
*I *3367:I I *D gf180mcu_fd_sc_mcu7t5v0__dlyb_1
*I *3240:Q O *D gf180mcu_fd_sc_mcu7t5v0__dffq_1
*CAP
1 *2997:A1 0.000216332
2 *3367:I 0.00122858
3 *3240:Q 0
4 *740:4 0.00144491
5 *2997:A1 *3045:A1 9.08411e-05
6 *3367:I *3045:A1 0.000399507
7 *3367:I *3271:D 0.000653985
8 *3367:I *3373:I 0.00193872
9 DAT_O[1] *3367:I 0
10 *2770:A2 *3367:I 2.68724e-05
11 *2997:A2 *2997:A1 0.000278996
12 *3045:A2 *2997:A1 0.000666406
13 *3045:B1 *2997:A1 0
14 *3169:CLK *3367:I 0.000448201
15 *3241:D *3367:I 0.00011955
16 *3242:D *2997:A1 1.53361e-05
17 *563:35 *2997:A1 3.19219e-05
18 *695:16 *2997:A1 0.000522619
19 *695:20 *2997:A1 1.95806e-05
20 *695:43 *3367:I 0.00221592
*RES
1 *3240:Q *740:4 4.5 
2 *740:4 *3367:I 20.764 
3 *740:4 *2997:A1 16.844 
*END

*D_NET *741 0.00860434
*CONN
*I *3368:I I *D gf180mcu_fd_sc_mcu7t5v0__dlyb_1
*I *3005:A1 I *D gf180mcu_fd_sc_mcu7t5v0__aoi22_1
*I *3241:Q O *D gf180mcu_fd_sc_mcu7t5v0__dffq_1
*CAP
1 *3368:I 0.00111679
2 *3005:A1 0.00035994
3 *3241:Q 0
4 *741:6 0.00147673
5 *3005:A1 *3006:A1 0
6 *3005:A1 *3369:I 0
7 *3368:I *2838:A1 0.00140496
8 *3368:I *3006:A1 0
9 *3368:I *3193:CLK 5.34319e-05
10 *3368:I *3369:I 0.00136176
11 *3368:I *793:16 0.000275092
12 *3368:I *793:53 0.00035886
13 *3368:I *800:20 1.51227e-05
14 DAT_O[3] *3368:I 0
15 *2775:A1 *3368:I 0.000116414
16 *2779:A2 *3368:I 0.00100952
17 *3006:A2 *3005:A1 1.46159e-05
18 *3014:A2 *3005:A1 2.22758e-05
19 *212:23 *3368:I 1.91917e-06
20 *212:29 *3368:I 6.15312e-05
21 *467:30 *3368:I 0.000442477
22 *716:12 *3368:I 0.000363322
23 *737:12 *3368:I 0.000149579
*RES
1 *3241:Q *741:6 9 
2 *741:6 *3005:A1 11.28 
3 *741:6 *3368:I 24.504 
*END

*D_NET *742 0.00852513
*CONN
*I *3013:A1 I *D gf180mcu_fd_sc_mcu7t5v0__aoi22_1
*I *3369:I I *D gf180mcu_fd_sc_mcu7t5v0__dlyb_1
*I *3242:Q O *D gf180mcu_fd_sc_mcu7t5v0__dffq_1
*CAP
1 *3013:A1 0.000230342
2 *3369:I 0.00163393
3 *3242:Q 0
4 *742:4 0.00186428
5 *3013:A1 *3006:A1 0
6 *3013:A1 *800:20 0
7 *3369:I *2838:A1 0.000719405
8 *3369:I *3314:I 1.97747e-05
9 DAT_O[3] *3369:I 0
10 *2500:I *3369:I 4.75402e-05
11 *2769:A1 *3369:I 0.000315719
12 *2785:A1 *3369:I 0
13 *2785:A2 *3369:I 2.22746e-05
14 *2786:A3 *3369:I 0
15 *2838:A2 *3369:I 1.51002e-05
16 *3005:A1 *3369:I 0
17 *3005:B1 *3013:A1 0.000379274
18 *3005:B2 *3013:A1 1.20079e-05
19 *3005:B2 *3369:I 2.44893e-05
20 *3014:A2 *3013:A1 0.000317503
21 *3014:A2 *3369:I 0
22 *3189:D *3369:I 0.000109303
23 *3242:D *3013:A1 3.21533e-05
24 *3315:I *3369:I 0
25 *3368:I *3369:I 0.00136176
26 *467:30 *3369:I 0.000212199
27 *695:16 *3013:A1 4.51132e-05
28 *706:6 *3369:I 0.000792491
29 *716:12 *3369:I 0.000370468
*RES
1 *3242:Q *742:4 4.5 
2 *742:4 *3369:I 20.992 
3 *742:4 *3013:A1 15.932 
*END

*D_NET *743 0.00384083
*CONN
*I *3021:A1 I *D gf180mcu_fd_sc_mcu7t5v0__aoi22_1
*I *3370:I I *D gf180mcu_fd_sc_mcu7t5v0__dlyb_1
*I *3243:Q O *D gf180mcu_fd_sc_mcu7t5v0__dffq_1
*CAP
1 *3021:A1 0.000575145
2 *3370:I 0.000172063
3 *3243:Q 0.000112954
4 *743:10 0.000860162
5 *3021:A1 *2750:A1 0.000366543
6 *3370:I *3038:A1 6.73203e-06
7 *3370:I *3074:A1 0
8 *3370:I *802:35 2.10669e-05
9 *743:10 *2750:A1 0.000431543
10 *743:10 *3038:A1 1.70306e-05
11 DAT_O[4] *743:10 0.000431543
12 *3022:A2 *3021:A1 0.000793958
13 *3036:A2 *3370:I 1.83741e-05
14 *3037:B2 *3370:I 2.86762e-07
15 *3037:B2 *743:10 1.10945e-05
16 *562:93 *3021:A1 2.23385e-05
*RES
1 *3243:Q *743:10 10.672 
2 *743:10 *3370:I 9.988 
3 *743:10 *3021:A1 22.56 
*END

*D_NET *744 0.00435848
*CONN
*I *3029:A1 I *D gf180mcu_fd_sc_mcu7t5v0__aoi22_1
*I *3371:I I *D gf180mcu_fd_sc_mcu7t5v0__dlyb_1
*I *3244:Q O *D gf180mcu_fd_sc_mcu7t5v0__dffq_1
*CAP
1 *3029:A1 6.80333e-05
2 *3371:I 0.000361274
3 *3244:Q 0.000194519
4 *744:10 0.000623826
5 *3371:I *769:43 0.00144416
6 *744:10 *2750:A1 8.55242e-05
7 *744:10 *806:45 8.94144e-05
8 *2990:A2 *3029:A1 0.000108148
9 *2990:A2 *744:10 0.000140115
10 *3029:A2 *3029:A1 0.00013063
11 *3029:B1 *3029:A1 5.97012e-05
12 *3029:B1 *3371:I 6.66121e-05
13 *3029:B2 *744:10 0.000441063
14 *3030:A2 *3029:A1 8.8425e-05
15 *3035:C1 *744:10 3.2235e-05
16 *3341:I *3029:A1 1.11891e-05
17 *3341:I *3371:I 6.46704e-05
18 *683:76 *744:10 0.000104577
19 *683:87 *3029:A1 0.000142925
20 *683:87 *744:10 0.000101443
*RES
1 *3244:Q *744:10 11.736 
2 *744:10 *3371:I 12.876 
3 *744:10 *3029:A1 10.368 
*END

*D_NET *745 0.00753113
*CONN
*I *3037:A1 I *D gf180mcu_fd_sc_mcu7t5v0__aoi22_1
*I *3372:I I *D gf180mcu_fd_sc_mcu7t5v0__dlyb_1
*I *3245:Q O *D gf180mcu_fd_sc_mcu7t5v0__dffq_1
*CAP
1 *3037:A1 4.22228e-05
2 *3372:I 0.000749963
3 *3245:Q 0.000350759
4 *745:14 0.00114294
5 *3372:I *2744:A1 0.000592326
6 *3372:I *769:43 0.000966958
7 *3372:I *813:10 0.000232828
8 DAT_O[4] *3037:A1 9.51353e-05
9 DAT_O[4] *3372:I 0.000109817
10 DAT_O[5] *745:14 0.000251762
11 *2744:A2 *3372:I 0.000167624
12 *2761:A1 *3372:I 0.000553126
13 *3037:B1 *745:14 9.43788e-05
14 *3258:CLK *3372:I 0.000112434
15 *3336:I *3037:A1 0.00029934
16 *3336:I *3372:I 0.000387765
17 *3341:I *745:14 0.00089474
18 *3342:I *745:14 0.000328204
19 *729:10 *745:14 0.000158809
*RES
1 *3245:Q *745:14 22.56 
2 *745:14 *3372:I 18.956 
3 *745:14 *3037:A1 9.836 
*END

*D_NET *746 0.00443075
*CONN
*I *2973:A2 I *D gf180mcu_fd_sc_mcu7t5v0__nand2_1
*I *2504:I I *D gf180mcu_fd_sc_mcu7t5v0__clkinv_1
*I *2507:A2 I *D gf180mcu_fd_sc_mcu7t5v0__nand4_1
*I *3348:Z O *D gf180mcu_fd_sc_mcu7t5v0__dlyb_1
*CAP
1 *2973:A2 0.000201911
2 *2504:I 0.000279084
3 *2507:A2 6.04197e-05
4 *3348:Z 8.5086e-05
5 *746:12 0.000355946
6 *746:10 0.000303439
7 *2507:A2 *768:12 0.000154451
8 *2507:A2 *768:19 0.00020108
9 *2973:A2 *2506:A1 6.82842e-05
10 *2973:A2 *2970:A3 0.000379283
11 *2973:A2 *768:19 5.4634e-05
12 *746:10 *2505:I 0.000475998
13 *746:12 *768:19 0.000479091
14 *2507:A1 *2504:I 3.82104e-05
15 *2507:A1 *2507:A2 2.05156e-05
16 *2507:A1 *2973:A2 3.25235e-05
17 *2507:A4 *2973:A2 2.23385e-05
18 *2724:A2 *2507:A2 0
19 *2970:A2 *2504:I 8.48259e-05
20 *2970:A2 *2507:A2 0.000193933
21 *2970:A2 *2973:A2 0.000369754
22 *2970:A2 *746:12 0.000495697
23 *223:6 *2973:A2 7.42484e-05
*RES
1 *3348:Z *746:10 14.792 
2 *746:10 *746:12 1.292 
3 *746:12 *2507:A2 5.564 
4 *746:12 *2504:I 15.324 
5 *746:10 *2973:A2 7.084 
*END

*D_NET *747 0.00763807
*CONN
*I *3045:A1 I *D gf180mcu_fd_sc_mcu7t5v0__aoi22_1
*I *3373:I I *D gf180mcu_fd_sc_mcu7t5v0__dlyb_1
*I *3246:Q O *D gf180mcu_fd_sc_mcu7t5v0__dffq_1
*CAP
1 *3045:A1 0.000295036
2 *3373:I 0.00100948
3 *3246:Q 0
4 *747:4 0.00130452
5 *3373:I *2678:B 0
6 *3373:I *3188:CLK 6.73834e-05
7 *3373:I *3271:D 0.000653985
8 *2680:I *3373:I 1.18988e-05
9 *2997:A1 *3045:A1 9.08411e-05
10 *3045:A2 *3045:A1 0.000190317
11 *3168:D *3373:I 7.22348e-05
12 *3271:CLK *3373:I 3.21075e-05
13 *3367:I *3045:A1 0.000399507
14 *3367:I *3373:I 0.00193872
15 *695:20 *3045:A1 0.00055094
16 *695:24 *3045:A1 0.000224654
17 *695:24 *3373:I 0.000753236
18 *695:28 *3373:I 4.32082e-05
*RES
1 *3246:Q *747:4 4.5 
2 *747:4 *3373:I 17.04 
3 *747:4 *3045:A1 17.604 
*END

*D_NET *748 0.0136999
*CONN
*I *3374:I I *D gf180mcu_fd_sc_mcu7t5v0__dlyb_1
*I *2514:A2 I *D gf180mcu_fd_sc_mcu7t5v0__nor2_1
*I *3048:A1 I *D gf180mcu_fd_sc_mcu7t5v0__aoi22_1
*I *3247:Q O *D gf180mcu_fd_sc_mcu7t5v0__dffq_1
*CAP
1 *3374:I 0.00192913
2 *2514:A2 0.000234821
3 *3048:A1 0.000202111
4 *3247:Q 0
5 *748:19 0.00234469
6 *748:4 0.000382851
7 *2514:A2 *803:51 1.66121e-06
8 *3374:I *2645:A1 3.26639e-05
9 *3374:I *2646:A2 0.000773961
10 *3374:I *2648:A1 0.000460831
11 *3374:I *2830:A2 1.55387e-05
12 *3374:I *2915:A1 0.000174379
13 *3374:I *880:8 0.000409789
14 *3374:I *881:12 4.2048e-05
15 *3374:I *881:37 9.17202e-06
16 *3374:I *881:45 1.93852e-05
17 ACK_O *3374:I 8.94741e-05
18 *2516:A2 *3048:A1 4.78829e-05
19 *2647:A2 *3374:I 0.000250681
20 *2830:A3 *3374:I 8.12105e-05
21 *2914:A2 *3374:I 5.09739e-06
22 *2915:B2 *3374:I 1.66121e-06
23 *2917:A1 *3374:I 3.9695e-05
24 *2917:A2 *3374:I 0.00035308
25 *2922:A2 *3374:I 0.000288962
26 *2988:A1 *3048:A1 5.19143e-05
27 *3158:CLK *3374:I 0.000201957
28 *3159:D *3374:I 0.000122898
29 *3365:I *3374:I 0.00355148
30 *3365:I *748:19 8.67087e-05
31 *229:50 *3048:A1 0.000698522
32 *232:8 *2514:A2 4.68103e-05
33 *232:8 *748:19 0
34 *234:6 *3048:A1 4.92043e-05
35 *234:6 *748:19 5.83634e-05
36 *235:8 *3048:A1 0.00037041
37 *523:14 *3374:I 2.38115e-05
38 *526:10 *3374:I 7.3227e-05
39 *738:8 *3048:A1 3.28106e-05
40 *738:10 *3048:A1 4.16955e-05
41 *738:10 *748:19 9.935e-05
*RES
1 *3247:Q *748:4 4.5 
2 *748:4 *3048:A1 16.54 
3 *748:4 *748:19 1.824 
4 *748:19 *2514:A2 6.248 
5 *748:19 *3374:I 26.768 
*END

*D_NET *749 0.00113212
*CONN
*I *3375:I I *D gf180mcu_fd_sc_mcu7t5v0__dlyb_1
*I *3231:Q O *D gf180mcu_fd_sc_mcu7t5v0__dffq_1
*CAP
1 *3375:I 0.000510132
2 *3231:Q 0.000510132
3 RTY_O *3375:I 0.000111858
*RES
1 *3231:Q *3375:I 21.42 
*END

*D_NET *750 0.0225104
*CONN
*I *2867:A2 I *D gf180mcu_fd_sc_mcu7t5v0__aoi22_1
*I *2843:A2 I *D gf180mcu_fd_sc_mcu7t5v0__oai21_1
*I *2880:A2 I *D gf180mcu_fd_sc_mcu7t5v0__aoi22_1
*I *2876:A2 I *D gf180mcu_fd_sc_mcu7t5v0__aoi22_1
*I *2871:A2 I *D gf180mcu_fd_sc_mcu7t5v0__aoi22_1
*I *2863:A2 I *D gf180mcu_fd_sc_mcu7t5v0__aoi22_1
*I *2855:A2 I *D gf180mcu_fd_sc_mcu7t5v0__aoi22_1
*I *2859:A2 I *D gf180mcu_fd_sc_mcu7t5v0__aoi22_1
*I *2847:A2 I *D gf180mcu_fd_sc_mcu7t5v0__aoi22_1
*I *2851:A2 I *D gf180mcu_fd_sc_mcu7t5v0__aoi22_1
*I *3295:Z O *D gf180mcu_fd_sc_mcu7t5v0__dlyb_1
*CAP
1 *2867:A2 0.000547853
2 *2843:A2 0.000174283
3 *2880:A2 0.000258298
4 *2876:A2 1.33425e-05
5 *2871:A2 0
6 *2863:A2 0
7 *2855:A2 0
8 *2859:A2 0.000728273
9 *2847:A2 0
10 *2851:A2 0.000477289
11 *3295:Z 0.000153904
12 *750:106 0.000562267
13 *750:95 0.00082463
14 *750:78 0.000809107
15 *750:26 0.000639013
16 *750:24 0.000392717
17 *750:22 0.000408996
18 *750:18 0.00107158
19 *750:10 0.000766238
20 *2843:A2 *2491:I 0.000379274
21 *2843:A2 *798:10 3.67255e-05
22 *2851:A2 *2851:B1 0.000170423
23 *2851:A2 *788:60 0
24 *2859:A2 *2859:A1 4.14866e-05
25 *2859:A2 *2859:B1 7.24161e-06
26 *2859:A2 *752:53 1.83977e-05
27 *2859:A2 *788:54 8.69862e-05
28 *2859:A2 *788:56 0.000972415
29 *2867:A2 *2859:A1 2.05156e-05
30 *2867:A2 *788:40 0.00013742
31 *2876:A2 *2876:A1 9.26705e-05
32 *2876:A2 *2876:B1 1.2018e-05
33 *2880:A2 *2872:B 3.83946e-05
34 *2880:A2 *2876:A1 0.000451288
35 *2880:A2 *752:16 0.000291516
36 *2880:A2 *896:37 0.000298446
37 *750:10 *2606:A1 0.000451288
38 *750:10 *2619:A2 7.83779e-05
39 *750:10 *2625:C 1.97747e-05
40 *750:10 *3007:B2 0.000165416
41 *750:10 *799:105 9.88736e-06
42 *750:18 *2491:I 0.00043262
43 *750:18 *2605:A1 0.000201034
44 *750:18 *2606:A1 0.000184989
45 *750:18 *758:36 0.00114003
46 *750:18 *758:48 0.000146949
47 *750:18 *873:14 0.000159388
48 *750:22 *2611:C 1.2682e-05
49 *750:22 *2853:A1 0.000206029
50 *750:22 *752:59 7.02696e-05
51 *750:24 *2853:A3 0
52 *750:24 *752:59 9.50423e-05
53 *750:26 *2847:A1 0
54 *750:26 *2851:B1 8.49801e-05
55 *750:26 *2853:A3 0
56 *750:26 *752:59 0.000101443
57 *750:78 *2611:C 0.000571762
58 *750:78 *2863:A1 8.55327e-05
59 *750:95 *2863:B1 0.000351997
60 *750:95 *2865:A2 1.72912e-05
61 *750:95 *2869:A1 8.55327e-05
62 *750:95 *752:24 0.000417552
63 *750:106 *2869:A1 0.000106886
64 *750:106 *2872:B 3.75951e-05
65 *750:106 *752:20 9.17202e-06
66 *2607:A2 *750:18 8.69862e-05
67 *2609:A1 *750:18 0
68 *2609:A1 *750:78 0
69 *2826:A2 *750:18 0.000371311
70 *2826:A2 *750:78 0.00118833
71 *2844:A2 *750:18 0
72 *2852:A2 *2851:A2 0
73 *2856:A2 *750:22 3.16765e-06
74 *2856:A2 *750:24 2.77542e-05
75 *2859:B2 *2867:A2 0.000235476
76 *2860:A2 *2867:A2 0.000148766
77 *2864:A2 *2859:A2 9.26705e-05
78 *2864:A2 *750:78 0.000486749
79 *2869:A2 *750:95 0.000145599
80 *2873:A1 *2876:A2 0.000147313
81 *2873:A1 *750:106 0.000258524
82 *2873:A2 *750:106 0
83 *2876:B2 *2880:A2 5.70962e-05
84 *2878:A2 *2880:A2 1.04779e-05
85 *2878:A2 *750:106 1.28891e-05
86 *3145:CLK *750:78 0.00040667
87 *3145:CLK *750:95 0.001216
88 *3210:D *2859:A2 2.42105e-05
89 *3210:D *2867:A2 0.00013977
90 *3212:D *750:106 0.000111867
91 *3213:CLK *750:95 0.000291377
92 *3214:CLK *2880:A2 0.000291299
93 *10:16 *2880:A2 0
94 *10:16 *750:106 0
95 *479:20 *2859:A2 0.000447767
96 *491:10 *750:95 1.52768e-05
97 *491:10 *750:106 1.23313e-05
98 *692:38 *2851:A2 0
99 *692:78 *750:95 4.03922e-06
100 *693:14 *750:10 4.0437e-05
101 *693:18 *750:10 1.58383e-05
102 *693:22 *2843:A2 6.77492e-05
103 *694:47 *2880:A2 2.6126e-05
*RES
1 *3295:Z *750:10 10.824 
2 *750:10 *750:18 11.72 
3 *750:18 *750:22 7.464 
4 *750:22 *750:24 0.532 
5 *750:24 *750:26 1.14 
6 *750:26 *2851:A2 11.812 
7 *750:26 *2847:A2 9 
8 *750:24 *2859:A2 12.496 
9 *750:22 *2855:A2 9 
10 *750:18 *750:78 14.092 
11 *750:78 *2863:A2 4.5 
12 *750:78 *750:95 15.688 
13 *750:95 *2871:A2 4.5 
14 *750:95 *750:106 6.932 
15 *750:106 *2876:A2 9.38 
16 *750:106 *2880:A2 12.648 
17 *750:10 *2843:A2 10.596 
18 *2859:A2 *2867:A2 22.104 
*END

*D_NET *751 0.0223988
*CONN
*I *2903:A2 I *D gf180mcu_fd_sc_mcu7t5v0__aoi22_1
*I *2894:A2 I *D gf180mcu_fd_sc_mcu7t5v0__aoi22_1
*I *2899:A2 I *D gf180mcu_fd_sc_mcu7t5v0__aoi22_1
*I *2890:A2 I *D gf180mcu_fd_sc_mcu7t5v0__aoi22_1
*I *2885:A2 I *D gf180mcu_fd_sc_mcu7t5v0__aoi21_1
*I *3295:I I *D gf180mcu_fd_sc_mcu7t5v0__dlyb_1
*I *2919:B I *D gf180mcu_fd_sc_mcu7t5v0__aoi21_1
*I *2915:A2 I *D gf180mcu_fd_sc_mcu7t5v0__aoi22_1
*I *2912:A2 I *D gf180mcu_fd_sc_mcu7t5v0__aoi22_1
*I *2907:A2 I *D gf180mcu_fd_sc_mcu7t5v0__aoi22_1
*I *3296:Z O *D gf180mcu_fd_sc_mcu7t5v0__dlyb_1
*CAP
1 *2903:A2 0
2 *2894:A2 1.42351e-05
3 *2899:A2 0
4 *2890:A2 1.72452e-05
5 *2885:A2 0
6 *3295:I 0.000768125
7 *2919:B 0.000294973
8 *2915:A2 0.000102028
9 *2912:A2 1.63165e-05
10 *2907:A2 0.000346193
11 *3296:Z 0
12 *751:107 0.00107223
13 *751:101 0.00090349
14 *751:89 0.000670329
15 *751:83 0.000377901
16 *751:75 0.000474758
17 *751:40 0.000617781
18 *751:14 0.000657605
19 *751:4 0.000715159
20 *2890:A2 *2891:A1 3.08902e-05
21 *2890:A2 *875:51 0.000194469
22 *2894:A2 *2894:A1 2.80879e-05
23 *2894:A2 *2899:B1 3.2657e-05
24 *2907:A2 *2910:A1 5.89191e-05
25 *2907:A2 *2910:A3 3.2657e-05
26 *2907:A2 *753:37 6.00886e-05
27 *2907:A2 *878:10 7.82111e-05
28 *2907:A2 *878:12 6.22815e-05
29 *2907:A2 *879:27 8.69929e-05
30 *2912:A2 *2912:A1 8.04285e-05
31 *2919:B *2919:A1 0.000370743
32 *3295:I *2618:A1 4.05218e-05
33 *3295:I *2886:C 2.72192e-05
34 *3295:I *2887:A2 4.58601e-06
35 *3295:I *764:102 0.000134206
36 *3295:I *788:30 0.000132876
37 *3295:I *896:59 0
38 *751:14 *2910:A1 1.31444e-05
39 *751:14 *2912:A1 1.43513e-05
40 *751:14 *753:21 0.000319977
41 *751:14 *753:31 0
42 *751:14 *753:37 5.14317e-05
43 *751:14 *788:12 0
44 *751:14 *880:32 2.45866e-05
45 *751:40 *2919:A1 2.293e-05
46 *751:40 *753:21 0.00013978
47 *751:75 *753:37 0.000263004
48 *751:75 *878:12 4.76572e-05
49 *751:75 *878:14 0.000113147
50 *751:75 *879:25 1.97747e-05
51 *751:75 *879:27 9.88736e-06
52 *751:83 *2894:B1 6.22815e-05
53 *751:83 *2899:A1 1.12495e-05
54 *751:83 *753:43 0.00020133
55 *751:83 *753:54 0.000523114
56 *751:89 *2894:A1 0.000113199
57 *751:89 *2899:B1 3.66946e-05
58 *751:101 *2824:A2 0.000161051
59 *751:101 *2894:A1 2.59105e-05
60 *751:101 *2894:B1 1.71854e-05
61 *751:101 *2897:A3 6.66825e-06
62 *751:101 *2899:A1 0.000204046
63 *751:101 *2899:B1 5.14116e-06
64 *751:101 *752:10 0.000226761
65 *751:101 *875:8 4.78015e-05
66 *751:101 *876:25 0
67 *751:107 *2887:A2 6.12591e-05
68 *751:107 *2887:A4 0.000180501
69 *751:107 *752:10 7.8324e-05
70 *751:107 *752:12 0.00061147
71 *751:107 *896:14 0.000957783
72 *751:107 *896:20 8.04285e-05
73 *2614:A3 *3295:I 7.4219e-06
74 *2620:A2 *3295:I 0.00209743
75 *2625:A1 *3295:I 5.48978e-05
76 *2844:A2 *3295:I 0.000129437
77 *2884:A1 *3295:I 1.92104e-05
78 *2886:A1 *3295:I 0.000380787
79 *2886:A2 *3295:I 9.026e-05
80 *2886:A2 *751:107 3.70116e-05
81 *2886:B *3295:I 0.000111858
82 *2891:A2 *2890:A2 0.000194469
83 *2894:B2 *751:101 0.000142431
84 *2895:A2 *751:101 5.58328e-05
85 *2896:A1 *751:89 3.1394e-06
86 *2896:A1 *751:101 2.76775e-05
87 *2896:A2 *751:101 0
88 *2905:A1 *751:75 3.08902e-05
89 *2909:A1 *751:75 2.6126e-05
90 *2910:A4 *2907:A2 5.93437e-05
91 *2913:B *2912:A2 3.2657e-05
92 *2916:A2 *751:14 8.13733e-05
93 *2918:A3 *751:14 0.000172461
94 *2920:A2 *751:14 0.000279752
95 *2921:A2 *2919:B 0.000133114
96 *2921:A2 *751:14 2.23825e-05
97 *2921:A2 *751:40 4.93556e-05
98 *3151:CLK *3295:I 0.001582
99 *3221:CLK *751:75 2.96621e-05
100 *3223:D *2915:A2 0.000831931
101 *3297:I *2915:A2 0.000369843
102 *3297:I *751:101 1.24993e-05
103 *3365:I *751:14 0.000326528
104 *10:16 *751:75 3.73535e-05
105 *10:16 *751:83 7.21887e-05
106 *499:6 *751:107 0
107 *506:10 *751:107 8.61081e-05
108 *506:21 *751:101 0.000142065
109 *506:21 *751:107 0.000228286
110 *513:8 *751:83 0.000128852
111 *513:17 *751:83 0.000195697
112 *513:32 *751:83 6.12154e-05
113 *516:10 *751:75 1.24603e-05
114 *516:10 *751:83 7.47525e-05
115 *523:10 *751:14 0.000328022
116 *526:10 *751:14 0.00043614
117 *685:59 *751:75 4.7806e-05
*RES
1 *3296:Z *751:4 4.5 
2 *751:4 *751:14 10.276 
3 *751:14 *2907:A2 10.672 
4 *751:14 *2912:A2 9.228 
5 *751:4 *751:40 1.444 
6 *751:40 *2915:A2 15.704 
7 *751:40 *2919:B 6.932 
8 *2907:A2 *751:75 15.552 
9 *751:75 *751:83 13.256 
10 *751:83 *751:89 0.684 
11 *751:89 *751:101 18.744 
12 *751:101 *751:107 9.82 
13 *751:107 *3295:I 15.368 
14 *751:107 *2885:A2 4.5 
15 *751:101 *2890:A2 9.532 
16 *751:89 *2899:A2 4.5 
17 *751:83 *2894:A2 4.728 
18 *751:75 *2903:A2 4.5 
*END

*D_NET *752 0.0179559
*CONN
*I *2890:B1 I *D gf180mcu_fd_sc_mcu7t5v0__aoi22_1
*I *2880:B1 I *D gf180mcu_fd_sc_mcu7t5v0__aoi22_1
*I *2876:B1 I *D gf180mcu_fd_sc_mcu7t5v0__aoi22_1
*I *2871:B1 I *D gf180mcu_fd_sc_mcu7t5v0__aoi22_1
*I *2863:B1 I *D gf180mcu_fd_sc_mcu7t5v0__aoi22_1
*I *2867:B1 I *D gf180mcu_fd_sc_mcu7t5v0__aoi22_1
*I *2855:B1 I *D gf180mcu_fd_sc_mcu7t5v0__aoi22_1
*I *2847:B1 I *D gf180mcu_fd_sc_mcu7t5v0__aoi22_1
*I *2851:B1 I *D gf180mcu_fd_sc_mcu7t5v0__aoi22_1
*I *2859:B1 I *D gf180mcu_fd_sc_mcu7t5v0__aoi22_1
*I *3297:Z O *D gf180mcu_fd_sc_mcu7t5v0__dlyb_1
*CAP
1 *2890:B1 3.37055e-05
2 *2880:B1 1.49461e-05
3 *2876:B1 0.000105453
4 *2871:B1 0
5 *2863:B1 0.000563515
6 *2867:B1 0
7 *2855:B1 0
8 *2847:B1 0
9 *2851:B1 0.00035792
10 *2859:B1 8.45859e-05
11 *3297:Z 0.000326504
12 *752:59 0.000559791
13 *752:53 0.000758123
14 *752:38 0.000902565
15 *752:34 0.000838973
16 *752:24 0.00130487
17 *752:20 0.000292136
18 *752:16 0.000390262
19 *752:12 0.000477823
20 *752:10 0.000666307
21 *2851:B1 *2847:A1 7.01965e-05
22 *2851:B1 *788:56 0
23 *2859:B1 *2859:A1 0.000147313
24 *2863:B1 *2865:A1 7.81744e-05
25 *2863:B1 *2865:A2 0.000111858
26 *2863:B1 *2866:A1 3.77898e-05
27 *2863:B1 *2868:A1 2.46566e-05
28 *2863:B1 *2872:B 3.73535e-05
29 *2880:B1 *2843:B 8.55242e-05
30 *2880:B1 *789:102 5.22519e-05
31 *2880:B1 *896:37 2.74661e-05
32 *2890:B1 *875:51 2.74753e-05
33 *752:10 *875:19 7.06588e-05
34 *752:10 *875:21 2.00064e-05
35 *752:10 *876:25 1.33647e-05
36 *752:12 *789:123 5.43763e-05
37 *752:12 *875:21 8.39858e-05
38 *752:16 *2872:B 0.000451288
39 *752:16 *789:123 0.000671072
40 *752:20 *895:10 0
41 *752:24 *2872:B 1.21492e-05
42 *752:24 *894:12 0
43 *752:24 *894:16 0.000660137
44 *752:24 *894:27 0.000115621
45 *752:24 *894:40 0.000120187
46 *752:34 *2868:A1 4.2318e-06
47 *752:34 *894:12 0
48 *752:38 *2858:A1 8.55327e-05
49 *752:38 *2859:A1 7.59097e-06
50 *752:38 *2867:A1 6.31748e-05
51 *752:38 *891:31 0.000552373
52 *2851:A2 *2851:B1 0.000170423
53 *2858:A2 *752:38 5.94067e-05
54 *2859:A2 *2859:B1 7.24161e-06
55 *2859:A2 *752:53 1.83977e-05
56 *2859:B2 *752:38 1.33342e-06
57 *2868:A2 *752:34 0.000700693
58 *2868:A2 *752:38 2.98136e-05
59 *2869:A2 *752:24 0
60 *2873:A1 *2876:B1 2.21476e-05
61 *2873:A1 *752:20 0.000431543
62 *2876:A2 *2876:B1 1.2018e-05
63 *2878:A1 *2876:B1 8.55327e-05
64 *2878:A2 *2876:B1 6.46651e-05
65 *2878:A2 *752:20 2.40654e-06
66 *2880:A2 *752:16 0.000291516
67 *2882:A1 *2880:B1 7.83779e-05
68 *2882:A1 *752:12 0.000106153
69 *2882:A1 *752:16 9.50296e-06
70 *2886:A2 *752:12 0.000161264
71 *2888:A1 *752:12 0.000294119
72 *2892:A1 *2890:B1 0.000239827
73 *2892:A2 *2890:B1 0.000299234
74 *2893:A2 *752:10 4.70024e-05
75 *2894:B2 *752:10 6.04444e-06
76 *2895:A2 *752:10 2.6126e-05
77 *3146:CLK *752:20 8.60761e-05
78 *3210:D *752:53 0
79 *3211:D *752:34 4.02294e-05
80 *3213:CLK *2863:B1 3.07734e-05
81 *479:20 *752:38 0.000673025
82 *479:20 *752:53 0.000236736
83 *491:10 *752:20 0.000246194
84 *692:72 *752:38 6.78163e-05
85 *692:78 *752:24 0
86 *692:78 *752:34 0
87 *750:22 *752:59 7.02696e-05
88 *750:24 *752:59 9.50423e-05
89 *750:26 *2851:B1 8.49801e-05
90 *750:26 *752:59 0.000101443
91 *750:95 *2863:B1 0.000351997
92 *750:95 *752:24 0.000417552
93 *750:106 *752:20 9.17202e-06
94 *751:101 *752:10 0.000226761
95 *751:107 *752:10 7.8324e-05
96 *751:107 *752:12 0.00061147
*RES
1 *3297:Z *752:10 11.432 
2 *752:10 *752:12 4.788 
3 *752:12 *752:16 7.312 
4 *752:16 *752:20 1.824 
5 *752:20 *752:24 7.464 
6 *752:24 *752:34 9.06 
7 *752:34 *752:38 3.496 
8 *752:38 *2859:B1 5.412 
9 *752:38 *752:53 3.876 
10 *752:53 *752:59 6.172 
11 *752:59 *2851:B1 11.584 
12 *752:59 *2847:B1 9 
13 *752:53 *2855:B1 4.5 
14 *752:34 *2867:B1 4.5 
15 *752:24 *2863:B1 13.484 
16 *752:20 *2871:B1 4.5 
17 *752:16 *2876:B1 5.336 
18 *752:12 *2880:B1 9.38 
19 *752:10 *2890:B1 9.836 
*END

*D_NET *753 0.01443
*CONN
*I *2919:A1 I *D gf180mcu_fd_sc_mcu7t5v0__aoi21_1
*I *2915:B1 I *D gf180mcu_fd_sc_mcu7t5v0__aoi22_1
*I *2912:B1 I *D gf180mcu_fd_sc_mcu7t5v0__aoi22_1
*I *2907:B1 I *D gf180mcu_fd_sc_mcu7t5v0__aoi22_1
*I *2899:B1 I *D gf180mcu_fd_sc_mcu7t5v0__aoi22_1
*I *2894:B1 I *D gf180mcu_fd_sc_mcu7t5v0__aoi22_1
*I *2903:B1 I *D gf180mcu_fd_sc_mcu7t5v0__aoi22_1
*I *2842:I I *D gf180mcu_fd_sc_mcu7t5v0__clkinv_1
*I *3298:Z O *D gf180mcu_fd_sc_mcu7t5v0__dlyb_1
*CAP
1 *2919:A1 0.00034365
2 *2915:B1 3.65761e-05
3 *2912:B1 0
4 *2907:B1 0
5 *2899:B1 0.000118774
6 *2894:B1 0.000132291
7 *2903:B1 0
8 *2842:I 7.10741e-05
9 *3298:Z 8.69737e-05
10 *753:54 0.000564612
11 *753:43 0.00042281
12 *753:37 0.000348536
13 *753:31 0.000691397
14 *753:25 0.000630239
15 *753:21 0.00147366
16 *753:8 0.00114651
17 *2894:B1 *2824:A2 1.11891e-05
18 *2894:B1 *2899:A1 6.57222e-06
19 *2915:B1 *2915:A1 1.97747e-05
20 *753:8 *3015:C2 3.14479e-05
21 *753:21 *2834:B 3.96961e-05
22 *753:21 *3015:C2 0.000386476
23 *753:21 *882:8 2.11901e-05
24 *753:21 *882:12 5.94256e-05
25 *753:21 *883:12 0.000707085
26 *753:21 *883:20 0.000147313
27 *753:21 *909:14 0.000677484
28 *753:25 *2916:B 1.18656e-05
29 *753:31 *878:10 0
30 *753:31 *881:12 0
31 *753:31 *881:16 3.50929e-06
32 *753:31 *881:37 3.50638e-06
33 *753:37 *878:10 0.000199473
34 *753:37 *878:12 0.000326528
35 *753:43 *2904:A1 3.83477e-05
36 *753:43 *878:12 0.000115684
37 *753:43 *878:14 0.000317544
38 *753:43 *879:27 4.94368e-05
39 *753:54 *2904:A1 4.77227e-05
40 *2835:I *753:21 5.76749e-06
41 *2836:A2 *753:21 5.9681e-05
42 *2894:A2 *2899:B1 3.2657e-05
43 *2907:A2 *753:37 6.00886e-05
44 *2907:B2 *753:43 2.96621e-05
45 *2909:A1 *753:37 0
46 *2912:B2 *753:31 2.6126e-05
47 *2913:B *753:31 1.15312e-05
48 *2915:B2 *2915:B1 4.94368e-05
49 *2916:A2 *753:31 0
50 *2917:A1 *2915:B1 7.83779e-05
51 *2917:A2 *753:31 0.000169982
52 *2919:A2 *2919:A1 0.000294369
53 *2919:A2 *753:21 0.000212843
54 *2919:B *2919:A1 0.000370743
55 *2920:A1 *753:21 7.88136e-05
56 *2920:A2 *753:21 0.000543163
57 *2920:A2 *753:25 0
58 *2921:A2 *753:21 0
59 *3163:D *753:21 6.39906e-05
60 *3217:CLK *753:54 0
61 *3223:D *753:25 0.00048051
62 *3223:D *753:31 0.000496517
63 *3279:I *753:8 0
64 *3279:I *753:21 0
65 *3297:I *2894:B1 0
66 *3297:I *753:31 9.10106e-05
67 *3297:I *753:37 0
68 *10:16 *753:43 0.000116842
69 *471:20 *753:21 0.000130225
70 *513:32 *753:43 1.80204e-05
71 *526:10 *753:31 0
72 *530:8 *2919:A1 7.83779e-05
73 *685:59 *753:37 0
74 *685:59 *753:54 0
75 *751:14 *753:21 0.000319977
76 *751:14 *753:31 0
77 *751:14 *753:37 5.14317e-05
78 *751:40 *2919:A1 2.293e-05
79 *751:40 *753:21 0.00013978
80 *751:75 *753:37 0.000263004
81 *751:83 *2894:B1 6.22815e-05
82 *751:83 *753:43 0.00020133
83 *751:83 *753:54 0.000523114
84 *751:89 *2899:B1 3.66946e-05
85 *751:101 *2894:B1 1.71854e-05
86 *751:101 *2899:B1 5.14116e-06
*RES
1 *3298:Z *753:8 5.108 
2 *753:8 *2842:I 5.032 
3 *753:8 *753:21 10.564 
4 *753:21 *753:25 5.792 
5 *753:25 *753:31 8.148 
6 *753:31 *753:37 11.356 
7 *753:37 *753:43 6.324 
8 *753:43 *2903:B1 9 
9 *753:43 *753:54 3.192 
10 *753:54 *2894:B1 9.836 
11 *753:54 *2899:B1 9.684 
12 *753:37 *2907:B1 4.5 
13 *753:31 *2912:B1 4.5 
14 *753:25 *2915:B1 9.38 
15 *753:21 *2919:A1 7.464 
*END

*D_NET *754 0.0201934
*CONN
*I *2777:I I *D gf180mcu_fd_sc_mcu7t5v0__clkinv_1
*I *2804:A1 I *D gf180mcu_fd_sc_mcu7t5v0__nor3_1
*I *2801:A1 I *D gf180mcu_fd_sc_mcu7t5v0__nor3_1
*I *2798:A1 I *D gf180mcu_fd_sc_mcu7t5v0__nor3_1
*I *2795:A1 I *D gf180mcu_fd_sc_mcu7t5v0__nor3_1
*I *2792:A1 I *D gf180mcu_fd_sc_mcu7t5v0__nor3_1
*I *2789:A1 I *D gf180mcu_fd_sc_mcu7t5v0__nor3_1
*I *2786:A1 I *D gf180mcu_fd_sc_mcu7t5v0__nor3_1
*I *2780:A1 I *D gf180mcu_fd_sc_mcu7t5v0__nor3_1
*I *2783:A1 I *D gf180mcu_fd_sc_mcu7t5v0__nor3_1
*I *3299:Z O *D gf180mcu_fd_sc_mcu7t5v0__dlyb_1
*CAP
1 *2777:I 0.000673651
2 *2804:A1 0.000275897
3 *2801:A1 1.80222e-05
4 *2798:A1 0
5 *2795:A1 0
6 *2792:A1 0.000203418
7 *2789:A1 0.000445933
8 *2786:A1 0
9 *2780:A1 0.000160879
10 *2783:A1 0
11 *3299:Z 0.000350203
12 *754:112 0.00146072
13 *754:97 0.00108669
14 *754:84 0.000724428
15 *754:51 0.000673829
16 *754:47 0.000196598
17 *754:43 0.000559698
18 *754:21 0.000381985
19 *754:12 0.000449669
20 *754:8 0.00079942
21 *2777:I *3199:CLK 0
22 *2777:I *794:52 6.95292e-05
23 *2804:A1 *3198:CLK 0.000107858
24 *754:21 *793:16 2.23232e-05
25 *754:47 *3196:CLK 0
26 *754:97 *794:25 0.000249801
27 *754:112 *794:25 9.10083e-05
28 *754:112 *794:38 9.93985e-05
29 *754:112 *794:52 0.000154696
30 *2783:A2 *754:21 1.38099e-05
31 *2784:A2 *754:12 7.55104e-05
32 *2784:A2 *754:43 4.86263e-06
33 *2786:A2 *2780:A1 0.00026757
34 *2786:A2 *754:21 8.55327e-05
35 *2787:A3 *754:8 1.3758e-05
36 *2787:A4 *754:8 0.00013063
37 *2789:A2 *2789:A1 0.000263389
38 *2790:A1 *754:97 0
39 *2792:A3 *2792:A1 5.1289e-05
40 *2795:A3 *754:47 0.000148325
41 *2797:A1 *754:97 1.53833e-05
42 *2798:A2 *754:97 0.00105621
43 *2805:A1 *2804:A1 0
44 *2807:A1 *2804:A1 3.65169e-05
45 *2807:A2 *2804:A1 1.91917e-06
46 *2807:A3 *2777:I 0.000531637
47 *2807:A3 *754:112 2.21707e-05
48 *2809:A2 *2777:I 1.15244e-05
49 *2809:B *2777:I 0.000249496
50 *2810:A1 *2804:A1 0.000136163
51 *2810:A1 *754:112 0.000236514
52 *2810:A2 *2777:I 0.0011904
53 *3191:D *754:21 2.6126e-05
54 *3192:D *754:21 0.000110569
55 *3194:D *2792:A1 0.000148766
56 *3194:D *754:47 0.00026286
57 *3194:D *754:51 0.000308501
58 *3195:D *2792:A1 0.000151655
59 *3196:D *754:97 0.000108142
60 *3197:D *2801:A1 0.000189632
61 *3197:D *754:97 7.79953e-05
62 *3197:D *754:112 0.00066408
63 *3321:I *2789:A1 0.000256876
64 *3321:I *2792:A1 7.50489e-05
65 *420:10 *754:8 2.30587e-05
66 *422:12 *754:21 5.76373e-06
67 *422:16 *2780:A1 0.000141897
68 *422:16 *754:21 1.2339e-05
69 *424:10 *754:12 3.01019e-05
70 *426:10 *2780:A1 9.52854e-05
71 *426:10 *754:8 0.000154348
72 *431:15 *2792:A1 1.41392e-05
73 *435:17 *754:97 2.75746e-05
74 *441:8 *754:112 4.37956e-05
75 *441:16 *2804:A1 1.52768e-05
76 *441:16 *754:112 1.72894e-05
77 *709:14 *754:112 6.09629e-05
78 *709:20 *2801:A1 0.000189632
79 *709:20 *754:112 7.62177e-05
80 *710:10 *2777:I 0.000170371
81 *711:12 *2777:I 0
82 *716:20 *754:12 0.000464026
83 *716:31 *754:12 0.000336541
84 *716:31 *754:43 0.000197036
85 *716:42 *754:8 0.000395378
86 *718:10 *2789:A1 0
87 *718:10 *2792:A1 1.44832e-05
88 *718:10 *754:47 0.000756982
89 *718:10 *754:51 0.000308501
90 *718:21 *754:47 0.00030882
91 *722:10 *754:97 0.000155017
*RES
1 *3299:Z *754:8 12.724 
2 *754:8 *754:12 6.856 
3 *754:12 *2783:A1 4.5 
4 *754:12 *754:21 1.672 
5 *754:21 *2780:A1 15.172 
6 *754:21 *2786:A1 4.5 
7 *754:8 *754:43 1.368 
8 *754:43 *754:47 7.312 
9 *754:47 *754:51 5.336 
10 *754:51 *2789:A1 12.572 
11 *754:51 *2792:A1 10.596 
12 *754:47 *2795:A1 4.5 
13 *754:43 *754:84 0.988 
14 *754:84 *2798:A1 9 
15 *754:84 *754:97 5.548 
16 *754:97 *2801:A1 9.532 
17 *754:97 *754:112 9.06 
18 *754:112 *2804:A1 6.552 
19 *754:112 *2777:I 20.416 
*END

*D_NET *755 0.0118091
*CONN
*I *2585:A2 I *D gf180mcu_fd_sc_mcu7t5v0__nor2_1
*I *2588:A2 I *D gf180mcu_fd_sc_mcu7t5v0__nor2_1
*I *2591:A2 I *D gf180mcu_fd_sc_mcu7t5v0__nor2_1
*I *2576:A2 I *D gf180mcu_fd_sc_mcu7t5v0__nor2_1
*I *2573:A2 I *D gf180mcu_fd_sc_mcu7t5v0__nor2_1
*I *2567:A2 I *D gf180mcu_fd_sc_mcu7t5v0__nor2_1
*I *2564:A2 I *D gf180mcu_fd_sc_mcu7t5v0__nor2_1
*I *2561:A2 I *D gf180mcu_fd_sc_mcu7t5v0__nor2_1
*I *2552:A2 I *D gf180mcu_fd_sc_mcu7t5v0__nor2_1
*I *2570:A2 I *D gf180mcu_fd_sc_mcu7t5v0__nor2_1
*I *3300:Z O *D gf180mcu_fd_sc_mcu7t5v0__dlyb_1
*CAP
1 *2585:A2 0
2 *2588:A2 0
3 *2591:A2 0
4 *2576:A2 3.73559e-05
5 *2573:A2 0
6 *2567:A2 0
7 *2564:A2 0
8 *2561:A2 0
9 *2552:A2 0.000489496
10 *2570:A2 0
11 *3300:Z 0.000271987
12 *755:65 0.000659661
13 *755:61 0.000395854
14 *755:55 0.000978213
15 *755:40 0.000904905
16 *755:32 0.000248798
17 *755:30 0.000544008
18 *755:20 0.000968243
19 *755:16 0.000940678
20 *755:12 0.000654657
21 *2552:A2 *2552:A1 1.5015e-05
22 *755:12 *2585:A1 2.05156e-05
23 *755:12 *2594:A2 1.52691e-05
24 *755:12 *3300:I 0.000521664
25 *755:16 *2585:A1 0.000306492
26 *755:16 *2594:A2 0.000183707
27 *755:20 *2594:A2 5.86721e-05
28 *755:30 *2576:A1 1.0115e-05
29 *755:30 *2591:A1 3.00299e-05
30 *755:32 *2576:A1 0
31 *755:40 *2570:A1 9.34472e-05
32 *755:40 *2573:A1 2.25107e-05
33 *755:40 *829:10 4.50449e-05
34 *755:55 *2708:A1 9.88736e-06
35 *755:55 *795:50 0
36 *755:61 *2707:A1 0
37 *755:61 *2708:A1 0.000164236
38 *755:61 *828:24 9.98921e-06
39 *2554:A2 *2552:A2 9.75898e-05
40 *2566:A2 *2552:A2 0.000191531
41 *2566:A2 *755:65 0.000530811
42 *2569:A2 *755:55 3.1829e-05
43 *2572:A2 *755:40 1.42281e-05
44 *2572:A2 *755:55 0.00071453
45 *2575:A2 *2576:A2 0
46 *2575:A2 *755:30 0
47 *2575:A2 *755:32 8.04139e-05
48 *2575:A2 *755:40 6.57222e-06
49 *2575:A3 *755:55 0
50 *2578:A2 *2576:A2 3.07734e-05
51 *2578:A2 *755:20 1.28836e-05
52 *2578:A2 *755:30 0.000102928
53 *2584:A1 *755:16 0
54 *2587:A2 *755:16 1.72912e-05
55 *2587:A3 *755:12 0
56 *2593:A2 *755:20 0.000108139
57 *2593:A2 *755:30 8.55242e-05
58 *2706:A2 *755:61 0.000204383
59 *2706:A2 *755:65 0.000151949
60 *3129:D *755:55 0
61 *3130:CLK *755:55 1.25216e-05
62 *3131:D *755:30 0.00026286
63 *3131:CLK *755:30 4.70074e-05
64 *3132:CLK *755:12 2.37655e-05
65 *3138:D *755:20 5.92756e-05
66 *365:10 *755:61 2.9378e-06
67 *370:8 *755:30 0
68 *681:6 *755:55 0
69 *681:12 *755:55 0.000154091
70 *681:18 *755:55 4.04929e-05
71 *688:69 *755:20 0.000224296
*RES
1 *3300:Z *755:12 15.932 
2 *755:12 *755:16 3.344 
3 *755:16 *755:20 4.104 
4 *755:20 *755:30 3.572 
5 *755:30 *755:32 0.684 
6 *755:32 *755:40 10.52 
7 *755:40 *2570:A2 4.5 
8 *755:40 *755:55 15.004 
9 *755:55 *755:61 6.628 
10 *755:61 *755:65 1.976 
11 *755:65 *2552:A2 13.028 
12 *755:65 *2561:A2 9 
13 *755:61 *2564:A2 9 
14 *755:55 *2567:A2 4.5 
15 *755:32 *2573:A2 4.5 
16 *755:30 *2576:A2 4.956 
17 *755:20 *2591:A2 4.5 
18 *755:16 *2588:A2 4.5 
19 *755:12 *2585:A2 4.5 
*END

*D_NET *756 0.0252691
*CONN
*I *2594:A2 I *D gf180mcu_fd_sc_mcu7t5v0__nor2_1
*I *2539:A2 I *D gf180mcu_fd_sc_mcu7t5v0__nor2_1
*I *2545:A2 I *D gf180mcu_fd_sc_mcu7t5v0__nor2_1
*I *2555:A2 I *D gf180mcu_fd_sc_mcu7t5v0__nor2_1
*I *2558:A2 I *D gf180mcu_fd_sc_mcu7t5v0__nor2_1
*I *2542:A2 I *D gf180mcu_fd_sc_mcu7t5v0__nor2_1
*I *2530:A2 I *D gf180mcu_fd_sc_mcu7t5v0__nor2_1
*I *2533:A2 I *D gf180mcu_fd_sc_mcu7t5v0__nor2_1
*I *2536:A2 I *D gf180mcu_fd_sc_mcu7t5v0__nor2_1
*I *3300:I I *D gf180mcu_fd_sc_mcu7t5v0__dlyb_1
*I *3301:Z O *D gf180mcu_fd_sc_mcu7t5v0__dlyb_1
*CAP
1 *2594:A2 0.000566438
2 *2539:A2 0
3 *2545:A2 0.000497931
4 *2555:A2 0
5 *2558:A2 0.00010261
6 *2542:A2 8.46358e-05
7 *2530:A2 0
8 *2533:A2 0
9 *2536:A2 0.000134978
10 *3300:I 0.0019074
11 *3301:Z 3.45518e-05
12 *756:85 0.000662175
13 *756:68 0.000704927
14 *756:66 0.000606516
15 *756:64 0.00145633
16 *756:31 0.000134978
17 *756:18 0.00178837
18 *756:12 0.000715433
19 *756:8 0.00171105
20 *2536:A2 *2978:A1 0.000124318
21 *2542:A2 *2539:A1 0.000118057
22 *2542:A2 *3313:I 3.73535e-05
23 *2542:A2 *786:20 4.76113e-05
24 *2545:A2 *785:16 0
25 *2545:A2 *785:133 0.000183642
26 *2545:A2 *786:10 0
27 *2545:A2 *871:12 0
28 *2558:A2 *2555:A1 0
29 *2594:A2 *2577:A2 0.000316493
30 *2594:A2 *2578:A1 2.79476e-05
31 *2594:A2 *2585:A1 0
32 *2594:A2 *2591:A1 0
33 *2594:A2 *786:34 0.000321907
34 *3300:I *2577:A2 8.55327e-05
35 *3300:I *2978:A1 0.000194842
36 *3300:I *3016:A1 0
37 *3300:I *3016:B2 0.000221781
38 *3300:I *762:25 3.78197e-05
39 *3300:I *762:27 3.26862e-05
40 *3300:I *762:29 5.94709e-05
41 *3300:I *762:35 1.78413e-05
42 *756:8 *2991:B2 2.96621e-05
43 *756:18 *2530:A1 8.58e-05
44 *756:18 *2532:A1 0.000184529
45 *756:18 *2533:A1 0.000764386
46 *756:18 *3016:B2 3.22131e-05
47 *756:64 *2539:A1 1.5015e-05
48 *756:64 *2666:A2 0.000201598
49 *756:64 *2668:A1 0.000127066
50 *756:64 *2673:A2 0.000102353
51 *756:64 *2673:A4 0.000161672
52 *756:64 *2674:A1 3.2657e-05
53 *756:64 *2991:B2 1.86703e-05
54 *756:64 *3024:B2 0
55 *756:64 *759:34 1.38714e-05
56 *756:64 *785:133 8.25544e-05
57 *756:64 *786:20 0.0027083
58 *756:66 *2539:A1 0.000171927
59 *756:66 *786:20 0.000164594
60 *756:68 *2539:A1 0.000224296
61 *756:68 *786:20 0.0002221
62 *756:85 *786:10 4.07337e-05
63 *2535:A2 *2536:A2 6.68265e-05
64 *2535:A2 *3300:I 0.000136619
65 *2535:A2 *756:18 8.03759e-06
66 *2541:A2 *756:64 0.00111718
67 *2547:A2 *2545:A2 0.000207492
68 *2560:A2 *2558:A2 0.000276717
69 *2578:A2 *2594:A2 0.000299585
70 *2578:A3 *2594:A2 0.00025334
71 *2587:A3 *3300:I 0
72 *2671:A3 *756:64 6.73834e-05
73 *2674:A2 *756:64 2.89664e-05
74 *3003:C *756:12 0.000578336
75 *3003:C *756:64 0.000335667
76 *3009:A2 *2536:A2 5.76063e-06
77 *3011:C *756:12 0
78 *3011:C *756:64 0
79 *3033:A2 *756:64 0
80 *3118:CLK *2536:A2 2.6126e-05
81 *3119:CLK *756:64 8.08741e-05
82 *3132:D *2594:A2 5.08971e-06
83 *3136:D *3300:I 0.00121129
84 *3138:D *2594:A2 0.000292033
85 *3164:D *756:64 2.43212e-05
86 *3165:D *756:64 0.00020021
87 *3166:D *756:64 0.000343939
88 *336:12 *756:64 0
89 *339:8 *756:64 0
90 *341:8 *756:64 0.00015315
91 *341:25 *756:64 0
92 *688:73 *2594:A2 0.00022273
93 *690:52 *756:64 2.17248e-05
94 *736:33 *756:12 0.000206769
95 *755:12 *2594:A2 1.52691e-05
96 *755:12 *3300:I 0.000521664
97 *755:16 *2594:A2 0.000183707
98 *755:20 *2594:A2 5.86721e-05
*RES
1 *3301:Z *756:8 9.228 
2 *756:8 *756:12 7.008 
3 *756:12 *756:18 8.604 
4 *756:18 *3300:I 20.552 
5 *756:18 *756:31 4.5 
6 *756:31 *2536:A2 5.716 
7 *756:31 *2533:A2 4.5 
8 *756:12 *2530:A2 4.5 
9 *756:8 *756:64 20.764 
10 *756:64 *756:66 0.988 
11 *756:66 *756:68 1.292 
12 *756:68 *2542:A2 5.564 
13 *756:68 *756:85 8.376 
14 *756:85 *2558:A2 9.988 
15 *756:85 *2555:A2 9 
16 *756:66 *2545:A2 17.224 
17 *756:64 *2539:A2 4.5 
18 *3300:I *2594:A2 24.992 
*END

*D_NET *757 0.000775804
*CONN
*I *2503:I I *D gf180mcu_fd_sc_mcu7t5v0__clkinv_1
*I *2973:A1 I *D gf180mcu_fd_sc_mcu7t5v0__nand2_1
*I *3349:Z O *D gf180mcu_fd_sc_mcu7t5v0__dlyb_1
*CAP
1 *2503:I 7.93639e-05
2 *2973:A1 0
3 *3349:Z 0.000112238
4 *757:10 0.000191602
5 *757:10 *2506:A1 0.000147305
6 *757:10 *2506:A2 0.000154451
7 *226:10 *757:10 0
8 *568:8 *2503:I 7.95952e-05
9 *568:8 *757:10 1.12495e-05
*RES
1 *3349:Z *757:10 10.064 
2 *757:10 *2973:A1 9 
3 *757:10 *2503:I 9.684 
*END

*D_NET *758 0.0141058
*CONN
*I *2634:A2 I *D gf180mcu_fd_sc_mcu7t5v0__nor2_1
*I *2629:A2 I *D gf180mcu_fd_sc_mcu7t5v0__nor2_1
*I *2621:A2 I *D gf180mcu_fd_sc_mcu7t5v0__nor2_1
*I *2626:A2 I *D gf180mcu_fd_sc_mcu7t5v0__nor2_1
*I *2618:A2 I *D gf180mcu_fd_sc_mcu7t5v0__nor2_1
*I *2615:A2 I *D gf180mcu_fd_sc_mcu7t5v0__nor2_1
*I *2612:A2 I *D gf180mcu_fd_sc_mcu7t5v0__nor2_1
*I *2605:A2 I *D gf180mcu_fd_sc_mcu7t5v0__nor2_1
*I *2602:A2 I *D gf180mcu_fd_sc_mcu7t5v0__nor2_1
*I *2599:A2 I *D gf180mcu_fd_sc_mcu7t5v0__nor2_1
*I *3302:Z O *D gf180mcu_fd_sc_mcu7t5v0__dlyb_1
*CAP
1 *2634:A2 0
2 *2629:A2 0
3 *2621:A2 0
4 *2626:A2 0
5 *2618:A2 0
6 *2615:A2 0
7 *2612:A2 0
8 *2605:A2 0
9 *2602:A2 0
10 *2599:A2 0.000299549
11 *3302:Z 0.000192376
12 *758:48 0.00105485
13 *758:36 0.00172443
14 *758:30 0.0011741
15 *758:26 0.000348103
16 *758:24 0.000465009
17 *758:20 0.000567946
18 *758:14 0.000600512
19 *758:12 0.00126669
20 *758:8 0.00110462
21 *2599:A2 *2599:A1 6.68164e-05
22 *2599:A2 *2849:A1 1.20079e-05
23 *2599:A2 *873:26 0.000240488
24 *2599:A2 *884:28 0.000410317
25 *2599:A2 *884:32 1.20889e-05
26 *758:8 *2634:A1 7.02034e-05
27 *758:8 *2637:A1 6.44359e-05
28 *758:20 *2621:A1 4.52283e-05
29 *758:20 *2627:A2 0
30 *758:24 *2621:A1 0
31 *758:24 *2627:A2 0
32 *758:26 *2617:A1 4.0437e-05
33 *758:30 *2618:A1 0
34 *758:36 *2606:A1 0.000346173
35 *758:36 *2610:A1 7.59671e-05
36 *758:36 *2610:A2 0
37 *758:36 *2611:C 0
38 *758:36 *2617:A1 0
39 *758:36 *763:50 1.05323e-05
40 *758:36 *798:10 0
41 *758:36 *798:14 0
42 *758:36 *798:34 0
43 *758:36 *916:8 2.976e-05
44 *758:48 *2602:A1 4.18499e-05
45 *758:48 *2605:A1 6.03845e-05
46 *758:48 *2611:C 0
47 *758:48 *2853:A2 4.71484e-05
48 *758:48 *873:14 2.97354e-06
49 *758:48 *873:20 0.000159116
50 *758:48 *873:26 8.64766e-06
51 *758:48 *889:34 5.48282e-05
52 *758:48 *890:8 7.88344e-05
53 *758:48 *890:14 1.46159e-05
54 *2601:A2 *2599:A2 0
55 *2614:A2 *758:36 0.00027686
56 *2617:A2 *758:26 0.000442141
57 *2617:A2 *758:30 9.52854e-05
58 *2617:A3 *758:24 4.40475e-05
59 *2617:A3 *758:26 3.28611e-05
60 *2620:A2 *758:24 0.000396904
61 *2625:A1 *758:24 8.8586e-05
62 *2625:A1 *758:26 4.43093e-05
63 *2633:B *758:12 0.000158886
64 *2828:A1 *758:26 0
65 *2828:A1 *758:30 0
66 *2828:A2 *758:30 0
67 *2832:A2 *758:12 0
68 *2832:A2 *758:14 0
69 *2832:A2 *758:20 0
70 *3143:CLK *758:36 0.000204383
71 *3146:CLK *758:36 0.000323712
72 *3275:I *758:8 0
73 *692:10 *2599:A2 1.98468e-05
74 *750:18 *758:36 0.00114003
75 *750:18 *758:48 0.000146949
*RES
1 *3302:Z *758:8 6.02 
2 *758:8 *758:12 10.048 
3 *758:12 *758:14 2.508 
4 *758:14 *758:20 1.9 
5 *758:20 *758:24 2.888 
6 *758:24 *758:26 1.748 
7 *758:26 *758:30 5.944 
8 *758:30 *758:36 13.924 
9 *758:36 *758:48 14.168 
10 *758:48 *2599:A2 11.812 
11 *758:48 *2602:A2 9 
12 *758:36 *2605:A2 9 
13 *758:30 *2612:A2 4.5 
14 *758:26 *2615:A2 9 
15 *758:24 *2618:A2 9 
16 *758:20 *2626:A2 9 
17 *758:14 *2621:A2 9 
18 *758:12 *2629:A2 9 
19 *758:8 *2634:A2 4.5 
*END

*D_NET *759 0.0334859
*CONN
*I *2524:A2 I *D gf180mcu_fd_sc_mcu7t5v0__nand2_1
*I *2654:A2 I *D gf180mcu_fd_sc_mcu7t5v0__nor2_1
*I *2651:A2 I *D gf180mcu_fd_sc_mcu7t5v0__nor2_1
*I *2645:A2 I *D gf180mcu_fd_sc_mcu7t5v0__nor2_1
*I *2648:A2 I *D gf180mcu_fd_sc_mcu7t5v0__nor2_1
*I *2642:A2 I *D gf180mcu_fd_sc_mcu7t5v0__nor2_1
*I *3302:I I *D gf180mcu_fd_sc_mcu7t5v0__dlyb_1
*I *2637:A2 I *D gf180mcu_fd_sc_mcu7t5v0__nor2_1
*I *2527:A3 I *D gf180mcu_fd_sc_mcu7t5v0__nand3_1
*I *3301:I I *D gf180mcu_fd_sc_mcu7t5v0__dlyb_1
*I *3303:Z O *D gf180mcu_fd_sc_mcu7t5v0__dlyb_1
*CAP
1 *2524:A2 5.4039e-05
2 *2654:A2 0
3 *2651:A2 0
4 *2645:A2 0
5 *2648:A2 0.000130238
6 *2642:A2 9.68773e-05
7 *3302:I 8.57967e-05
8 *2637:A2 0.000213742
9 *2527:A3 0
10 *3301:I 0
11 *3303:Z 3.02926e-05
12 *759:88 0.000290979
13 *759:86 6.38639e-05
14 *759:66 0.000628179
15 *759:64 0.00133403
16 *759:58 0.0015839
17 *759:54 0.00179049
18 *759:34 0.00213552
19 *759:14 0.00228516
20 *759:12 0.00145737
21 *759:8 0.000180088
22 *2524:A2 *805:43 7.35289e-05
23 *2648:A2 *2642:A1 3.81953e-05
24 *2648:A2 *2645:A1 0
25 *759:8 *804:54 7.83779e-05
26 *759:12 *805:43 1.51424e-05
27 *759:14 *3105:A2 2.23598e-06
28 *759:14 *769:10 1.05564e-05
29 *759:34 *2753:A1 0.000223578
30 *759:34 *3056:A1 0.000295002
31 *759:34 *3057:B 0
32 *759:34 *3099:A1 9.17202e-06
33 *759:34 *770:21 1.11891e-05
34 *759:34 *822:29 0.000268062
35 *759:54 *2657:A1 1.61066e-05
36 *759:54 *804:101 0
37 *759:54 *805:43 0.000946229
38 *759:58 *2654:A1 0
39 *759:58 *2657:A1 0.000245115
40 *759:58 *2833:A4 4.57747e-05
41 *759:64 *2642:A1 2.0537e-05
42 *759:64 *2651:A1 9.88736e-06
43 *759:64 *883:20 0.000230101
44 *759:64 *909:14 1.58383e-05
45 *759:66 *2642:A1 4.03922e-06
46 *759:88 *2642:A1 0.000372137
47 *759:88 *2648:A1 3.6994e-05
48 *2528:A1 *759:34 0.000165438
49 *2529:A1 *759:12 0.000355511
50 *2529:A2 *759:14 0.000395803
51 *2529:A2 *759:34 0.00158149
52 *2529:A2 *759:54 0.000360235
53 *2641:A1 *3302:I 0.000317503
54 *2644:A2 *2648:A2 4.1381e-05
55 *2647:A2 *2648:A2 0.000509981
56 *2647:A2 *759:88 4.17249e-05
57 *2653:A2 *759:64 5.19077e-05
58 *2656:A2 *759:54 0
59 *2657:A2 *759:54 1.18942e-05
60 *2657:A2 *759:58 6.83716e-05
61 *2662:A2 *759:58 0
62 *2662:A2 *759:64 8.54902e-05
63 *2662:A3 *759:64 0
64 *2836:B *759:58 0.000266424
65 *2836:B *759:64 0
66 *2944:A1 *759:54 0.000149317
67 *2994:A2 *759:34 1.02578e-05
68 *3003:C *759:34 0.000561179
69 *3011:C *759:34 8.98471e-05
70 *3033:A2 *759:34 3.53865e-05
71 *3034:A2 *759:34 0.000276115
72 *3036:A1 *759:34 0.00622044
73 *3042:A1 *759:34 0
74 *3043:A2 *759:34 6.49724e-05
75 *3073:A1 *759:34 8.78761e-05
76 *3099:A2 *759:34 0.000231994
77 *3100:A2 *759:34 0.000414869
78 *3101:A1 *759:34 4.63109e-05
79 *3101:A2 *759:34 0.00019975
80 *3161:CLK *759:54 3.01323e-05
81 *3163:D *759:64 0
82 *3164:D *759:34 7.54368e-05
83 *3225:D *759:58 3.83782e-05
84 *3263:D *759:34 1.91917e-06
85 *3263:CLK *759:34 8.67558e-05
86 *3279:I *759:64 0
87 *3281:I *759:54 0.00037608
88 *3303:I *759:12 0.00018822
89 *230:20 *2524:A2 0.00012531
90 *469:22 *759:64 0.000141897
91 *549:16 *759:54 2.40328e-06
92 *562:78 *759:34 0.00185918
93 *639:20 *759:34 0.000261085
94 *656:31 *759:34 4.0645e-06
95 *686:6 *759:54 0.000502835
96 *687:10 *759:54 0
97 *687:40 *759:54 0.00053309
98 *687:40 *759:58 0.000342528
99 *702:35 *2524:A2 0.000108753
100 *702:35 *759:12 0.000680464
101 *704:29 *759:8 2.23598e-06
102 *704:29 *759:54 2.46566e-05
103 *704:65 *759:54 3.84254e-05
104 *729:10 *759:34 7.84076e-05
105 *756:64 *759:34 1.38714e-05
*RES
1 *3303:Z *759:8 9.228 
2 *759:8 *759:12 6.4 
3 *759:12 *759:14 1.14 
4 *759:14 *759:34 48.856 
5 *759:34 *3301:I 4.5 
6 *759:14 *2527:A3 4.5 
7 *759:12 *759:54 15.596 
8 *759:54 *759:58 10.352 
9 *759:58 *759:64 11.492 
10 *759:64 *759:66 2.508 
11 *759:66 *2637:A2 10.292 
12 *759:66 *3302:I 9.836 
13 *759:64 *759:86 4.5 
14 *759:86 *759:88 0.988 
15 *759:88 *2642:A2 14.184 
16 *759:88 *2648:A2 6.172 
17 *759:86 *2645:A2 4.5 
18 *759:58 *2651:A2 4.5 
19 *759:54 *2654:A2 9 
20 *759:8 *2524:A2 9.988 
*END

*D_NET *760 0.0163082
*CONN
*I *2581:A2 I *D gf180mcu_fd_sc_mcu7t5v0__nor2_1
*I *2582:A2 I *D gf180mcu_fd_sc_mcu7t5v0__aoi211_1
*I *2577:A2 I *D gf180mcu_fd_sc_mcu7t5v0__nor2_1
*I *2580:A2 I *D gf180mcu_fd_sc_mcu7t5v0__aoi211_1
*I *2595:A2 I *D gf180mcu_fd_sc_mcu7t5v0__nor2_1
*I *2568:A2 I *D gf180mcu_fd_sc_mcu7t5v0__nor2_1
*I *2562:A2 I *D gf180mcu_fd_sc_mcu7t5v0__nor2_1
*I *2571:A2 I *D gf180mcu_fd_sc_mcu7t5v0__nor2_1
*I *2592:A2 I *D gf180mcu_fd_sc_mcu7t5v0__nor2_1
*I *2574:A2 I *D gf180mcu_fd_sc_mcu7t5v0__nor2_1
*I *3304:Z O *D gf180mcu_fd_sc_mcu7t5v0__dlyb_1
*CAP
1 *2581:A2 0
2 *2582:A2 0
3 *2577:A2 0.000396018
4 *2580:A2 0.000116769
5 *2595:A2 7.90854e-05
6 *2568:A2 0
7 *2562:A2 0.000470091
8 *2571:A2 0
9 *2592:A2 0
10 *2574:A2 0.000142111
11 *3304:Z 2.92701e-05
12 *760:95 0.00062299
13 *760:84 0.000485475
14 *760:78 0.000473824
15 *760:24 0.000165241
16 *760:20 0.000212128
17 *760:18 0.000659088
18 *760:16 0.000242337
19 *760:14 0.00155249
20 *760:6 0.00159242
21 *2562:A2 *2562:A1 0.00011955
22 *2562:A2 *3008:C2 0.000431371
23 *2562:A2 *3041:C2 0.000182561
24 *2574:A2 *2574:A1 5.37328e-05
25 *2574:A2 *852:12 0.000161681
26 *2577:A2 *2582:C 0.000353157
27 *2577:A2 *796:51 0.000902675
28 *2580:A2 *2495:I 0
29 *760:14 *2590:A1 0.000134622
30 *760:14 *796:12 0.000135062
31 *760:14 *857:10 4.40763e-05
32 *760:14 *858:10 0.00010489
33 *760:14 *860:10 0.00013472
34 *760:16 *2596:A1 3.83835e-06
35 *760:16 *3024:C2 0.000307974
36 *760:16 *853:8 0
37 *760:20 *3041:C2 2.65777e-05
38 *760:20 *795:50 5.97259e-05
39 *760:20 *852:12 0.000966338
40 *760:24 *3041:C2 1.42281e-05
41 *760:24 *852:12 0.000151957
42 *760:78 *2579:A1 7.74188e-05
43 *760:78 *2992:A1 0.000644146
44 *760:78 *857:10 0.000149409
45 *760:95 *2495:I 0
46 *2566:A2 *2562:A2 0
47 *2566:A2 *760:14 0.000275316
48 *2566:A2 *760:16 7.1283e-05
49 *2566:A2 *760:78 5.31277e-05
50 *2572:A3 *760:20 3.19219e-05
51 *2572:A3 *760:24 0.000102192
52 *2580:A1 *2580:A2 0
53 *2580:A1 *760:84 6.04444e-06
54 *2580:B *760:84 0.000618126
55 *2582:B *2577:A2 2.40654e-06
56 *2582:B *760:78 9.52854e-05
57 *2582:B *760:84 0.000129162
58 *2582:B *760:95 8.08741e-05
59 *2587:A2 *2577:A2 0.000257608
60 *2593:A3 *2574:A2 6.73926e-05
61 *2594:A2 *2577:A2 0.000316493
62 *2596:A3 *2595:A2 5.94067e-05
63 *2596:A3 *760:16 3.10919e-05
64 *3124:CLK *2562:A2 0.000222453
65 *3129:D *760:20 0
66 *3132:D *2577:A2 3.73627e-05
67 *3133:D *2580:A2 3.551e-05
68 *3133:D *760:95 7.46669e-05
69 *3137:D *760:14 0.000110823
70 *3137:CLK *760:14 1.14822e-05
71 *3139:D *760:16 0
72 *3300:I *2577:A2 8.55327e-05
73 *227:18 *760:84 0
74 *680:189 *760:14 0.000279644
75 *689:12 *2562:A2 2.22657e-05
76 *736:22 *760:78 0.000286377
77 *736:22 *760:84 0.000545266
*RES
1 *3304:Z *760:6 4.728 
2 *760:6 *760:14 9.348 
3 *760:14 *760:16 1.824 
4 *760:16 *760:18 4.5 
5 *760:18 *760:20 2.66 
6 *760:20 *760:24 5.032 
7 *760:24 *2574:A2 5.944 
8 *760:24 *2592:A2 4.5 
9 *760:20 *2571:A2 9 
10 *760:18 *2562:A2 14.016 
11 *760:16 *2568:A2 4.5 
12 *760:14 *2595:A2 5.184 
13 *760:6 *760:78 8.756 
14 *760:78 *760:84 7.54 
15 *760:84 *2580:A2 5.412 
16 *760:84 *760:95 1.596 
17 *760:95 *2577:A2 9.668 
18 *760:95 *2582:A2 4.5 
19 *760:78 *2581:A2 9 
*END

*D_NET *761 0.0176734
*CONN
*I *2550:A2 I *D gf180mcu_fd_sc_mcu7t5v0__nor2_1
*I *2540:A2 I *D gf180mcu_fd_sc_mcu7t5v0__nor2_1
*I *2543:A2 I *D gf180mcu_fd_sc_mcu7t5v0__nor2_1
*I *2556:A2 I *D gf180mcu_fd_sc_mcu7t5v0__nor2_1
*I *2559:A2 I *D gf180mcu_fd_sc_mcu7t5v0__nor2_1
*I *2549:A2 I *D gf180mcu_fd_sc_mcu7t5v0__aoi211_1
*I *2548:A2 I *D gf180mcu_fd_sc_mcu7t5v0__nor2_1
*I *2553:A2 I *D gf180mcu_fd_sc_mcu7t5v0__nor2_1
*I *2551:A2 I *D gf180mcu_fd_sc_mcu7t5v0__aoi211_1
*I *2534:A2 I *D gf180mcu_fd_sc_mcu7t5v0__nor2_1
*I *3305:Z O *D gf180mcu_fd_sc_mcu7t5v0__dlyb_1
*CAP
1 *2550:A2 0
2 *2540:A2 0.000213739
3 *2543:A2 0.000331894
4 *2556:A2 0.000119047
5 *2559:A2 6.79799e-05
6 *2549:A2 0
7 *2548:A2 0.000289974
8 *2553:A2 0
9 *2551:A2 3.28034e-05
10 *2534:A2 0.000226077
11 *3305:Z 3.48701e-05
12 *761:92 0.000627202
13 *761:81 0.000332049
14 *761:58 0.000498857
15 *761:54 0.000481952
16 *761:52 0.00063056
17 *761:41 0.000381983
18 *761:39 0.000412086
19 *761:31 0.000869811
20 *761:8 0.00101191
21 *2534:A2 *3000:B2 2.09451e-05
22 *2534:A2 *762:14 0
23 *2540:A2 *2540:A1 2.22657e-05
24 *2540:A2 *3016:B2 8.55242e-05
25 *2540:A2 *3024:B2 0.000231966
26 *2543:A2 *3024:B2 2.17248e-05
27 *2543:A2 *785:133 0.000842479
28 *2543:A2 *797:25 9.31684e-05
29 *2543:A2 *797:27 6.49724e-05
30 *2543:A2 *871:12 0.000135327
31 *2548:A2 *2548:A1 1.02578e-05
32 *2548:A2 *2554:A1 3.73535e-05
33 *2548:A2 *2562:A1 4.52262e-05
34 *2548:A2 *795:14 5.42076e-05
35 *2548:A2 *868:8 0.000181916
36 *2556:A2 *2991:B2 8.95196e-05
37 *2556:A2 *786:20 0
38 *2556:A2 *797:72 0
39 *2559:A2 *2991:B2 0
40 *2559:A2 *797:72 4.99429e-05
41 *2559:A2 *849:16 3.92048e-05
42 *761:8 *2978:A1 0.000137785
43 *761:31 *2982:B2 6.95449e-05
44 *761:31 *2999:B2 0.000194544
45 *761:31 *797:46 0.00118286
46 *761:39 *2999:B2 0.00018402
47 *761:39 *3024:B2 7.2627e-05
48 *761:39 *797:46 0.000176687
49 *761:41 *2999:B2 0.000271546
50 *761:41 *797:46 0.000204521
51 *761:52 *2999:B2 0.000431954
52 *761:52 *797:37 0.000944615
53 *761:52 *797:46 0.000139333
54 *761:52 *849:16 9.37296e-06
55 *761:54 *2553:A1 9.45347e-06
56 *761:54 *2560:A1 0
57 *761:54 *2982:B2 1.86291e-05
58 *761:54 *797:37 1.28891e-05
59 *761:58 *2553:A1 6.27023e-05
60 *761:58 *795:18 0.000406051
61 *761:81 *2560:A1 0
62 *761:81 *797:37 5.37016e-05
63 *761:92 *2560:A1 0
64 *761:92 *797:27 0.000110874
65 *761:92 *797:37 6.12154e-05
66 *2544:A2 *2543:A2 8.55327e-05
67 *2544:A3 *2543:A2 0.000186699
68 *2557:A2 *761:92 0
69 *2557:A3 *2543:A2 5.94709e-06
70 *2557:A3 *761:92 2.08148e-05
71 *2560:A3 *761:52 6.68534e-05
72 *2560:A3 *761:54 0
73 *3009:A1 *761:31 0.000346041
74 *3009:A2 *761:31 0.00092726
75 *3017:A2 *2534:A2 0.000115463
76 *3017:A2 *761:31 0.00011571
77 *3025:A2 *761:39 0.000263004
78 *3123:CLK *761:41 0.000140167
79 *3125:D *2556:A2 2.17248e-05
80 *3126:D *761:52 2.6126e-05
81 *680:197 *2540:A2 0.000142185
82 *689:43 *2559:A2 0.000370534
83 *689:43 *761:52 0.000122307
84 *690:10 *2540:A2 0.000137452
85 *693:98 *761:8 2.11524e-05
86 *693:98 *761:31 0.000149409
87 *736:22 *2534:A2 0.000548216
88 *736:22 *761:31 0.000517099
*RES
1 *3305:Z *761:8 9.38 
2 *761:8 *2534:A2 11.204 
3 *761:8 *761:31 14.532 
4 *761:31 *761:39 10.824 
5 *761:39 *761:41 1.596 
6 *761:41 *2551:A2 4.728 
7 *761:41 *761:52 8.832 
8 *761:52 *761:54 1.748 
9 *761:54 *761:58 6.552 
10 *761:58 *2553:A2 4.5 
11 *761:58 *2548:A2 6.932 
12 *761:54 *2549:A2 9 
13 *761:52 *761:81 0.684 
14 *761:81 *2559:A2 9.988 
15 *761:81 *761:92 1.748 
16 *761:92 *2556:A2 9.912 
17 *761:92 *2543:A2 13.104 
18 *761:39 *2540:A2 16.236 
19 *761:31 *2550:A2 4.5 
*END

*D_NET *762 0.0101787
*CONN
*I *3305:I I *D gf180mcu_fd_sc_mcu7t5v0__dlyb_1
*I *2537:A2 I *D gf180mcu_fd_sc_mcu7t5v0__nor2_1
*I *2586:A2 I *D gf180mcu_fd_sc_mcu7t5v0__nor2_1
*I *3304:I I *D gf180mcu_fd_sc_mcu7t5v0__dlyb_1
*I *2583:A2 I *D gf180mcu_fd_sc_mcu7t5v0__nor2_1
*I *2584:A2 I *D gf180mcu_fd_sc_mcu7t5v0__aoi211_1
*I *2589:A2 I *D gf180mcu_fd_sc_mcu7t5v0__nor2_1
*I *3306:Z O *D gf180mcu_fd_sc_mcu7t5v0__dlyb_1
*CAP
1 *3305:I 9.51582e-05
2 *2537:A2 0
3 *2586:A2 0
4 *3304:I 0.000233693
5 *2583:A2 0
6 *2584:A2 0.000113005
7 *2589:A2 0.000798541
8 *3306:Z 0
9 *762:35 0.000488409
10 *762:29 0.000687006
11 *762:27 0.000181741
12 *762:25 0.000217692
13 *762:14 0.00137944
14 *762:4 0.000562199
15 *2584:A2 *2577:A1 0.000594335
16 *2589:A2 *3323:I 0.000148766
17 *2589:A2 *777:48 0.000205971
18 *2589:A2 *864:6 6.05951e-05
19 *3304:I *857:10 3.36123e-05
20 *3305:I *776:42 0.000108532
21 *3305:I *783:39 2.10268e-05
22 *3305:I *783:56 0.000309871
23 *762:14 *3000:B2 0.000365658
24 *762:14 *3016:A1 5.97031e-05
25 *762:14 *777:48 3.15187e-06
26 *762:14 *859:8 6.21566e-05
27 *762:14 *864:6 8.81341e-06
28 *762:25 *3016:A1 0.000514804
29 *762:27 *2586:A1 0.000151949
30 *762:27 *3016:A1 0.000115621
31 *762:35 *2577:A1 7.02034e-05
32 *2534:A2 *762:14 0
33 *2538:A3 *2589:A2 0
34 *2566:A2 *2589:A2 0
35 *2587:A3 *762:27 9.52854e-05
36 *2587:A3 *762:29 0.000660146
37 *2587:A3 *762:35 0.000399191
38 *2590:A3 *2589:A2 0.000707788
39 *3017:A2 *762:14 3.80298e-05
40 *3117:D *762:14 0
41 *3136:D *762:35 4.09047e-05
42 *3300:I *762:25 3.78197e-05
43 *3300:I *762:27 3.26862e-05
44 *3300:I *762:29 5.94709e-05
45 *3300:I *762:35 1.78413e-05
46 *680:171 *3304:I 0
47 *680:171 *762:35 0.000497928
*RES
1 *3306:Z *762:4 4.5 
2 *762:4 *762:14 12.724 
3 *762:14 *2589:A2 10.504 
4 *762:14 *762:25 5.792 
5 *762:25 *762:27 1.14 
6 *762:27 *762:29 1.596 
7 *762:29 *762:35 8.452 
8 *762:35 *2584:A2 14.944 
9 *762:35 *2583:A2 4.5 
10 *762:29 *3304:I 10.444 
11 *762:27 *2586:A2 9 
12 *762:25 *2537:A2 9 
13 *762:4 *3305:I 5.64 
*END

*D_NET *763 0.014559
*CONN
*I *2597:A2 I *D gf180mcu_fd_sc_mcu7t5v0__nor2_1
*I *2598:A2 I *D gf180mcu_fd_sc_mcu7t5v0__aoi211_1
*I *2565:A2 I *D gf180mcu_fd_sc_mcu7t5v0__nor2_1
*I *2608:A2 I *D gf180mcu_fd_sc_mcu7t5v0__nor2_1
*I *2579:A2 I *D gf180mcu_fd_sc_mcu7t5v0__nor2_1
*I *2600:A2 I *D gf180mcu_fd_sc_mcu7t5v0__nor2_1
*I *2606:A2 I *D gf180mcu_fd_sc_mcu7t5v0__nor2_1
*I *2610:A2 I *D gf180mcu_fd_sc_mcu7t5v0__nor2_1
*I *2609:A2 I *D gf180mcu_fd_sc_mcu7t5v0__aoi211_1
*I *2603:A2 I *D gf180mcu_fd_sc_mcu7t5v0__nor2_1
*I *3307:Z O *D gf180mcu_fd_sc_mcu7t5v0__dlyb_1
*CAP
1 *2597:A2 0.000129504
2 *2598:A2 0
3 *2565:A2 0
4 *2608:A2 0
5 *2579:A2 0.000242493
6 *2600:A2 0.000107339
7 *2606:A2 0
8 *2610:A2 0.00038817
9 *2609:A2 8.83703e-05
10 *2603:A2 0.000115194
11 *3307:Z 1.54244e-05
12 *763:82 0.000498366
13 *763:76 0.000500751
14 *763:68 0.000508399
15 *763:50 0.0013378
16 *763:33 0.001038
17 *763:20 0.000233234
18 *763:18 0.000333576
19 *763:14 0.000284714
20 *763:8 0.000370288
21 *2579:A2 *2581:A1 0
22 *2597:A2 *2978:B2 1.08231e-05
23 *2603:A2 *2603:A1 5.52776e-05
24 *2610:A2 *2610:A1 0.000116355
25 *763:14 *798:63 3.83835e-06
26 *763:18 *798:74 0.000109801
27 *763:20 *2603:A1 3.89716e-05
28 *763:20 *798:74 8.83756e-05
29 *763:20 *798:78 1.32435e-05
30 *763:50 *2606:A1 4.98138e-05
31 *763:68 *913:6 0
32 *763:76 *2608:A1 1.08231e-05
33 *763:76 *3000:C2 0.000335667
34 *763:76 *915:8 0
35 *2566:A3 *763:76 5.48085e-05
36 *2598:A1 *763:14 7.47646e-05
37 *2609:A1 *2609:A2 0.000134206
38 *2609:A1 *2610:A2 0.000298527
39 *2609:A1 *763:50 0.000661907
40 *2609:B *763:76 0.0001024
41 *2844:A1 *763:50 0
42 *2976:A3 *2597:A2 5.59457e-05
43 *2976:A3 *763:14 0.000181957
44 *2979:A2 *763:8 0.000135056
45 *3128:CLK *2600:A2 0.000119807
46 *3128:CLK *763:76 0.000342528
47 *3128:CLK *763:82 0.000288951
48 *3140:CLK *763:14 0.000101095
49 *3140:CLK *763:68 0
50 *3140:CLK *763:76 0
51 *3143:D *763:50 0.000255714
52 *3205:D *763:50 0
53 *3286:I *763:50 6.73834e-05
54 *3287:I *763:50 8.30464e-05
55 *3378:I *2597:A2 7.32209e-05
56 *565:8 *2597:A2 2.23783e-05
57 *565:8 *763:14 0.000720087
58 *565:31 *2597:A2 0.000196696
59 *567:20 *2603:A2 0.00032652
60 *567:20 *763:18 0.000580622
61 *567:20 *763:20 0.000889101
62 *568:8 *763:14 0.000480196
63 *568:8 *763:50 0
64 *574:16 *763:8 0.000135056
65 *680:49 *763:50 3.71904e-05
66 *680:171 *2579:A2 0.000267835
67 *680:171 *2600:A2 3.06387e-05
68 *680:171 *2603:A2 5.23728e-05
69 *691:6 *2603:A2 0.000310356
70 *691:6 *2609:A2 5.48455e-05
71 *691:6 *763:50 0.000150989
72 *735:12 *2600:A2 9.45209e-05
73 *735:12 *763:82 0.000143087
74 *758:36 *2610:A2 0
75 *758:36 *763:50 1.05323e-05
*RES
1 *3307:Z *763:8 9.38 
2 *763:8 *763:14 8.908 
3 *763:14 *763:18 5.944 
4 *763:18 *763:20 2.204 
5 *763:20 *2603:A2 10.672 
6 *763:20 *763:33 4.5 
7 *763:33 *2609:A2 5.336 
8 *763:33 *763:50 16.828 
9 *763:50 *2610:A2 7.692 
10 *763:50 *2606:A2 4.5 
11 *763:18 *763:68 5.336 
12 *763:68 *763:76 12.04 
13 *763:76 *763:82 6.476 
14 *763:82 *2600:A2 10.14 
15 *763:82 *2579:A2 10.748 
16 *763:76 *2608:A2 4.5 
17 *763:68 *2565:A2 4.5 
18 *763:14 *2598:A2 4.5 
19 *763:8 *2597:A2 10.064 
*END

*D_NET *764 0.0240377
*CONN
*I *2531:A2 I *D gf180mcu_fd_sc_mcu7t5v0__nor2_1
*I *2624:A2 I *D gf180mcu_fd_sc_mcu7t5v0__nor2_1
*I *2613:A2 I *D gf180mcu_fd_sc_mcu7t5v0__nor2_1
*I *2627:A2 I *D gf180mcu_fd_sc_mcu7t5v0__nor2_1
*I *2611:A2 I *D gf180mcu_fd_sc_mcu7t5v0__aoi211_1
*I *2616:A2 I *D gf180mcu_fd_sc_mcu7t5v0__nor2_1
*I *2619:A2 I *D gf180mcu_fd_sc_mcu7t5v0__nor2_1
*I *2625:A2 I *D gf180mcu_fd_sc_mcu7t5v0__aoi211_1
*I *2622:A2 I *D gf180mcu_fd_sc_mcu7t5v0__nor2_1
*I *3307:I I *D gf180mcu_fd_sc_mcu7t5v0__dlyb_1
*I *3308:Z O *D gf180mcu_fd_sc_mcu7t5v0__dlyb_1
*CAP
1 *2531:A2 0
2 *2624:A2 0
3 *2613:A2 0
4 *2627:A2 0.000349722
5 *2611:A2 0.000636333
6 *2616:A2 0
7 *2619:A2 0.000177907
8 *2625:A2 0.000169853
9 *2622:A2 0
10 *3307:I 0.000168764
11 *3308:Z 0.000208383
12 *764:102 0.000405091
13 *764:89 0.000840083
14 *764:78 0.000250201
15 *764:54 0.000485541
16 *764:52 0.000364576
17 *764:44 0.000316874
18 *764:31 0.000499258
19 *764:18 0.00106291
20 *764:6 0.00079517
21 *2611:A2 *2610:A1 0
22 *2611:A2 *2617:A1 5.94709e-06
23 *2611:A2 *3023:B2 0
24 *2611:A2 *3031:B2 3.80391e-05
25 *2619:A2 *2625:C 0.000124452
26 *2619:A2 *2843:B 0.000832837
27 *2619:A2 *799:105 9.19281e-05
28 *2627:A2 *3031:B2 0
29 *3307:I *2565:A1 7.82633e-06
30 *3307:I *2999:A1 9.57657e-05
31 *3307:I *3015:B2 0.00147635
32 *3307:I *3362:I 8.8425e-05
33 *764:18 *3015:B2 0.000761809
34 *764:18 *3362:I 0.000253849
35 *764:18 *782:14 0
36 *764:31 *2999:A1 7.22665e-05
37 *764:31 *778:8 0.000343684
38 *764:44 *2624:A1 0.000787685
39 *764:44 *3007:B1 6.91851e-05
40 *764:44 *799:95 4.2691e-05
41 *764:52 *3007:A1 0
42 *764:52 *3007:B2 0
43 *764:89 *3031:B2 7.34664e-05
44 *2532:A3 *764:6 0.00020464
45 *2598:B *3307:I 0.000841078
46 *2611:B *2611:A2 0.000325645
47 *2614:A2 *2611:A2 1.99784e-05
48 *2614:A3 *2611:A2 0.000102644
49 *2614:A3 *764:102 0.000255722
50 *2617:A3 *2611:A2 3.70032e-05
51 *2617:A3 *2627:A2 0.000562336
52 *2620:A2 *764:78 0.000427414
53 *2620:A2 *764:89 0.000146657
54 *2625:B *2625:A2 6.04444e-06
55 *2625:B *764:52 0.000344598
56 *2625:B *764:54 0.000139294
57 *2828:A1 *2611:A2 0.0004462
58 *2844:A2 *764:44 8.05744e-05
59 *2844:A2 *764:78 0.000890637
60 *2844:A2 *764:89 0.000161672
61 *2971:A1 *764:6 2.57058e-06
62 *2971:A1 *764:18 0.000713148
63 *2981:A2 *764:18 6.96624e-05
64 *2981:A3 *764:18 7.83779e-05
65 *3001:A1 *764:6 1.34615e-05
66 *3001:A2 *764:6 0.000540465
67 *3009:A1 *764:31 0.00174351
68 *3025:A2 *764:6 5.57887e-05
69 *3025:A2 *764:18 1.64406e-05
70 *3143:CLK *2625:A2 0
71 *3143:CLK *764:52 0.000433917
72 *3143:CLK *764:54 0
73 *3146:D *2611:A2 0.000136491
74 *3150:D *764:54 0.000344165
75 *3151:D *2627:A2 0
76 *3152:CLK *764:44 0.000562336
77 *3292:I *764:52 0.000135941
78 *3292:I *764:54 0.000496517
79 *3295:I *764:102 0.000134206
80 *3377:I *764:18 3.51785e-05
81 *228:6 *764:18 0.000123561
82 *228:12 *764:18 0.000403738
83 *565:31 *3307:I 0.000134938
84 *575:8 *764:18 0.000125838
85 *575:15 *764:18 0.00013586
86 *575:30 *764:18 3.75951e-05
87 *693:10 *764:44 0.000596614
88 *693:98 *764:31 0
89 *750:10 *2619:A2 7.83779e-05
90 *758:20 *2627:A2 0
91 *758:24 *2627:A2 0
*RES
1 *3308:Z *764:6 6.856 
2 *764:6 *764:18 10.96 
3 *764:18 *3307:I 13.028 
4 *764:18 *764:31 9.136 
5 *764:31 *2622:A2 4.5 
6 *764:31 *764:44 12.8 
7 *764:44 *764:52 6.4 
8 *764:52 *764:54 2.356 
9 *764:54 *2625:A2 9.836 
10 *764:54 *2619:A2 11.584 
11 *764:52 *764:78 7.008 
12 *764:78 *2616:A2 4.5 
13 *764:78 *764:89 6.324 
14 *764:89 *2611:A2 15.612 
15 *764:89 *764:102 5.336 
16 *764:102 *2627:A2 16.464 
17 *764:102 *2613:A2 4.5 
18 *764:44 *2624:A2 4.5 
19 *764:6 *2531:A2 4.5 
*END

*D_NET *765 0.0161222
*CONN
*I *2630:A2 I *D gf180mcu_fd_sc_mcu7t5v0__nor2_1
*I *2632:A2 I *D gf180mcu_fd_sc_mcu7t5v0__nor2_1
*I *2633:A2 I *D gf180mcu_fd_sc_mcu7t5v0__aoi211_1
*I *3308:I I *D gf180mcu_fd_sc_mcu7t5v0__dlyb_1
*I *3306:I I *D gf180mcu_fd_sc_mcu7t5v0__dlyb_1
*I *3309:Z O *D gf180mcu_fd_sc_mcu7t5v0__dlyb_1
*CAP
1 *2630:A2 0.000102189
2 *2632:A2 0.000109798
3 *2633:A2 0
4 *3308:I 0
5 *3306:I 0.000203031
6 *3309:Z 2.79978e-05
7 *765:62 0.000958191
8 *765:54 0.00173585
9 *765:10 0.000342465
10 *765:6 0.000952698
11 *2630:A2 *2978:C1 0.000464897
12 *2630:A2 *2991:A1 2.23783e-05
13 *2630:A2 *3015:A1 0.000432987
14 *2632:A2 *3023:A1 0.000105817
15 *3306:I *2991:B2 0.000307974
16 *765:10 *2991:B2 0.000913542
17 *765:54 *2977:I 0.000181437
18 *765:54 *2991:B2 0.001553
19 *765:54 *2991:C2 1.19024e-05
20 *765:54 *3015:A1 0.000447872
21 *765:54 *775:20 9.88736e-06
22 *765:62 *2978:C1 0.000328929
23 *765:62 *2991:A1 0.00014839
24 *765:62 *2991:C2 0.000487638
25 *765:62 *3015:A1 4.00328e-06
26 *765:62 *3023:A1 0.00019064
27 *765:62 *3031:B1 0
28 *765:62 *774:26 7.50749e-05
29 *765:62 *774:41 0
30 *765:62 *778:24 0
31 *765:62 *799:68 4.24867e-05
32 *2631:A2 *765:62 0.000476393
33 *2631:A3 *765:62 0.000248576
34 *2633:A1 *2632:A2 0.000680171
35 *2965:A1 *765:54 0.000113139
36 *2981:A1 *765:54 1.94399e-05
37 *2984:A2 *765:54 4.21332e-05
38 *2991:B1 *765:54 8.02751e-06
39 *3011:C *3306:I 0
40 *3017:A1 *765:54 7.40114e-05
41 *3017:A2 *3306:I 0.00153985
42 *3025:A1 *2630:A2 0.000145032
43 *3025:A1 *765:62 0.000266206
44 *3025:A2 *3306:I 4.5452e-05
45 *3025:A2 *765:6 1.5015e-05
46 *3025:A2 *765:10 0.000435105
47 *3025:A2 *765:54 0.000238924
48 *3033:A1 *2630:A2 2.14981e-05
49 *3047:A3 *765:54 0.000305592
50 *3149:D *765:62 3.91981e-05
51 *3377:I *765:54 0.00011955
52 *634:16 *765:54 2.78433e-05
53 *736:33 *3306:I 0.000941191
54 *736:46 *3306:I 0.000158809
*RES
1 *3309:Z *765:6 4.728 
2 *765:6 *765:10 2.888 
3 *765:10 *3306:I 18.212 
4 *765:10 *3308:I 4.5 
5 *765:6 *765:54 31.164 
6 *765:54 *765:62 12.936 
7 *765:62 *2633:A2 4.5 
8 *765:62 *2632:A2 6.248 
9 *765:54 *2630:A2 11.052 
*END

*D_NET *766 0.017403
*CONN
*I *2646:A2 I *D gf180mcu_fd_sc_mcu7t5v0__nor2_1
*I *2655:A2 I *D gf180mcu_fd_sc_mcu7t5v0__nor2_1
*I *2658:A2 I *D gf180mcu_fd_sc_mcu7t5v0__nor2_1
*I *2652:A2 I *D gf180mcu_fd_sc_mcu7t5v0__nor2_1
*I *2649:A2 I *D gf180mcu_fd_sc_mcu7t5v0__nor2_1
*I *2638:A2 I *D gf180mcu_fd_sc_mcu7t5v0__nor2_1
*I *2635:A2 I *D gf180mcu_fd_sc_mcu7t5v0__nor2_1
*I *2643:A2 I *D gf180mcu_fd_sc_mcu7t5v0__nor2_1
*I *2641:A2 I *D gf180mcu_fd_sc_mcu7t5v0__aoi211_1
*I *2640:A2 I *D gf180mcu_fd_sc_mcu7t5v0__nor2_1
*I *3310:Z O *D gf180mcu_fd_sc_mcu7t5v0__dlyb_1
*CAP
1 *2646:A2 0.000237279
2 *2655:A2 0.000281372
3 *2658:A2 0
4 *2652:A2 4.66505e-05
5 *2649:A2 6.17252e-05
6 *2638:A2 6.33376e-05
7 *2635:A2 0
8 *2643:A2 0
9 *2641:A2 0.000208495
10 *2640:A2 0
11 *3310:Z 0.000431934
12 *766:89 0.000414483
13 *766:78 0.00079232
14 *766:28 0.000282023
15 *766:22 0.000432568
16 *766:16 0.000507388
17 *766:12 0.000544446
18 *766:10 0.000461659
19 *766:8 0.000874387
20 *2638:A2 *2635:A1 8.8425e-05
21 *2638:A2 *3023:C2 6.17482e-06
22 *2638:A2 *799:38 0.000134113
23 *2641:A2 *2641:C 0.000140167
24 *2641:A2 *2999:C2 9.06224e-05
25 *2641:A2 *799:27 0.000782422
26 *2641:A2 *906:8 0
27 *2652:A2 *2653:A1 6.68265e-05
28 *2655:A2 *2655:A1 0.000125867
29 *2655:A2 *2662:A1 0.000770408
30 *2655:A2 *3023:C2 2.40654e-06
31 *2655:A2 *3031:C2 1.86241e-05
32 *2655:A2 *3317:I 5.15843e-05
33 *2655:A2 *792:14 4.38097e-05
34 *2655:A2 *911:10 3.84833e-05
35 *766:10 *3023:C2 0.000128875
36 *766:12 *3023:C2 0.000458514
37 *766:12 *799:38 5.70962e-05
38 *766:16 *799:27 0.000148486
39 *766:16 *799:38 1.20079e-05
40 *766:22 *799:27 0.000187379
41 *766:22 *905:8 0.00011955
42 *766:78 *2652:A1 0
43 *766:78 *3015:C2 4.724e-05
44 *766:78 *3023:C2 0.000610671
45 *766:78 *912:12 0.00070767
46 *766:89 *3023:C2 0.000106376
47 *766:89 *3031:C2 1.32333e-05
48 *2636:A3 *766:16 0.000230208
49 *2639:A3 *2638:A2 5.19228e-05
50 *2641:A1 *2641:A2 0.000953375
51 *2644:A2 *2649:A2 4.04599e-05
52 *2644:A2 *766:8 0.00010693
53 *2644:A3 *766:28 0.000394625
54 *2647:A2 *2646:A2 0.000219168
55 *2647:A2 *766:8 0.000820994
56 *2647:A3 *2646:A2 0.000568059
57 *2650:A2 *2649:A2 9.54497e-05
58 *2656:A3 *2655:A2 5.81307e-05
59 *2659:A3 *2655:A2 0.000335795
60 *3042:A1 *766:22 0
61 *3154:D *766:12 0
62 *3155:D *766:12 0.000394625
63 *3158:CLK *2646:A2 0.000386421
64 *3163:CLK *766:78 2.56734e-05
65 *3275:I *2641:A2 1.53727e-05
66 *3275:I *766:22 0.000141897
67 *3275:I *766:28 4.72461e-05
68 *3316:I *2652:A2 0.000255722
69 *3374:I *2646:A2 0.000773961
70 *680:228 *766:78 3.73079e-05
71 *680:240 *2655:A2 1.08481e-05
72 *680:240 *766:78 6.80909e-05
73 *680:240 *766:89 3.24054e-05
74 *684:19 *766:10 0.000172453
75 *684:19 *766:78 0.000228415
76 *684:25 *766:10 3.35674e-05
77 *684:25 *766:12 0.000171712
78 *684:45 *2649:A2 0.000135056
79 *684:49 *2646:A2 0
*RES
1 *3310:Z *766:8 11.204 
2 *766:8 *766:10 1.14 
3 *766:10 *766:12 3.572 
4 *766:12 *766:16 6.096 
5 *766:16 *766:22 3.116 
6 *766:22 *766:28 9.988 
7 *766:28 *2640:A2 4.5 
8 *766:28 *2641:A2 8.3 
9 *766:22 *2643:A2 4.5 
10 *766:16 *2635:A2 4.5 
11 *766:12 *2638:A2 9.912 
12 *766:10 *2649:A2 9.684 
13 *766:8 *766:78 6.916 
14 *766:78 *2652:A2 9.684 
15 *766:78 *766:89 1.14 
16 *766:89 *2658:A2 9 
17 *766:89 *2655:A2 12.648 
18 *3310:Z *2646:A2 12.952 
*END

*D_NET *767 0.0247381
*CONN
*I *3106:A2 I *D gf180mcu_fd_sc_mcu7t5v0__aoi211_1
*I *2524:A1 I *D gf180mcu_fd_sc_mcu7t5v0__nand2_1
*I *2525:A3 I *D gf180mcu_fd_sc_mcu7t5v0__oai32_1
*I *2527:A2 I *D gf180mcu_fd_sc_mcu7t5v0__nand3_1
*I *3113:A2 I *D gf180mcu_fd_sc_mcu7t5v0__nor2_1
*I *3111:A2 I *D gf180mcu_fd_sc_mcu7t5v0__nor2_1
*I *3109:A2 I *D gf180mcu_fd_sc_mcu7t5v0__nor2_1
*I *3112:A2 I *D gf180mcu_fd_sc_mcu7t5v0__aoi211_1
*I *3110:A2 I *D gf180mcu_fd_sc_mcu7t5v0__aoi211_1
*I *3114:A2 I *D gf180mcu_fd_sc_mcu7t5v0__aoi211_1
*I *3311:Z O *D gf180mcu_fd_sc_mcu7t5v0__dlyb_1
*CAP
1 *3106:A2 0.000302626
2 *2524:A1 2.98811e-05
3 *2525:A3 5.34116e-05
4 *2527:A2 5.51761e-05
5 *3113:A2 0
6 *3111:A2 0
7 *3109:A2 0.000153702
8 *3112:A2 0.000516837
9 *3110:A2 0
10 *3114:A2 8.85261e-06
11 *3311:Z 0.000117063
12 *767:131 0.000351743
13 *767:114 0.000560005
14 *767:106 0.0010083
15 *767:43 0.000675297
16 *767:39 0.000536907
17 *767:33 0.000664288
18 *767:25 0.00074207
19 *767:10 0.000454797
20 *767:6 0.000729779
21 *2524:A1 *804:54 5.72245e-06
22 *2525:A3 *805:43 2.10698e-05
23 *3106:A2 *2518:B 2.57058e-06
24 *3106:A2 *3329:I 3.74244e-05
25 *3106:A2 *872:10 0
26 *3109:A2 *800:46 1.35204e-05
27 *3109:A2 *800:59 7.98484e-05
28 *3112:A2 *3110:C 3.83835e-06
29 *767:6 *792:34 0.00040687
30 *767:10 *803:10 0
31 *767:10 *808:8 0.00015172
32 *767:33 *3019:C1 0.000207218
33 *767:33 *3019:C2 0.0007481
34 *767:33 *3094:A1 6.57508e-05
35 *767:33 *773:8 7.71175e-06
36 *767:39 *3002:A2 4.29636e-05
37 *767:39 *3094:A1 3.21021e-05
38 *767:43 *3002:A2 4.29636e-06
39 *767:43 *3011:B2 0.000129111
40 *767:106 *2987:B2 1.11891e-05
41 *767:106 *3083:A1 0.000557712
42 *767:106 *3329:I 2.4945e-05
43 *767:106 *792:34 0.000252939
44 *767:106 *803:10 3.41363e-05
45 *767:106 *808:8 0.000164555
46 *767:114 *769:10 0.000501254
47 *767:131 *769:10 0.000916828
48 *767:131 *769:25 8.84331e-05
49 *767:131 *804:54 2.14567e-06
50 *2475:I *767:131 0.000120313
51 *2518:A1 *3106:A2 1.76898e-05
52 *2518:A2 *3106:A2 0.000312872
53 *2519:B *3106:A2 7.26949e-05
54 *2519:B *767:106 9.88736e-06
55 *2521:A1 *767:106 8.55242e-05
56 *2521:A1 *767:114 0.00146985
57 *2521:A2 *767:106 0.000193055
58 *2522:A3 *767:25 9.26705e-05
59 *2529:A1 *2527:A2 4.58601e-06
60 *2529:A2 *2527:A2 0.000190028
61 *2988:A1 *767:10 0.000274401
62 *3019:A2 *767:33 0
63 *3044:A1 *767:39 0.000796041
64 *3044:A1 *767:43 0.000541945
65 *3083:A2 *767:106 0.000665988
66 *3093:A2 *767:33 0.000178824
67 *3105:B1 *767:114 5.66946e-05
68 *3105:B2 *3106:A2 7.3102e-05
69 *3105:B2 *767:114 0.000321954
70 *3110:A1 *3112:A2 1.47893e-05
71 *3110:B *3109:A2 9.88736e-06
72 *3112:B *3112:A2 0.00034526
73 *3113:A1 *767:33 2.54637e-05
74 *3114:A1 *3114:A2 0.000213194
75 *3114:A1 *767:10 0.000594335
76 *3114:B *3114:A2 0.000213194
77 *3114:B *767:10 0.000428666
78 *3114:B *767:25 9.68722e-05
79 *3257:D *767:106 0
80 *3267:D *3112:A2 7.83779e-05
81 *3268:D *3112:A2 1.39031e-05
82 *3268:CLK *3112:A2 0.000334951
83 *3270:D *2524:A1 0.000147313
84 *3270:D *767:131 0.000177496
85 *3277:I *767:43 1.34641e-06
86 *3291:I *3112:A2 0.000118078
87 *212:58 *3109:A2 0.000113413
88 *212:62 *3112:A2 0.000311663
89 *230:20 *2525:A3 0.000269857
90 *230:20 *767:114 0.000405556
91 *230:20 *767:131 8.27523e-05
92 *240:8 *767:25 9.38152e-05
93 *241:8 *3106:A2 8.04139e-05
94 *243:16 *3106:A2 5.61891e-05
95 *243:16 *767:106 0.000176328
96 *243:26 *3106:A2 4.66148e-05
97 *467:30 *3109:A2 1.22367e-05
98 *467:30 *3112:A2 9.88479e-05
99 *656:6 *767:25 3.6043e-05
100 *656:6 *767:33 2.74753e-05
101 *656:87 *767:33 0.00210014
102 *656:95 *767:33 0.000167816
103 *656:95 *767:39 0.000182882
104 *680:120 *3112:A2 3.34081e-05
105 *695:85 *767:39 4.02633e-05
106 *696:10 *3112:A2 0.000126956
107 *696:12 *3112:A2 4.78829e-05
108 *699:10 *3112:A2 0.000137776
109 *701:42 *767:6 4.84684e-05
110 *701:42 *767:106 4.27211e-05
111 *702:16 *767:131 0.000173961
112 *702:35 *767:114 4.86993e-06
113 *702:35 *767:131 7.93657e-06
114 *704:29 *2527:A2 2.07535e-05
115 *707:58 *3109:A2 3.60816e-06
116 *729:16 *767:33 2.15203e-05
*RES
1 *3311:Z *767:6 5.64 
2 *767:6 *767:10 7.16 
3 *767:10 *3114:A2 9.532 
4 *767:10 *767:25 6.628 
5 *767:25 *767:33 6.992 
6 *767:33 *767:39 7.084 
7 *767:39 *767:43 5.944 
8 *767:43 *3110:A2 4.5 
9 *767:43 *3112:A2 18.516 
10 *767:39 *3109:A2 19.14 
11 *767:33 *3111:A2 4.5 
12 *767:25 *3113:A2 4.5 
13 *767:6 *767:106 14.7 
14 *767:106 *767:114 9.896 
15 *767:114 *2527:A2 9.532 
16 *767:114 *767:131 7.92 
17 *767:131 *2525:A3 14.184 
18 *767:131 *2524:A1 4.88 
19 *767:106 *3106:A2 16.16 
*END

*D_NET *768 0.00382958
*CONN
*I *2970:A3 I *D gf180mcu_fd_sc_mcu7t5v0__nand4_1
*I *2505:I I *D gf180mcu_fd_sc_mcu7t5v0__clkinv_1
*I *2507:A3 I *D gf180mcu_fd_sc_mcu7t5v0__nand4_1
*I *3350:Z O *D gf180mcu_fd_sc_mcu7t5v0__dlyb_1
*CAP
1 *2970:A3 2.63352e-05
2 *2505:I 0.000357149
3 *2507:A3 0
4 *3350:Z 0.000104155
5 *768:19 0.000425772
6 *768:12 0.000146443
7 *2507:A2 *768:12 0.000154451
8 *2507:A2 *768:19 0.00020108
9 *2507:A4 *2970:A3 0.000166315
10 *2507:A4 *768:12 4.50449e-05
11 *2507:A4 *768:19 7.56027e-05
12 *2972:A1 *2505:I 2.15925e-05
13 *2972:A2 *2505:I 0
14 *2973:A2 *2970:A3 0.000379283
15 *2973:A2 *768:19 5.4634e-05
16 *3334:I *768:12 5.91499e-05
17 *3334:I *768:19 0.000142209
18 *3348:I *2970:A3 6.17803e-05
19 *3348:I *768:19 0.000379283
20 *227:18 *768:12 1.91917e-06
21 *735:12 *768:12 7.22944e-05
22 *746:10 *2505:I 0.000475998
23 *746:12 *768:19 0.000479091
*RES
1 *3350:Z *768:12 14.868 
2 *768:12 *2507:A3 4.5 
3 *768:12 *768:19 1.9 
4 *768:19 *2505:I 15.856 
5 *768:19 *2970:A3 5.488 
*END

*D_NET *769 0.0195836
*CONN
*I *3105:A2 I *D gf180mcu_fd_sc_mcu7t5v0__oai22_1
*I *3115:A2 I *D gf180mcu_fd_sc_mcu7t5v0__nor2_1
*I *3107:A2 I *D gf180mcu_fd_sc_mcu7t5v0__nor2_1
*I *3108:A2 I *D gf180mcu_fd_sc_mcu7t5v0__aoi211_1
*I *3116:A2 I *D gf180mcu_fd_sc_mcu7t5v0__aoi211_1
*I *3312:Z O *D gf180mcu_fd_sc_mcu7t5v0__dlyb_1
*CAP
1 *3105:A2 6.06232e-05
2 *3115:A2 0
3 *3107:A2 0.000158453
4 *3108:A2 5.27631e-05
5 *3116:A2 5.93879e-05
6 *3312:Z 0
7 *769:43 0.00159471
8 *769:25 0.00151944
9 *769:10 0.00044466
10 *769:4 0.000309952
11 *3105:A2 *3057:B 3.83835e-06
12 *3116:A2 *804:54 1.53627e-05
13 *769:10 *3057:B 3.36925e-05
14 *769:25 *3116:C 0.000136112
15 *769:25 *3326:I 1.75634e-05
16 *769:43 *3035:B2 1.07909e-05
17 *769:43 *3326:I 0.000331964
18 *769:43 *3330:I 0
19 *769:43 *804:28 8.59748e-05
20 *769:43 *805:22 0
21 *769:43 *806:8 0.000328211
22 *769:43 *806:45 0.00416725
23 *769:43 *813:10 5.14116e-06
24 DAT_O[6] *3108:A2 0.000107848
25 *2521:A1 *769:10 0.00088077
26 *2525:A1 *769:25 0.000388734
27 *2525:A1 *769:43 0.000209085
28 *2761:A1 *769:43 6.17803e-05
29 *3029:B1 *769:43 1.53727e-05
30 *3035:C1 *769:25 0.00041486
31 *3035:C1 *769:43 0.000201947
32 *3116:A1 *769:10 0.000569371
33 *3116:A1 *769:25 0.000188292
34 *3116:B *3116:A2 1.34435e-05
35 *3270:D *3116:A2 9.88736e-06
36 *3303:I *3105:A2 0.00107739
37 *3335:I *769:43 0.000116355
38 *3337:I *3108:A2 0.000379274
39 *3338:I *3107:A2 2.97126e-05
40 *3338:I *769:43 1.07713e-05
41 *3341:I *769:43 0
42 *3344:I *769:43 5.13352e-06
43 *3354:I *769:43 4.29636e-06
44 *3371:I *769:43 0.00144416
45 *3372:I *769:43 0.000966958
46 *616:22 *769:43 6.75394e-05
47 *682:97 *769:43 0.000262996
48 *702:16 *769:25 0.000197953
49 *702:35 *3105:A2 0.00107739
50 *725:8 *769:43 2.71239e-05
51 *759:14 *3105:A2 2.23598e-06
52 *759:14 *769:10 1.05564e-05
53 *767:114 *769:10 0.000501254
54 *767:131 *769:10 0.000916828
55 *767:131 *769:25 8.84331e-05
*RES
1 *3312:Z *769:4 4.5 
2 *769:4 *769:10 9.06 
3 *769:10 *3116:A2 9.38 
4 *769:10 *769:25 7.084 
5 *769:25 *769:43 32.196 
6 *769:43 *3108:A2 9.988 
7 *769:43 *3107:A2 9.988 
8 *769:25 *3115:A2 4.5 
9 *769:4 *3105:A2 16.388 
*END

*D_NET *770 0.00698476
*CONN
*I *2987:C1 I *D gf180mcu_fd_sc_mcu7t5v0__aoi222_1
*I *3027:C1 I *D gf180mcu_fd_sc_mcu7t5v0__aoi222_1
*I *3054:A2 I *D gf180mcu_fd_sc_mcu7t5v0__and2_1
*I *3055:A2 I *D gf180mcu_fd_sc_mcu7t5v0__nand2_1
*I *3355:Z O *D gf180mcu_fd_sc_mcu7t5v0__clkbuf_1
*CAP
1 *2987:C1 0
2 *3027:C1 0.000106342
3 *3054:A2 0
4 *3055:A2 0
5 *3355:Z 0.000242382
6 *770:32 0.000234655
7 *770:21 0.000585481
8 *770:8 0.000699549
9 *770:21 *822:29 2.03665e-05
10 *770:32 *3056:A1 5.22519e-05
11 *770:32 *822:29 0.000254229
12 *2988:A1 *770:32 0.000132634
13 *2989:B2 *3027:C1 0.00137808
14 *3096:A2 *770:21 0.000193032
15 *3101:A2 *770:21 0.000174758
16 *580:45 *770:21 0.000414869
17 *580:45 *770:32 0.000115614
18 *580:49 *3027:C1 0.00139636
19 *639:6 *770:32 3.07734e-05
20 *639:20 *770:21 0.000268053
21 *640:84 *770:21 6.11547e-05
22 *657:25 *770:8 0.00036253
23 *657:25 *770:21 6.83457e-05
24 *729:10 *770:8 4.16068e-05
25 *729:10 *770:21 9.29478e-05
26 *729:16 *770:8 4.75539e-05
27 *759:34 *770:21 1.11891e-05
*RES
1 *3355:Z *770:8 11.66 
2 *770:8 *3055:A2 9 
3 *770:8 *770:21 9.516 
4 *770:21 *3054:A2 4.5 
5 *770:21 *770:32 1.596 
6 *770:32 *3027:C1 17.224 
7 *770:32 *2987:C1 4.5 
*END

*D_NET *771 0.011412
*CONN
*I *3035:B1 I *D gf180mcu_fd_sc_mcu7t5v0__aoi222_1
*I *2995:C1 I *D gf180mcu_fd_sc_mcu7t5v0__aoi222_1
*I *3039:B1 I *D gf180mcu_fd_sc_mcu7t5v0__aoi222_1
*I *3356:Z O *D gf180mcu_fd_sc_mcu7t5v0__clkbuf_1
*CAP
1 *3035:B1 0.000240039
2 *2995:C1 0.000185357
3 *3039:B1 2.66818e-05
4 *3356:Z 0.000368371
5 *771:23 0.000664018
6 *771:10 0.000633674
7 *2995:C1 *2756:A1 0.00111745
8 *2995:C1 *2995:A2 3.84832e-06
9 *2995:C1 *2995:B1 5.77361e-05
10 *3035:B1 *2756:A1 0.00124467
11 *3035:B1 *2995:A2 1.11891e-05
12 *3035:B1 *3035:B2 2.05156e-05
13 *3039:B1 *2741:A1 7.83779e-05
14 *771:10 *2481:I 0
15 *771:10 *3010:A2 0.000390052
16 *771:10 *3355:I 3.73627e-05
17 *771:10 *773:18 0.000864963
18 *771:10 *818:17 3.14479e-05
19 *771:23 *2995:B1 0
20 *771:23 *3102:A1 6.71348e-05
21 *771:23 *3103:B 0.000435289
22 *771:23 *773:18 0.000113475
23 *771:23 *821:10 1.12331e-05
24 *3036:A1 *771:10 0
25 *3036:A2 *2995:C1 4.02903e-05
26 *3036:A2 *3035:B1 0.000489426
27 *3074:A2 *2995:C1 0.000597061
28 *3075:A2 *771:23 5.43087e-05
29 *3075:A3 *2995:C1 0.000223963
30 *3075:A3 *771:23 0.000991819
31 *3253:CLK *771:10 3.03346e-05
32 *3255:D *771:23 0.00121468
33 *3264:D *3039:B1 8.81341e-06
34 *563:66 *3035:B1 3.21564e-05
35 *563:70 *3035:B1 5.76063e-06
36 *657:65 *771:10 0.000698522
37 *657:65 *771:23 0.000244694
38 *682:12 *771:23 3.45972e-05
39 *682:14 *771:23 6.18153e-06
40 *729:10 *3035:B1 0.000136499
*RES
1 *3356:Z *771:10 14.168 
2 *771:10 *3039:B1 9.228 
3 *771:10 *771:23 9.592 
4 *771:23 *2995:C1 8.148 
5 *771:23 *3035:B1 17.604 
*END

*D_NET *772 0.0127711
*CONN
*I *3010:A2 I *D gf180mcu_fd_sc_mcu7t5v0__nand2_1
*I *3355:I I *D gf180mcu_fd_sc_mcu7t5v0__clkbuf_1
*I *3356:I I *D gf180mcu_fd_sc_mcu7t5v0__clkbuf_1
*I *3019:C1 I *D gf180mcu_fd_sc_mcu7t5v0__aoi222_1
*I *3003:B1 I *D gf180mcu_fd_sc_mcu7t5v0__aoi221_1
*I *3376:Z O *D gf180mcu_fd_sc_mcu7t5v0__buf_1
*CAP
1 *3010:A2 0.000689147
2 *3355:I 0.000265852
3 *3356:I 0
4 *3019:C1 0.000324312
5 *3003:B1 0.000141676
6 *3376:Z 4.72403e-05
7 *772:42 0.000265852
8 *772:40 0.000774809
9 *772:27 0.000759104
10 *772:10 0.000538045
11 *3010:A2 *2754:A1 0.000421235
12 *3010:A2 *3010:A1 3.08902e-05
13 *3010:A2 *3069:C 0
14 *3010:A2 *3090:A1 0.000170031
15 *3010:A2 *773:18 2.5943e-05
16 *3010:A2 *792:34 0.000205195
17 *3010:A2 *818:17 8.4112e-05
18 *3019:C1 *3019:C2 0.000626913
19 *3019:C1 *3094:A1 9.88736e-06
20 *3019:C1 *773:10 0.000168312
21 *3019:C1 *773:18 5.87561e-06
22 *3355:I *3019:B2 0.000482193
23 *3355:I *773:8 0.000438681
24 *3355:I *773:10 0.00113922
25 *3355:I *773:18 7.83779e-05
26 *3355:I *792:34 0
27 *3355:I *818:17 7.61855e-05
28 *772:10 *3011:B1 0.000135941
29 *772:27 *3011:B1 0.00134242
30 *772:27 *773:48 0.000482784
31 *772:40 *773:18 2.20475e-05
32 *772:40 *773:48 0.000263004
33 *3003:C *3003:B1 0.000500227
34 *3003:C *772:10 0.00013063
35 *3004:A2 *3003:B1 8.55242e-05
36 *3012:A1 *3010:A2 3.13603e-05
37 *3019:A2 *3355:I 0.000169363
38 *3065:A2 *3010:A2 1.58994e-05
39 *3087:A2 *772:27 8.4043e-05
40 *3087:A2 *772:40 3.75002e-05
41 *3090:A2 *3010:A2 0.000140167
42 *3093:A2 *3019:C1 7.71175e-06
43 *3110:B *772:27 7.24775e-05
44 *3112:B *3003:B1 0.000307974
45 *3112:B *772:27 7.94187e-05
46 *3267:D *772:10 2.71172e-05
47 *3267:D *772:27 0.000114917
48 *212:58 *772:27 1.54365e-05
49 *563:18 *772:10 0.000137776
50 *680:120 *3003:B1 0.000130963
51 *728:14 *3010:A2 1.23388e-05
52 *728:27 *3010:A2 2.03665e-05
53 *767:33 *3019:C1 0.000207218
54 *771:10 *3010:A2 0.000390052
55 *771:10 *3355:I 3.73627e-05
*RES
1 *3376:Z *772:10 9.76 
2 *772:10 *3003:B1 11.204 
3 *772:10 *772:27 5.016 
4 *772:27 *3019:C1 12.192 
5 *772:27 *772:40 0.836 
6 *772:40 *772:42 4.5 
7 *772:42 *3356:I 4.5 
8 *772:42 *3355:I 8.832 
9 *772:40 *3010:A2 15.08 
*END

*D_NET *773 0.0203027
*CONN
*I *3019:B1 I *D gf180mcu_fd_sc_mcu7t5v0__aoi222_1
*I *3002:A2 I *D gf180mcu_fd_sc_mcu7t5v0__nand2_1
*I *3011:B1 I *D gf180mcu_fd_sc_mcu7t5v0__aoi221_1
*I *3039:A2 I *D gf180mcu_fd_sc_mcu7t5v0__aoi222_1
*I *2995:B1 I *D gf180mcu_fd_sc_mcu7t5v0__aoi222_1
*I *3357:Z O *D gf180mcu_fd_sc_mcu7t5v0__buf_2
*CAP
1 *3019:B1 0
2 *3002:A2 0.000523519
3 *3011:B1 0.000156234
4 *3039:A2 1.77463e-05
5 *2995:B1 0.000630505
6 *3357:Z 0.000167521
7 *773:48 0.000833625
8 *773:18 0.00109143
9 *773:10 0.000863623
10 *773:8 0.000434096
11 *2995:B1 *2743:A1 6.73926e-05
12 *2995:B1 *2995:A2 8.47862e-05
13 *2995:B1 *3103:B 5.13352e-06
14 *2995:B1 *821:10 0.000217716
15 *2995:B1 *821:25 6.9898e-05
16 *3002:A2 *3011:B2 0.000206711
17 *3002:A2 *800:46 0.00139824
18 *3002:A2 *817:10 0.000196417
19 *3039:A2 *3103:B 8.55242e-05
20 *3039:A2 *821:25 1.7642e-05
21 *773:10 *3019:C2 1.53727e-05
22 *773:18 *3094:A1 9.15733e-05
23 *773:18 *818:17 6.86053e-06
24 *773:48 *3069:C 2.40434e-05
25 *2520:A2 *3011:B1 1.71854e-05
26 *2520:A2 *773:48 3.46377e-05
27 *2757:A1 *773:18 0
28 *2995:C1 *2995:B1 5.77361e-05
29 *3003:A2 *3011:B1 0.000444436
30 *3004:A1 *3002:A2 4.17148e-05
31 *3010:A2 *773:18 2.5943e-05
32 *3011:A2 *3011:B1 8.8425e-05
33 *3019:A2 *773:8 8.80153e-05
34 *3019:C1 *773:10 0.000168312
35 *3019:C1 *773:18 5.87561e-06
36 *3044:A1 *773:18 0.00019545
37 *3074:A2 *2995:B1 0.000597061
38 *3075:A3 *2995:B1 4.28589e-05
39 *3084:A2 *2995:B1 0.00154377
40 *3084:A2 *3039:A2 0.000112343
41 *3084:A2 *773:18 3.50929e-06
42 *3086:A2 *2995:B1 0.000291299
43 *3087:A2 *3002:A2 9.43527e-05
44 *3087:A2 *773:18 0.000247494
45 *3095:A3 *773:48 0.000204191
46 *3113:A1 *773:8 0.00016061
47 *3114:B *773:8 0
48 *3259:CLK *3002:A2 4.34497e-05
49 *3267:D *3011:B1 1.12113e-05
50 *3277:I *3002:A2 9.1213e-05
51 *3293:I *2995:B1 0.00026757
52 *3355:I *773:8 0.000438681
53 *3355:I *773:10 0.00113922
54 *3355:I *773:18 7.83779e-05
55 *212:62 *3011:B1 6.55118e-05
56 *467:30 *3002:A2 0.000295669
57 *656:87 *3002:A2 6.46452e-06
58 *656:95 *3002:A2 0
59 *657:39 *773:18 0.000432773
60 *695:85 *3002:A2 1.11891e-05
61 *696:10 *3011:B1 0.000664482
62 *696:12 *3011:B1 0.00097501
63 *707:58 *3002:A2 0.000689562
64 *729:16 *773:8 0.000141897
65 *767:33 *773:8 7.71175e-06
66 *767:39 *3002:A2 4.29636e-05
67 *767:43 *3002:A2 4.29636e-06
68 *771:10 *773:18 0.000864963
69 *771:23 *2995:B1 0
70 *771:23 *773:18 0.000113475
71 *772:10 *3011:B1 0.000135941
72 *772:27 *3011:B1 0.00134242
73 *772:27 *773:48 0.000482784
74 *772:40 *773:18 2.20475e-05
75 *772:40 *773:48 0.000263004
*RES
1 *3357:Z *773:8 6.78 
2 *773:8 *773:10 3.116 
3 *773:10 *773:18 15.688 
4 *773:18 *2995:B1 20.872 
5 *773:18 *3039:A2 4.88 
6 *773:10 *773:48 6.856 
7 *773:48 *3011:B1 14.244 
8 *773:48 *3002:A2 24.84 
9 *773:8 *3019:B1 4.5 
*END

*D_NET *774 0.0122944
*CONN
*I *3023:B1 I *D gf180mcu_fd_sc_mcu7t5v0__aoi222_1
*I *3031:B1 I *D gf180mcu_fd_sc_mcu7t5v0__aoi222_1
*I *3040:B1 I *D gf180mcu_fd_sc_mcu7t5v0__aoi222_1
*I *3007:B1 I *D gf180mcu_fd_sc_mcu7t5v0__aoi222_1
*I *3358:Z O *D gf180mcu_fd_sc_mcu7t5v0__buf_2
*CAP
1 *3023:B1 0.000125529
2 *3031:B1 0.00014116
3 *3040:B1 0
4 *3007:B1 0.000194641
5 *3358:Z 0.000806693
6 *774:49 0.000301042
7 *774:41 0.000403697
8 *774:26 0.00111962
9 *3007:B1 *2624:A1 1.11891e-05
10 *3007:B1 *778:8 0.000194414
11 *3007:B1 *778:16 2.5943e-05
12 *3007:B1 *781:6 1.11169e-05
13 *3007:B1 *781:21 8.90186e-05
14 *3007:B1 *799:95 0.000734733
15 *3023:B1 *3023:C1 0.000656367
16 *3023:B1 *778:16 5.4634e-05
17 *3023:B1 *799:68 0.000276815
18 *3031:B1 *3031:B2 4.58601e-06
19 *3031:B1 *3031:C1 0.000275427
20 *3031:B1 *3040:A2 2.09079e-05
21 *3031:B1 *3040:B2 4.58601e-06
22 *774:26 *2991:B2 4.24903e-05
23 *774:26 *2991:C1 0.000248576
24 *774:26 *2991:C2 0.000716545
25 *774:26 *2999:C2 0.000118482
26 *774:26 *3015:B2 0.000119632
27 *774:26 *775:20 0.00028693
28 *774:41 *2631:A1 3.73535e-05
29 *774:41 *778:16 0.000422015
30 *774:41 *799:68 0.000144093
31 *774:41 *799:95 5.74961e-05
32 *774:49 *3007:C2 0.00101387
33 *774:49 *3031:C1 2.6126e-05
34 *774:49 *3040:B2 1.3758e-05
35 *774:49 *778:24 0.00130343
36 *2508:A1 *774:26 1.11891e-05
37 *2508:A2 *774:26 0.000125479
38 *2509:A2 *774:26 0.000155847
39 *2631:A2 *3023:B1 0.00018435
40 *2631:A3 *774:26 0.000196402
41 *2981:A2 *774:26 0.000179736
42 *2991:B1 *774:26 3.49991e-05
43 *3025:A1 *774:49 5.90479e-05
44 *3033:A1 *774:49 0
45 *3047:A1 *774:26 9.96978e-05
46 *3149:D *3007:B1 8.62813e-05
47 *3149:D *774:26 0.000317948
48 *3152:D *774:26 5.18759e-05
49 *3152:D *774:41 2.49387e-05
50 *3152:CLK *3007:B1 8.72537e-05
51 *3377:I *774:26 0.000379573
52 *228:6 *774:26 3.73627e-05
53 *228:12 *774:26 1.81922e-05
54 *575:15 *774:26 0
55 *575:30 *774:26 9.7011e-05
56 *764:44 *3007:B1 6.91851e-05
57 *765:62 *3031:B1 0
58 *765:62 *774:26 7.50749e-05
59 *765:62 *774:41 0
*RES
1 *3358:Z *774:26 26.968 
2 *774:26 *3007:B1 11.888 
3 *774:26 *774:41 6.096 
4 *774:41 *774:49 12.648 
5 *774:49 *3040:B1 4.5 
6 *774:49 *3031:B1 5.64 
7 *774:41 *3023:B1 6.704 
*END

*D_NET *775 0.00993852
*CONN
*I *3358:I I *D gf180mcu_fd_sc_mcu7t5v0__buf_2
*I *2982:C2 I *D gf180mcu_fd_sc_mcu7t5v0__aoi222_1
*I *3000:C1 I *D gf180mcu_fd_sc_mcu7t5v0__aoi222_1
*I *2992:C1 I *D gf180mcu_fd_sc_mcu7t5v0__aoi222_1
*I *3016:C1 I *D gf180mcu_fd_sc_mcu7t5v0__aoi222_1
*I *3377:Z O *D gf180mcu_fd_sc_mcu7t5v0__buf_1
*CAP
1 *3358:I 1.87654e-05
2 *2982:C2 0
3 *3000:C1 0
4 *2992:C1 0
5 *3016:C1 0.000131271
6 *3377:Z 0.000164416
7 *775:34 0.000193537
8 *775:32 0.000502571
9 *775:26 0.000757812
10 *775:20 0.000500688
11 *3016:C1 *3016:B1 0.000550401
12 *3016:C1 *3016:C2 0.000755435
13 *3016:C1 *777:12 0.000123561
14 *3358:I *2991:B2 7.83779e-05
15 *775:20 *2991:B2 0.000600054
16 *775:26 *2982:C1 0.000193933
17 *775:26 *776:22 0.000208511
18 *775:26 *776:42 7.24161e-06
19 *775:32 *2992:A2 0
20 *775:32 *2992:B2 0
21 *775:32 *3000:B1 2.6126e-05
22 *775:32 *3000:C2 8.16881e-05
23 *775:32 *776:42 4.61553e-05
24 *775:34 *3000:B1 5.4634e-05
25 *775:34 *3000:C2 9.88736e-06
26 *775:34 *3016:C2 5.83289e-05
27 *775:34 *777:12 0.00025334
28 *2509:A1 *775:20 1.11891e-05
29 *2509:A2 *775:20 3.17618e-05
30 *2965:A1 *775:20 0.000115621
31 *2965:A1 *775:26 0.000206333
32 *2976:A1 *775:26 6.96961e-05
33 *2976:A2 *775:26 0.000151957
34 *2978:A2 *775:26 0.00010146
35 *2985:A2 *775:20 0.000135941
36 *2985:A2 *775:26 0.00048051
37 *3017:A1 *775:20 1.66555e-05
38 *3047:A1 *775:20 3.19854e-05
39 *3377:I *3358:I 2.96621e-05
40 *3377:I *775:20 2.74661e-05
41 *569:12 *775:26 0.000133373
42 *574:16 *775:26 0.000450514
43 *574:16 *775:32 8.55327e-05
44 *724:31 *775:26 0.000977281
45 *724:39 *775:26 0.00107689
46 *735:23 *775:26 3.45972e-05
47 *735:34 *775:26 4.32349e-05
48 *735:64 *775:20 0.000113316
49 *765:54 *775:20 9.88736e-06
50 *774:26 *775:20 0.00028693
*RES
1 *3377:Z *775:20 20.66 
2 *775:20 *775:26 11.34 
3 *775:26 *775:32 2.66 
4 *775:32 *775:34 0.836 
5 *775:34 *3016:C1 7.16 
6 *775:34 *2992:C1 4.5 
7 *775:32 *3000:C1 4.5 
8 *775:26 *2982:C2 4.5 
9 *775:20 *3358:I 9.228 
*END

*D_NET *776 0.0134685
*CONN
*I *2982:B1 I *D gf180mcu_fd_sc_mcu7t5v0__aoi222_1
*I *3032:C1 I *D gf180mcu_fd_sc_mcu7t5v0__aoi222_1
*I *3008:C1 I *D gf180mcu_fd_sc_mcu7t5v0__aoi222_1
*I *3024:C1 I *D gf180mcu_fd_sc_mcu7t5v0__aoi222_1
*I *3041:C1 I *D gf180mcu_fd_sc_mcu7t5v0__aoi222_1
*I *3359:Z O *D gf180mcu_fd_sc_mcu7t5v0__buf_2
*CAP
1 *2982:B1 0
2 *3032:C1 0
3 *3008:C1 6.3789e-05
4 *3024:C1 0
5 *3041:C1 0.000120605
6 *3359:Z 0.000306846
7 *776:48 0.00024745
8 *776:44 0.000236718
9 *776:42 0.00106513
10 *776:22 0.00132589
11 *3008:C1 *3008:A1 0.000242866
12 *3008:C1 *3032:A1 4.42752e-05
13 *3041:C1 *2535:A1 0.000613089
14 *3041:C1 *3024:C2 0.000696725
15 *3041:C1 *3032:B2 2.96977e-05
16 *3041:C1 *3032:C2 4.24811e-05
17 *3041:C1 *3041:B1 5.62923e-05
18 *3041:C1 *777:62 9.88736e-06
19 *3041:C1 *795:14 0.000154451
20 *776:22 *2978:A1 2.64898e-05
21 *776:22 *2982:B2 3.08902e-05
22 *776:22 *2982:C1 3.65291e-05
23 *776:22 *783:20 0.000100226
24 *776:42 *2535:A1 0.000183685
25 *776:42 *2538:A1 3.41017e-05
26 *776:42 *2982:B2 0.00180515
27 *776:42 *2992:A2 1.15651e-05
28 *776:42 *3000:B2 0
29 *776:42 *3016:A1 1.91917e-06
30 *776:42 *3032:A1 1.32333e-05
31 *776:42 *3032:B2 5.1883e-05
32 *776:42 *3323:I 0
33 *776:42 *777:48 0.00020445
34 *776:42 *783:39 0
35 *776:42 *783:56 0.00158131
36 *776:44 *2535:A1 0.000110823
37 *776:44 *3008:B1 3.84832e-06
38 *776:44 *3008:C2 4.58601e-06
39 *776:44 *3032:C2 0.000285002
40 *776:48 *3008:C2 3.88341e-05
41 *776:48 *3032:C2 0.000413211
42 *776:48 *777:62 5.23446e-05
43 *776:48 *783:67 0
44 *2535:A3 *776:42 0
45 *2590:A3 *776:42 0
46 *2969:A1 *776:22 0.000187647
47 *2976:A1 *776:22 0.000137785
48 *2978:C2 *776:22 1.76818e-05
49 *2993:A2 *776:42 2.22758e-05
50 *3001:A2 *776:42 1.50277e-05
51 *3117:D *776:42 0.000104132
52 *3118:D *776:42 0.00030473
53 *3305:I *776:42 0.000108532
54 *3378:I *776:22 7.98484e-05
55 *565:35 *776:22 0.000187647
56 *569:12 *776:22 0.000207219
57 *574:16 *776:22 0
58 *724:31 *776:22 0.00059841
59 *735:23 *776:22 0.000989353
60 *775:26 *776:22 0.000208511
61 *775:26 *776:42 7.24161e-06
62 *775:32 *776:42 4.61553e-05
*RES
1 *3359:Z *776:22 18.896 
2 *776:22 *776:42 29.248 
3 *776:42 *776:44 0.836 
4 *776:44 *776:48 1.368 
5 *776:48 *3041:C1 7.236 
6 *776:48 *3024:C1 4.5 
7 *776:44 *3008:C1 14.184 
8 *776:42 *3032:C1 4.5 
9 *776:22 *2982:B1 4.5 
*END

*D_NET *777 0.00972893
*CONN
*I *3032:B1 I *D gf180mcu_fd_sc_mcu7t5v0__aoi222_1
*I *3008:B1 I *D gf180mcu_fd_sc_mcu7t5v0__aoi222_1
*I *3041:B1 I *D gf180mcu_fd_sc_mcu7t5v0__aoi222_1
*I *3024:B1 I *D gf180mcu_fd_sc_mcu7t5v0__aoi222_1
*I *3000:B1 I *D gf180mcu_fd_sc_mcu7t5v0__aoi222_1
*I *2992:B1 I *D gf180mcu_fd_sc_mcu7t5v0__aoi222_1
*I *3016:B1 I *D gf180mcu_fd_sc_mcu7t5v0__aoi222_1
*I *3360:Z O *D gf180mcu_fd_sc_mcu7t5v0__buf_2
*CAP
1 *3032:B1 0
2 *3008:B1 7.41813e-05
3 *3041:B1 0.00018557
4 *3024:B1 0
5 *3000:B1 2.57843e-05
6 *2992:B1 0
7 *3016:B1 0.000867298
8 *3360:Z 2.19641e-05
9 *777:62 0.000359663
10 *777:50 0.000332633
11 *777:48 0.000806632
12 *777:12 0.000215829
13 *777:10 0.000118554
14 *3000:B1 *3000:B2 8.81341e-06
15 *3008:B1 *2535:A1 2.05156e-05
16 *3008:B1 *3008:C2 1.69984e-05
17 *3008:B1 *783:67 5.1289e-05
18 *3016:B1 *2992:B2 0.000380965
19 *3016:B1 *3000:B2 0
20 *3016:B1 *859:8 0.000438681
21 *3041:B1 *2535:A1 0.000636833
22 *3041:B1 *3008:C2 1.65795e-06
23 *3041:B1 *3041:A2 5.71912e-05
24 *3041:B1 *3041:B2 0.000223578
25 *3041:B1 *795:14 2.6126e-05
26 *777:10 *3000:A1 0.00051482
27 *777:10 *783:20 9.57657e-05
28 *777:12 *2992:B2 3.08902e-05
29 *777:12 *3000:B2 5.99275e-05
30 *777:48 *2535:A1 0
31 *777:48 *2538:A1 3.24312e-05
32 *777:48 *3016:B2 0.000273397
33 *777:48 *3032:A1 6.78843e-05
34 *777:48 *3032:B2 0.000317381
35 *777:48 *3323:I 2.74245e-05
36 *777:48 *859:8 0.000376901
37 *777:50 *2535:A1 0.000299217
38 *777:50 *783:65 2.90467e-05
39 *777:62 *2535:A1 0.000312232
40 *777:62 *3041:A2 1.2339e-05
41 *777:62 *783:67 1.91184e-05
42 *2535:A3 *777:48 0.000175381
43 *2538:A2 *777:48 0
44 *2589:A2 *777:48 0.000205971
45 *2590:A3 *777:48 2.9378e-06
46 *3016:C1 *3016:B1 0.000550401
47 *3016:C1 *777:12 0.000123561
48 *3041:C1 *3041:B1 5.62923e-05
49 *3041:C1 *777:62 9.88736e-06
50 *3117:D *777:48 2.30549e-05
51 *227:18 *777:10 0.00064402
52 *762:14 *777:48 3.15187e-06
53 *775:32 *3000:B1 2.6126e-05
54 *775:34 *3000:B1 5.4634e-05
55 *775:34 *777:12 0.00025334
56 *776:42 *777:48 0.00020445
57 *776:44 *3008:B1 3.84832e-06
58 *776:48 *777:62 5.23446e-05
*RES
1 *3360:Z *777:10 15.248 
2 *777:10 *777:12 0.988 
3 *777:12 *3016:B1 7.16 
4 *777:12 *2992:B1 4.5 
5 *777:10 *3000:B1 4.728 
6 *3016:B1 *777:48 20.34 
7 *777:48 *777:50 0.836 
8 *777:50 *777:62 19.52 
9 *777:62 *3024:B1 4.5 
10 *777:62 *3041:B1 7.084 
11 *777:50 *3008:B1 5.26 
12 *777:48 *3032:B1 4.5 
*END

*D_NET *778 0.00813682
*CONN
*I *3007:C1 I *D gf180mcu_fd_sc_mcu7t5v0__aoi222_1
*I *3023:C1 I *D gf180mcu_fd_sc_mcu7t5v0__aoi222_1
*I *3031:C1 I *D gf180mcu_fd_sc_mcu7t5v0__aoi222_1
*I *3040:C1 I *D gf180mcu_fd_sc_mcu7t5v0__aoi222_1
*I *3361:Z O *D gf180mcu_fd_sc_mcu7t5v0__buf_2
*CAP
1 *3007:C1 0
2 *3023:C1 0.000176467
3 *3031:C1 6.16912e-05
4 *3040:C1 0
5 *3361:Z 0.000318438
6 *778:24 0.000281959
7 *778:16 0.000633512
8 *778:8 0.000555216
9 *3031:C1 *3031:C2 7.3227e-05
10 *778:8 *2624:A1 7.83779e-05
11 *778:8 *2999:A1 0.00124074
12 *778:8 *3007:C2 1.02578e-05
13 *778:8 *781:6 1.73203e-05
14 *778:16 *3007:C2 3.64762e-05
15 *778:16 *799:85 0.000159942
16 *778:16 *799:95 0.000342236
17 *778:24 *3007:C2 2.23783e-05
18 *778:24 *3040:B2 9.91253e-05
19 *2623:A2 *3023:C1 1.20079e-05
20 *2623:A2 *778:16 0.00011528
21 *3007:B1 *778:8 0.000194414
22 *3007:B1 *778:16 2.5943e-05
23 *3009:A1 *778:8 5.12481e-05
24 *3009:A1 *778:16 9.50253e-05
25 *3023:B1 *3023:C1 0.000656367
26 *3023:B1 *778:16 5.4634e-05
27 *3025:A1 *3031:C1 1.49012e-05
28 *3025:A1 *778:24 0.000422991
29 *3031:B1 *3031:C1 0.000275427
30 *3149:D *778:16 1.5961e-05
31 *764:31 *778:8 0.000343684
32 *765:62 *778:24 0
33 *774:41 *778:16 0.000422015
34 *774:49 *3031:C1 2.6126e-05
35 *774:49 *778:24 0.00130343
*RES
1 *3361:Z *778:8 8.908 
2 *778:8 *778:16 12.192 
3 *778:16 *778:24 12.496 
4 *778:24 *3040:C1 4.5 
5 *778:24 *3031:C1 5.336 
6 *778:16 *3023:C1 6.248 
7 *778:8 *3007:C1 4.5 
*END

*D_NET *779 0.00156791
*CONN
*I *2506:A1 I *D gf180mcu_fd_sc_mcu7t5v0__nor3_1
*I *3351:Z O *D gf180mcu_fd_sc_mcu7t5v0__dlyb_1
*CAP
1 *2506:A1 0.000373257
2 *3351:Z 0.000373257
3 *2506:A1 *2506:A2 0.000299159
4 *2506:A1 *2506:A3 8.17271e-05
5 *2507:A4 *2506:A1 0.00021689
6 *2973:A2 *2506:A1 6.82842e-05
7 *226:10 *2506:A1 8.0352e-06
8 *757:10 *2506:A1 0.000147305
*RES
1 *3351:Z *2506:A1 12.876 
*END

*D_NET *780 0.00450038
*CONN
*I *2977:I I *D gf180mcu_fd_sc_mcu7t5v0__clkinv_1
*I *2991:C1 I *D gf180mcu_fd_sc_mcu7t5v0__aoi222_1
*I *3015:C1 I *D gf180mcu_fd_sc_mcu7t5v0__aoi222_1
*I *2999:C1 I *D gf180mcu_fd_sc_mcu7t5v0__aoi222_1
*I *3361:I I *D gf180mcu_fd_sc_mcu7t5v0__buf_2
*I *3378:Z O *D gf180mcu_fd_sc_mcu7t5v0__buf_1
*CAP
1 *2977:I 0.000170491
2 *2991:C1 6.48957e-05
3 *3015:C1 0
4 *2999:C1 4.71175e-05
5 *3361:I 0
6 *3378:Z 6.9744e-05
7 *780:37 0.000263319
8 *780:28 7.37024e-05
9 *780:17 0.000477008
10 *780:8 0.000453865
11 *2977:I *2999:C2 7.08938e-05
12 *2977:I *3015:A1 7.83779e-05
13 *2977:I *3015:C2 0.0003377
14 *2999:C1 *2999:C2 0.000484567
15 *2999:C1 *782:8 0.000140167
16 *780:17 *782:14 0.00018365
17 *780:17 *782:34 3.35674e-05
18 *780:28 *2999:C2 5.07443e-05
19 *780:28 *3015:C2 9.52854e-05
20 *780:28 *782:34 6.78837e-05
21 *780:37 *2999:C2 2.71172e-05
22 *780:37 *3015:C2 0.000117908
23 *2991:B1 *2991:C1 0.000162604
24 *3017:A1 *2977:I 0.000151775
25 *3379:I *2999:C1 3.78334e-05
26 *565:31 *780:8 1.75634e-05
27 *565:31 *780:17 4.67146e-05
28 *575:15 *2999:C1 3.08902e-05
29 *575:30 *2999:C1 0.000203975
30 *680:35 *780:8 1.75634e-05
31 *680:35 *780:17 9.07563e-05
32 *680:35 *780:28 2.69281e-06
33 *765:54 *2977:I 0.000181437
34 *774:26 *2991:C1 0.000248576
*RES
1 *3378:Z *780:8 9.532 
2 *780:8 *3361:I 9 
3 *780:8 *780:17 2.964 
4 *780:17 *2999:C1 10.292 
5 *780:17 *780:28 0.684 
6 *780:28 *3015:C1 9 
7 *780:28 *780:37 0.38 
8 *780:37 *2991:C1 9.912 
9 *780:37 *2977:I 11.128 
*END

*D_NET *781 0.00825084
*CONN
*I *3031:A2 I *D gf180mcu_fd_sc_mcu7t5v0__aoi222_1
*I *3040:A2 I *D gf180mcu_fd_sc_mcu7t5v0__aoi222_1
*I *3023:A2 I *D gf180mcu_fd_sc_mcu7t5v0__aoi222_1
*I *3007:A2 I *D gf180mcu_fd_sc_mcu7t5v0__aoi222_1
*I *3362:Z O *D gf180mcu_fd_sc_mcu7t5v0__buf_2
*CAP
1 *3031:A2 0
2 *3040:A2 0.000141986
3 *3023:A2 0
4 *3007:A2 0.000139951
5 *3362:Z 0.000333964
6 *781:32 0.000284174
7 *781:21 0.000580977
8 *781:6 0.000912704
9 *3007:A2 *2624:A1 0
10 *3007:A2 *3007:B2 2.6126e-05
11 *3040:A2 *3031:B2 4.58601e-06
12 *3040:A2 *3040:A1 0
13 *3040:A2 *3040:B2 4.58601e-06
14 *3040:A2 *903:8 1.91917e-06
15 *781:6 *2624:A1 1.97747e-05
16 *781:6 *2999:A1 0.000736102
17 *781:21 *2628:A1 0.000353025
18 *781:21 *3007:A1 0.000223912
19 *781:21 *3007:B2 8.55327e-05
20 *781:21 *3007:C2 2.22533e-05
21 *781:21 *3023:B2 0.0012588
22 *781:21 *3023:C2 9.57657e-05
23 *781:21 *799:40 6.25545e-05
24 *781:21 *799:42 2.76566e-05
25 *781:32 *3023:C2 0.0004559
26 *781:32 *799:38 2.65777e-05
27 *781:32 *799:40 0.000211024
28 *2623:A2 *781:21 0.000715757
29 *2628:A3 *781:21 3.08902e-05
30 *3007:B1 *781:6 1.11169e-05
31 *3007:B1 *781:21 8.90186e-05
32 *3031:B1 *3040:A2 2.09079e-05
33 *3033:A1 *3040:A2 0.000301553
34 *693:8 *781:6 0.000217472
35 *693:98 *781:6 0.000836952
36 *778:8 *781:6 1.73203e-05
*RES
1 *3362:Z *781:6 9.288 
2 *781:6 *3007:A2 5.26 
3 *781:6 *781:21 11.796 
4 *781:21 *3023:A2 9 
5 *781:21 *781:32 7.008 
6 *781:32 *3040:A2 5.64 
7 *781:32 *3031:A2 4.5 
*END

*D_NET *782 0.00577575
*CONN
*I *2975:I I *D gf180mcu_fd_sc_mcu7t5v0__clkinv_1
*I *2991:A2 I *D gf180mcu_fd_sc_mcu7t5v0__aoi222_1
*I *3015:A2 I *D gf180mcu_fd_sc_mcu7t5v0__aoi222_1
*I *2999:A2 I *D gf180mcu_fd_sc_mcu7t5v0__aoi222_1
*I *3362:I I *D gf180mcu_fd_sc_mcu7t5v0__buf_2
*I *3379:Z O *D gf180mcu_fd_sc_mcu7t5v0__buf_1
*CAP
1 *2975:I 0.000241903
2 *2991:A2 0.000140475
3 *3015:A2 0
4 *2999:A2 0
5 *3362:I 4.6915e-05
6 *3379:Z 2.88267e-05
7 *782:43 0.000455311
8 *782:34 0.000241723
9 *782:14 0.000242525
10 *782:8 0.000393227
11 *2975:I *3015:C2 0.000453575
12 *2991:A2 *3015:A1 0.000116627
13 *3362:I *2999:A1 0.000204046
14 *3362:I *2999:B2 2.6126e-05
15 *782:34 *3015:C2 0.000494231
16 *782:43 *3015:C2 0.000260709
17 *2509:A1 *2975:I 9.88736e-06
18 *2993:A1 *2975:I 0.000101973
19 *2993:A1 *2991:A2 0.00015398
20 *2999:C1 *782:8 0.000140167
21 *3009:A1 *782:8 0
22 *3009:A1 *782:14 6.22405e-05
23 *3017:A1 *2991:A2 0.000199565
24 *3025:A1 *2975:I 0.000734805
25 *3025:A1 *2991:A2 0
26 *3307:I *3362:I 8.8425e-05
27 *3379:I *3362:I 1.2339e-05
28 *3379:I *782:8 3.73627e-05
29 *3379:I *782:14 6.12935e-05
30 *565:31 *3362:I 0.000110297
31 *565:31 *782:14 5.4634e-05
32 *575:30 *782:14 6.04444e-06
33 *575:30 *782:34 0.000117565
34 *764:18 *3362:I 0.000253849
35 *764:18 *782:14 0
36 *780:17 *782:14 0.00018365
37 *780:17 *782:34 3.35674e-05
38 *780:28 *782:34 6.78837e-05
*RES
1 *3379:Z *782:8 9.38 
2 *782:8 *782:14 6.324 
3 *782:14 *3362:I 14.564 
4 *782:14 *2999:A2 4.5 
5 *782:8 *782:34 1.9 
6 *782:34 *3015:A2 9 
7 *782:34 *782:43 0.684 
8 *782:43 *2991:A2 10.52 
9 *782:43 *2975:I 12.04 
*END

*D_NET *783 0.0109365
*CONN
*I *3008:A2 I *D gf180mcu_fd_sc_mcu7t5v0__aoi222_1
*I *3024:A2 I *D gf180mcu_fd_sc_mcu7t5v0__aoi222_1
*I *3041:A2 I *D gf180mcu_fd_sc_mcu7t5v0__aoi222_1
*I *3032:A2 I *D gf180mcu_fd_sc_mcu7t5v0__aoi222_1
*I *3016:A2 I *D gf180mcu_fd_sc_mcu7t5v0__aoi222_1
*I *3000:A2 I *D gf180mcu_fd_sc_mcu7t5v0__aoi222_1
*I *2992:A2 I *D gf180mcu_fd_sc_mcu7t5v0__aoi222_1
*I *3363:Z O *D gf180mcu_fd_sc_mcu7t5v0__buf_2
*CAP
1 *3008:A2 6.92492e-05
2 *3024:A2 0
3 *3041:A2 0.000320978
4 *3032:A2 0
5 *3016:A2 7.07112e-05
6 *3000:A2 0
7 *2992:A2 0.000285205
8 *3363:Z 0.000332761
9 *783:67 0.000450697
10 *783:65 0.000337504
11 *783:56 0.000564761
12 *783:39 0.000636792
13 *783:20 0.00047811
14 *2992:A2 *3000:B2 0.000181437
15 *3008:A2 *2982:B2 8.71673e-05
16 *3016:A2 *3000:B2 0.00019583
17 *3016:A2 *3016:A1 2.6126e-05
18 *3041:A2 *2550:A1 0
19 *3041:A2 *2982:B2 9.60518e-06
20 *3041:A2 *3041:B2 0.000203803
21 *783:20 *2978:A1 0.000105162
22 *783:20 *2982:B2 0.000369763
23 *783:20 *3000:A1 0.000151957
24 *783:39 *3000:B2 0.000512797
25 *783:56 *2982:B2 0.0016388
26 *783:56 *3016:A1 0.00011866
27 *783:65 *2535:A1 7.45328e-07
28 *783:65 *2982:B2 0.000119999
29 *783:65 *3032:A1 0.000203989
30 *783:67 *2982:B2 2.08713e-05
31 *783:67 *3008:C2 5.329e-06
32 *2535:A3 *3016:A2 4.98138e-05
33 *2551:B *3041:A2 0
34 *2976:A1 *783:20 0.000164466
35 *2978:A2 *783:20 2.6126e-05
36 *2983:A1 *783:20 6.69811e-05
37 *2983:A2 *783:20 7.09389e-05
38 *2993:A2 *2992:A2 3.07734e-05
39 *3001:A2 *2992:A2 5.37472e-05
40 *3008:B1 *783:67 5.1289e-05
41 *3025:A2 *783:67 0.000141629
42 *3041:B1 *3041:A2 5.71912e-05
43 *3123:D *3041:A2 5.12234e-05
44 *3305:I *783:39 2.10268e-05
45 *3305:I *783:56 0.000309871
46 *3360:I *783:20 0.000310356
47 *227:18 *783:20 3.0428e-05
48 *574:16 *783:20 9.27472e-05
49 *693:98 *783:20 5.96667e-05
50 *775:32 *2992:A2 0
51 *776:22 *783:20 0.000100226
52 *776:42 *2992:A2 1.15651e-05
53 *776:42 *783:39 0
54 *776:42 *783:56 0.00158131
55 *776:48 *783:67 0
56 *777:10 *783:20 9.57657e-05
57 *777:50 *783:65 2.90467e-05
58 *777:62 *3041:A2 1.2339e-05
59 *777:62 *783:67 1.91184e-05
*RES
1 *3363:Z *783:20 26.756 
2 *783:20 *2992:A2 5.792 
3 *783:20 *3000:A2 4.5 
4 *2992:A2 *783:39 5.944 
5 *783:39 *3016:A2 5.564 
6 *783:39 *783:56 7.144 
7 *783:56 *3032:A2 4.5 
8 *783:56 *783:65 1.368 
9 *783:65 *783:67 1.292 
10 *783:67 *3041:A2 6.932 
11 *783:67 *3024:A2 4.5 
12 *783:65 *3008:A2 5.412 
*END

*D_NET *784 0.0190094
*CONN
*I *2700:A1 I *D gf180mcu_fd_sc_mcu7t5v0__nor3_1
*I *2706:A1 I *D gf180mcu_fd_sc_mcu7t5v0__nor3_1
*I *2709:A1 I *D gf180mcu_fd_sc_mcu7t5v0__nor3_1
*I *2712:A1 I *D gf180mcu_fd_sc_mcu7t5v0__nor3_1
*I *2717:B I *D gf180mcu_fd_sc_mcu7t5v0__aoi21_1
*I *2728:A1 I *D gf180mcu_fd_sc_mcu7t5v0__nor3_1
*I *2722:A1 I *D gf180mcu_fd_sc_mcu7t5v0__nor3_1
*I *2723:B I *D gf180mcu_fd_sc_mcu7t5v0__aoi21_1
*I *2715:A1 I *D gf180mcu_fd_sc_mcu7t5v0__nor3_1
*I *2703:A1 I *D gf180mcu_fd_sc_mcu7t5v0__nor3_1
*I *3313:Z O *D gf180mcu_fd_sc_mcu7t5v0__dlyb_1
*CAP
1 *2700:A1 0
2 *2706:A1 7.66416e-05
3 *2709:A1 9.67463e-05
4 *2712:A1 0
5 *2717:B 0.000331964
6 *2728:A1 0
7 *2722:A1 0.000479557
8 *2723:B 3.52969e-05
9 *2715:A1 4.94504e-05
10 *2703:A1 0
11 *3313:Z 0.000101156
12 *784:62 0.000830799
13 *784:56 0.00150768
14 *784:50 0.0019433
15 *784:37 0.00104698
16 *784:31 0.00122208
17 *784:27 0.00106493
18 *784:25 0.00110933
19 *784:14 0.00103529
20 *784:10 0.00042779
21 *2706:A1 *2707:A1 0.000372137
22 *2717:B *831:38 9.56507e-05
23 *2722:A1 *833:23 1.29775e-05
24 *2722:A1 *833:25 5.09899e-05
25 *2722:A1 *834:8 0.00026286
26 *2723:B *2726:A1 1.02578e-05
27 *2723:B *833:25 4.27813e-05
28 *2723:B *834:8 2.71872e-05
29 *784:10 *846:52 1.361e-05
30 *784:25 *2561:A1 7.5964e-05
31 *784:25 *2564:A1 0.000433917
32 *784:25 *2704:A1 0.000137776
33 *784:25 *2705:A1 0
34 *784:25 *827:8 0
35 *784:25 *827:32 0
36 *784:37 *2713:A1 8.166e-05
37 *784:50 *2713:A1 0.000110626
38 *784:50 *831:38 0
39 *784:56 *2738:A1 8.55327e-05
40 *784:56 *2740:A1 9.5615e-05
41 *784:56 *839:14 1.52691e-05
42 *784:62 *2494:I 5.97639e-06
43 *2704:A2 *784:25 8.62664e-05
44 *2706:A2 *784:25 9.59442e-05
45 *2706:A2 *784:27 9.17274e-06
46 *2711:A2 *784:31 0
47 *2712:A2 *784:31 0.000555221
48 *2715:A2 *2715:A1 4.51089e-05
49 *2715:A2 *784:37 4.63109e-05
50 *2715:A3 *784:50 0.00032883
51 *2717:A2 *784:50 8.17308e-05
52 *2718:A2 *784:50 0.000126613
53 *2718:B *2717:B 0.000105105
54 *2718:B *784:50 2.22758e-05
55 *2722:A2 *2722:A1 9.47538e-05
56 *2727:A3 *2722:A1 0
57 *2728:A2 *784:56 0.000103064
58 *2731:A2 *784:56 5.76749e-06
59 *2731:A3 *784:56 0.000187671
60 *2739:A3 *784:56 2.53224e-06
61 *2740:A2 *784:56 0.000503321
62 *3176:D *784:27 4.32304e-05
63 *3177:D *2709:A1 0
64 *3181:D *2722:A1 8.63166e-05
65 *3183:D *784:56 7.24161e-06
66 *3184:D *784:56 2.60491e-05
67 *3184:CLK *784:56 0.000193133
68 *3187:D *784:56 0.000197374
69 *215:20 *2722:A1 0
70 *359:8 *784:10 0.000136491
71 *359:8 *784:14 9.33883e-05
72 *359:12 *784:14 0.000672014
73 *365:10 *2706:A1 6.12935e-05
74 *365:10 *784:27 0
75 *365:12 *784:27 0
76 *365:12 *784:31 0
77 *365:14 *784:31 0
78 *374:12 *784:62 0
79 *374:14 *784:56 7.54445e-06
80 *378:8 *784:62 9.08305e-05
81 *378:14 *784:56 0.000171927
82 *380:8 *784:56 0.000488219
83 *382:6 *784:56 0
84 *382:35 *784:56 0.000300828
85 *681:24 *2709:A1 0.000379283
86 *681:80 *2715:A1 0.000342519
87 *688:26 *784:56 1.20079e-05
88 *691:40 *2722:A1 1.02578e-05
*RES
1 *3313:Z *784:10 9.912 
2 *784:10 *784:14 8.224 
3 *784:14 *2703:A1 4.5 
4 *784:14 *784:25 9.82 
5 *784:25 *784:27 1.9 
6 *784:27 *784:31 4.408 
7 *784:31 *784:37 8.148 
8 *784:37 *2715:A1 14.336 
9 *784:37 *784:50 3.876 
10 *784:50 *784:56 11.02 
11 *784:56 *784:62 10.9 
12 *784:62 *2723:B 4.88 
13 *784:62 *2722:A1 8.376 
14 *784:56 *2728:A1 4.5 
15 *784:50 *2717:B 6.78 
16 *784:31 *2712:A1 9 
17 *784:27 *2709:A1 9.988 
18 *784:25 *2706:A1 9.988 
19 *784:10 *2700:A1 9 
*END

*D_NET *785 0.0303317
*CONN
*I *2770:A1 I *D gf180mcu_fd_sc_mcu7t5v0__nor2_1
*I *2668:A1 I *D gf180mcu_fd_sc_mcu7t5v0__nor3_1
*I *2671:A1 I *D gf180mcu_fd_sc_mcu7t5v0__nor3_1
*I *2677:A1 I *D gf180mcu_fd_sc_mcu7t5v0__nor3_1
*I *2678:B I *D gf180mcu_fd_sc_mcu7t5v0__aoi21_1
*I *2684:A1 I *D gf180mcu_fd_sc_mcu7t5v0__nor3_1
*I *2691:B I *D gf180mcu_fd_sc_mcu7t5v0__aoi21_1
*I *2696:A1 I *D gf180mcu_fd_sc_mcu7t5v0__nor3_1
*I *2690:A1 I *D gf180mcu_fd_sc_mcu7t5v0__nor3_1
*I *2687:A1 I *D gf180mcu_fd_sc_mcu7t5v0__nor3_1
*I *3314:Z O *D gf180mcu_fd_sc_mcu7t5v0__dlyb_1
*CAP
1 *2770:A1 0
2 *2668:A1 0.000450149
3 *2671:A1 0
4 *2677:A1 0
5 *2678:B 0.000379007
6 *2684:A1 0
7 *2691:B 0.000434959
8 *2696:A1 0.000160109
9 *2690:A1 9.50611e-05
10 *2687:A1 0.000113721
11 *3314:Z 0.000274967
12 *785:133 0.00126187
13 *785:64 0.000914334
14 *785:49 0.000568654
15 *785:38 0.00051568
16 *785:28 0.000284133
17 *785:26 0.00105536
18 *785:16 0.00188869
19 *785:12 0.000712085
20 *2668:A1 *2673:A2 0.000111867
21 *2668:A1 *2991:B2 0.000996593
22 *2668:A1 *3016:B2 0.000946289
23 *2668:A1 *840:21 0.000317373
24 *2678:B *2678:A1 0.000132716
25 *2678:B *843:14 0
26 *2678:B *844:12 0
27 *2687:A1 *2685:A1 3.83835e-06
28 *2691:B *846:8 0.00014091
29 *2691:B *846:28 0.000224182
30 *2691:B *846:45 4.21224e-05
31 *2691:B *847:12 0.000135056
32 *2696:A1 *2694:A1 1.42281e-05
33 *2696:A1 *847:12 3.35674e-05
34 *785:12 *3189:CLK 6.50663e-05
35 *785:12 *3314:I 0.000564624
36 *785:12 *786:10 0.000444665
37 *785:16 *786:10 0.00205718
38 *785:26 *2497:I 6.74077e-05
39 *785:26 *2539:A1 7.24591e-05
40 *785:26 *2542:A1 0.000104082
41 *785:26 *2676:A1 2.52505e-05
42 *785:26 *3313:I 0.00055894
43 *785:26 *786:10 0.000128897
44 *785:26 *842:23 0
45 *785:26 *845:8 9.30625e-06
46 *785:28 *2497:I 8.42428e-05
47 *785:38 *2497:I 6.7213e-05
48 *785:38 *2685:A1 1.15312e-05
49 *785:38 *842:12 0
50 *785:38 *844:12 2.71239e-05
51 *785:64 *847:12 0.000403072
52 *785:133 *2539:A1 0.000500461
53 *785:133 *2543:A1 8.59272e-06
54 *785:133 *2991:B2 0.00191915
55 *785:133 *3016:B2 0.00131143
56 *785:133 *3024:B2 1.56302e-05
57 *785:133 *786:10 0
58 *2541:A2 *785:133 0.0011886
59 *2543:A2 *785:133 0.000842479
60 *2544:A2 *785:133 0.000697982
61 *2544:A3 *785:133 2.68222e-05
62 *2545:A2 *785:16 0
63 *2545:A2 *785:133 0.000183642
64 *2547:A2 *785:16 0
65 *2672:A2 *2668:A1 6.05381e-05
66 *2677:A3 *785:26 0.000241522
67 *2677:A3 *785:133 2.6126e-05
68 *2678:A2 *2678:B 4.29636e-06
69 *2679:A2 *2678:B 2.2499e-05
70 *2679:B *2678:B 0.000978606
71 *2680:I *2678:B 0.000202284
72 *2683:A4 *785:26 4.7151e-05
73 *2684:A3 *2678:B 0.000114811
74 *2684:A3 *785:26 1.37853e-05
75 *2684:A3 *785:28 4.19077e-05
76 *2684:A3 *785:38 7.24161e-06
77 *2687:A3 *2687:A1 0.000137535
78 *2687:A3 *785:38 6.22405e-05
79 *2690:A2 *2690:A1 1.52768e-05
80 *2690:A2 *785:49 0.00013609
81 *2690:A2 *785:64 7.39334e-05
82 *2694:A2 *2696:A1 8.46598e-05
83 *2696:A2 *2696:A1 2.4397e-05
84 *2699:A3 *785:64 0
85 *2770:A2 *785:12 0.000123108
86 *3042:A2 *785:133 0
87 *3167:D *785:26 0.000197071
88 *3170:D *2687:A1 0.000557478
89 *3170:D *785:38 2.69281e-06
90 *3170:D *785:49 0.000269857
91 *3170:CLK *785:49 0.000151957
92 *3170:CLK *785:64 0.000157418
93 *3173:D *2696:A1 0.000372787
94 *3174:CLK *2696:A1 3.26422e-05
95 *3373:I *2678:B 0
96 *216:10 *785:64 9.10381e-06
97 *217:10 *785:38 0.000279004
98 *217:10 *785:49 8.10706e-06
99 *217:14 *785:64 2.92612e-05
100 *336:12 *2668:A1 0.000316029
101 *339:8 *2668:A1 5.54829e-05
102 *341:25 *785:133 2.73945e-05
103 *341:36 *785:26 2.23783e-05
104 *343:36 *2678:B 4.94553e-05
105 *348:10 *2678:B 0.000674071
106 *348:10 *785:38 2.43558e-05
107 *352:19 *2696:A1 6.87188e-05
108 *352:19 *785:64 0.000342984
109 *352:21 *2696:A1 0.000371562
110 *689:59 *2696:A1 9.08447e-05
111 *695:43 *785:12 0
112 *695:43 *785:16 0
113 *756:64 *2668:A1 0.000127066
114 *756:64 *785:133 8.25544e-05
*RES
1 *3314:Z *785:12 12.42 
2 *785:12 *785:16 9.592 
3 *785:16 *785:26 14.396 
4 *785:26 *785:28 0.532 
5 *785:28 *785:38 11.204 
6 *785:38 *2687:A1 6.096 
7 *785:38 *785:49 6.552 
8 *785:49 *2690:A1 9.608 
9 *785:49 *785:64 3.8 
10 *785:64 *2696:A1 12.192 
11 *785:64 *2691:B 12.268 
12 *785:28 *2684:A1 4.5 
13 *785:26 *2678:B 18.668 
14 *785:16 *2677:A1 4.5 
15 *785:16 *785:133 31.3 
16 *785:133 *2671:A1 4.5 
17 *785:133 *2668:A1 19.96 
18 *785:12 *2770:A1 9 
*END

*D_NET *786 0.0321879
*CONN
*I *3314:I I *D gf180mcu_fd_sc_mcu7t5v0__dlyb_1
*I *3313:I I *D gf180mcu_fd_sc_mcu7t5v0__dlyb_1
*I *2674:A1 I *D gf180mcu_fd_sc_mcu7t5v0__nor3_1
*I *2731:A1 I *D gf180mcu_fd_sc_mcu7t5v0__nor3_1
*I *2740:A1 I *D gf180mcu_fd_sc_mcu7t5v0__nor3_1
*I *2734:A1 I *D gf180mcu_fd_sc_mcu7t5v0__nor3_1
*I *2737:A1 I *D gf180mcu_fd_sc_mcu7t5v0__nor3_1
*I *3315:Z O *D gf180mcu_fd_sc_mcu7t5v0__dlyb_1
*CAP
1 *3314:I 0.000334877
2 *3313:I 0.000684983
3 *2674:A1 0.000116885
4 *2731:A1 0
5 *2740:A1 0.000360771
6 *2734:A1 0
7 *2737:A1 0.000230985
8 *3315:Z 0
9 *786:38 0.000333436
10 *786:36 0.000497645
11 *786:34 0.00180134
12 *786:20 0.00281281
13 *786:10 0.00232545
14 *786:4 0.00104634
15 *2674:A1 *3024:B2 3.0928e-05
16 *2737:A1 *2736:A1 5.1289e-05
17 *2740:A1 *2739:A2 5.22519e-05
18 *2740:A1 *838:16 0.000317494
19 *2740:A1 *839:14 7.83779e-05
20 *3313:I *2539:A1 1.4284e-05
21 *3313:I *2555:A1 1.45899e-05
22 *3314:I *3189:CLK 0.000284356
23 *786:10 *2545:A1 2.78305e-05
24 *786:10 *2683:A1 3.24312e-05
25 *786:10 *3188:CLK 3.75951e-05
26 *786:10 *793:22 0.000173168
27 *786:20 *2541:A1 0.000110619
28 *786:20 *2991:B2 0.000267495
29 *786:20 *3016:B2 0
30 *786:20 *849:16 2.30219e-05
31 *786:34 *2540:A1 0.000145718
32 *786:34 *2583:A1 0.000721382
33 *786:34 *2588:A1 0
34 *786:34 *2589:A1 8.29507e-05
35 *786:34 *2594:A1 5.13643e-06
36 *786:34 *3008:A1 0.000931106
37 *786:34 *3008:B2 0.000153462
38 *786:34 *3008:C2 0.000660912
39 *786:34 *3024:A1 0.000151862
40 *786:34 *3024:B2 9.27717e-05
41 *786:34 *3032:A1 3.59404e-05
42 *2500:I *3314:I 0.00015398
43 *2542:A2 *3313:I 3.73535e-05
44 *2542:A2 *786:20 4.76113e-05
45 *2545:A2 *786:10 0
46 *2549:A1 *3313:I 0.000514804
47 *2556:A2 *786:20 0
48 *2590:A2 *786:34 0
49 *2593:A2 *786:34 0.000958546
50 *2594:A2 *786:34 0.000321907
51 *2671:A2 *786:34 0.000212374
52 *2671:A3 *786:34 2.06543e-05
53 *2734:A2 *2737:A1 0.00017557
54 *2734:A2 *786:38 7.02696e-05
55 *2735:A2 *786:34 0.000321463
56 *2736:A2 *2737:A1 8.29507e-05
57 *2738:A2 *2737:A1 5.14116e-06
58 *2739:A3 *2740:A1 0.00016176
59 *2740:A3 *2740:A1 0.000108815
60 *2769:A1 *3314:I 0.000404606
61 *3025:A2 *786:34 0.00149979
62 *3033:A2 *2674:A1 0
63 *3033:A2 *786:34 0
64 *3119:D *786:20 0.000183873
65 *3139:CLK *786:34 6.15343e-05
66 *3167:CLK *3313:I 0.00123186
67 *3184:CLK *2737:A1 0
68 *3185:CLK *2737:A1 0.000734813
69 *3186:CLK *2737:A1 2.6126e-05
70 *3187:D *2740:A1 0.000711617
71 *3283:I *786:34 0.000192718
72 *3369:I *3314:I 1.97747e-05
73 *341:25 *2674:A1 0
74 *341:36 *786:10 6.52605e-05
75 *359:8 *3313:I 0.000340241
76 *382:29 *786:34 8.75225e-05
77 *382:29 *786:36 0.00014967
78 *382:29 *786:38 0.000396904
79 *382:35 *2737:A1 4.29636e-06
80 *382:35 *786:38 3.32987e-05
81 *680:189 *786:34 0.000505021
82 *688:22 *786:34 0.000113237
83 *688:22 *786:36 1.94858e-05
84 *688:22 *786:38 6.01476e-05
85 *688:26 *2737:A1 0
86 *688:73 *786:34 9.20895e-05
87 *756:64 *2674:A1 3.2657e-05
88 *756:64 *786:20 0.0027083
89 *756:66 *786:20 0.000164594
90 *756:68 *786:20 0.0002221
91 *756:85 *786:10 4.07337e-05
92 *784:56 *2740:A1 9.5615e-05
93 *785:12 *3314:I 0.000564624
94 *785:12 *786:10 0.000444665
95 *785:16 *786:10 0.00205718
96 *785:26 *3313:I 0.00055894
97 *785:26 *786:10 0.000128897
98 *785:133 *786:10 0
*RES
1 *3315:Z *786:4 4.5 
2 *786:4 *786:10 16.828 
3 *786:10 *786:20 15.444 
4 *786:20 *786:34 21.66 
5 *786:34 *786:36 0.38 
6 *786:36 *786:38 1.444 
7 *786:38 *2737:A1 11.888 
8 *786:38 *2734:A1 9 
9 *786:36 *2740:A1 13.104 
10 *786:34 *2731:A1 9 
11 *786:20 *2674:A1 9.76 
12 *786:10 *3313:I 20.796 
13 *786:4 *3314:I 17.528 
*END

*D_NET *787 0.0116337
*CONN
*I *2987:A2 I *D gf180mcu_fd_sc_mcu7t5v0__aoi222_1
*I *3027:A2 I *D gf180mcu_fd_sc_mcu7t5v0__aoi222_1
*I *3035:C2 I *D gf180mcu_fd_sc_mcu7t5v0__aoi222_1
*I *2995:A2 I *D gf180mcu_fd_sc_mcu7t5v0__aoi222_1
*I *2528:A2 I *D gf180mcu_fd_sc_mcu7t5v0__nand3_1
*I *3364:Z O *D gf180mcu_fd_sc_mcu7t5v0__buf_2
*CAP
1 *2987:A2 2.15331e-05
2 *3027:A2 6.068e-05
3 *3035:C2 2.19097e-05
4 *2995:A2 0.000626121
5 *2528:A2 0
6 *3364:Z 0.00015255
7 *787:33 0.00150098
8 *787:27 0.00136207
9 *787:16 0.000639517
10 *787:12 0.00036516
11 *2987:A2 *3057:B 0.000285002
12 *2995:A2 *3035:B2 0.000422023
13 *2995:A2 *3074:A1 0.000140167
14 *2995:A2 *802:27 8.55242e-05
15 *3027:A2 *819:24 9.09483e-06
16 *787:12 *3057:B 9.26705e-05
17 *787:27 *819:24 9.90142e-05
18 *2525:A1 *3027:A2 7.09301e-06
19 *2528:A3 *787:16 0.0002108
20 *2988:A1 *787:16 0.000171721
21 *2989:B2 *787:16 9.33722e-05
22 *2989:B2 *787:27 0.000277797
23 *2995:B1 *2995:A2 8.47862e-05
24 *2995:C1 *2995:A2 3.84832e-06
25 *2996:A2 *2995:A2 2.6126e-05
26 *3028:A2 *3027:A2 7.50749e-05
27 *3035:A2 *787:33 6.11045e-05
28 *3035:B1 *2995:A2 1.11891e-05
29 *3035:C1 *3027:A2 7.74495e-05
30 *3036:A1 *2995:A2 0.000141066
31 *3036:A2 *2995:A2 0.000409274
32 *3037:A2 *2995:A2 1.20871e-05
33 *3037:B1 *3035:C2 1.12495e-05
34 *3039:C1 *787:12 7.67669e-06
35 *3057:A2 *787:12 0.000396904
36 *3071:A2 *787:16 3.51772e-05
37 *3071:A2 *787:27 1.38604e-05
38 *3086:A2 *2995:A2 2.88168e-05
39 *3097:A2 *787:27 0
40 *3254:D *787:27 0.000325617
41 *3255:D *2995:A2 0.000372137
42 *236:54 *787:12 0.000142801
43 *236:65 *787:12 0.000979813
44 *236:65 *787:16 6.31119e-05
45 *562:93 *2995:A2 2.25259e-05
46 *562:101 *2995:A2 2.96977e-05
47 *563:66 *2995:A2 1.81333e-05
48 *563:70 *2995:A2 0.000186796
49 *563:90 *2995:A2 4.06416e-05
50 *563:90 *3035:C2 1.99058e-05
51 *616:22 *787:33 0
52 *640:84 *2987:A2 0.000308754
53 *640:84 *787:12 0.000192419
54 *656:19 *787:12 0.000130509
55 *682:86 *2995:A2 0.000308615
56 *683:43 *787:27 0.000416181
57 *729:10 *2995:A2 2.14203e-05
58 *729:10 *3035:C2 1.41717e-05
*RES
1 *3364:Z *787:12 16.844 
2 *787:12 *787:16 6.4 
3 *787:16 *2528:A2 9 
4 *787:16 *787:27 4.256 
5 *787:27 *787:33 13.028 
6 *787:33 *2995:A2 15.992 
7 *787:33 *3035:C2 9.228 
8 *787:27 *3027:A2 9.684 
9 *787:12 *2987:A2 5.336 
*END

*D_NET *788 0.0274835
*CONN
*I *2924:C I *D gf180mcu_fd_sc_mcu7t5v0__aoi211_1
*I *2913:C I *D gf180mcu_fd_sc_mcu7t5v0__aoi211_1
*I *2900:C I *D gf180mcu_fd_sc_mcu7t5v0__aoi211_1
*I *2886:C I *D gf180mcu_fd_sc_mcu7t5v0__aoi211_1
*I *2868:A1 I *D gf180mcu_fd_sc_mcu7t5v0__nor2_1
*I *2860:A1 I *D gf180mcu_fd_sc_mcu7t5v0__nor2_1
*I *2864:A1 I *D gf180mcu_fd_sc_mcu7t5v0__nor2_1
*I *2856:A1 I *D gf180mcu_fd_sc_mcu7t5v0__nor2_1
*I *2848:A1 I *D gf180mcu_fd_sc_mcu7t5v0__nor2_1
*I *2852:A1 I *D gf180mcu_fd_sc_mcu7t5v0__nor2_1
*I *3316:Z O *D gf180mcu_fd_sc_mcu7t5v0__dlyb_1
*CAP
1 *2924:C 0.00035415
2 *2913:C 0
3 *2900:C 0
4 *2886:C 1.57747e-05
5 *2868:A1 0.000172535
6 *2860:A1 0.000334801
7 *2864:A1 0
8 *2856:A1 0
9 *2848:A1 0.000389816
10 *2852:A1 5.16556e-05
11 *3316:Z 0
12 *788:60 0.000803421
13 *788:56 0.000654758
14 *788:54 0.000708079
15 *788:40 0.00119584
16 *788:34 0.00207643
17 *788:30 0.00218712
18 *788:20 0.00157455
19 *788:12 0.00195985
20 *788:6 0.00145267
21 *2848:A1 *2851:A1 2.22533e-05
22 *2848:A1 *889:10 2.07594e-05
23 *2924:C *2924:A1 8.59103e-05
24 *788:12 *2910:A1 2.77603e-05
25 *788:12 *2923:A1 0.000795849
26 *788:12 *2924:A1 5.72168e-05
27 *788:12 *880:32 8.75775e-05
28 *788:12 *883:41 0.000112488
29 *788:20 *2824:A1 0.000176172
30 *788:30 *2824:A1 0.000254666
31 *788:34 *874:10 0
32 *788:54 *891:31 1.23313e-05
33 *788:56 *890:21 2.11333e-05
34 *788:60 *2847:A1 0.000135048
35 *788:60 *2853:A3 0.000172284
36 *2831:A4 *788:20 0.00112529
37 *2832:A2 *788:20 7.37597e-05
38 *2832:A2 *788:30 0.000168381
39 *2836:C *788:20 0.000271421
40 *2847:B2 *788:56 0.000486169
41 *2848:A2 *2848:A1 0.000171927
42 *2851:A2 *788:60 0
43 *2851:B1 *788:56 0
44 *2851:B2 *2848:A1 0
45 *2852:A2 *2852:A1 8.8425e-05
46 *2852:A2 *788:60 0.000303713
47 *2859:A2 *788:54 8.69862e-05
48 *2859:A2 *788:56 0.000972415
49 *2859:B2 *788:40 0.000291377
50 *2859:B2 *788:54 0.000137776
51 *2863:B1 *2868:A1 2.46566e-05
52 *2867:A2 *788:40 0.00013742
53 *2869:A2 *788:34 0.000358048
54 *2884:A1 *2886:C 2.19722e-05
55 *2884:A1 *788:30 1.12959e-05
56 *2900:B *788:20 0.000373799
57 *2913:B *788:12 0.000450447
58 *2913:B *788:20 7.83779e-05
59 *2918:A3 *788:12 0
60 *2924:A2 *2924:C 1.91917e-06
61 *3207:D *2848:A1 0.000101612
62 *3210:D *788:54 1.00155e-05
63 *3210:D *788:56 5.06913e-05
64 *3211:D *2868:A1 0.000134033
65 *3215:D *788:30 0.000249213
66 *3224:D *2924:C 0.00026286
67 *3295:I *2886:C 2.72192e-05
68 *3295:I *788:30 0.000132876
69 *3365:I *788:12 0
70 *206:10 *788:20 0.000314236
71 *469:32 *2924:C 0
72 *471:24 *788:12 0.000232955
73 *471:24 *788:20 3.749e-05
74 *471:24 *788:30 0.000380056
75 *479:20 *788:56 6.97365e-05
76 *523:10 *788:12 0
77 *685:19 *2924:C 5.86759e-05
78 *685:30 *2924:C 7.01996e-05
79 *692:10 *788:60 6.97806e-05
80 *692:12 *2852:A1 4.32304e-05
81 *692:12 *788:60 7.18278e-05
82 *692:38 *2848:A1 0
83 *692:57 *2860:A1 7.21711e-05
84 *692:72 *2860:A1 0.000656228
85 *692:72 *788:40 0.0011212
86 *692:72 *788:54 7.83779e-05
87 *692:78 *788:34 0.00059878
88 *692:78 *788:40 0.000604506
89 *694:47 *788:30 0.000433369
90 *694:47 *788:34 4.94358e-05
91 *751:14 *788:12 0
92 *752:34 *2868:A1 4.2318e-06
*RES
1 *3316:Z *788:6 9 
2 *788:6 *788:12 13.012 
3 *788:12 *788:20 12.328 
4 *788:20 *788:30 11.644 
5 *788:30 *788:34 13.696 
6 *788:34 *788:40 9.516 
7 *788:40 *788:54 20.204 
8 *788:54 *788:56 3.724 
9 *788:56 *788:60 7.008 
10 *788:60 *2852:A1 9.532 
11 *788:60 *2848:A1 11.812 
12 *788:56 *2856:A1 4.5 
13 *788:54 *2864:A1 4.5 
14 *788:40 *2860:A1 16.16 
15 *788:34 *2868:A1 10.292 
16 *788:30 *2886:C 4.728 
17 *788:20 *2900:C 9 
18 *788:12 *2913:C 4.5 
19 *788:6 *2924:C 11.888 
*END

*D_NET *789 0.0287325
*CONN
*I *2877:B I *D gf180mcu_fd_sc_mcu7t5v0__oai21_1
*I *2872:B I *D gf180mcu_fd_sc_mcu7t5v0__oai21_1
*I *2843:B I *D gf180mcu_fd_sc_mcu7t5v0__oai21_1
*I *2921:B I *D gf180mcu_fd_sc_mcu7t5v0__oai21_1
*I *2916:B I *D gf180mcu_fd_sc_mcu7t5v0__oai21_1
*I *2908:B I *D gf180mcu_fd_sc_mcu7t5v0__oai21_1
*I *2904:B I *D gf180mcu_fd_sc_mcu7t5v0__oai21_1
*I *2895:B I *D gf180mcu_fd_sc_mcu7t5v0__oai21_1
*I *2891:B I *D gf180mcu_fd_sc_mcu7t5v0__oai21_1
*I *2881:B I *D gf180mcu_fd_sc_mcu7t5v0__oai21_1
*I *3317:Z O *D gf180mcu_fd_sc_mcu7t5v0__dlyb_1
*CAP
1 *2877:B 1.87654e-05
2 *2872:B 0.00057585
3 *2843:B 0.00145239
4 *2921:B 0.000269482
5 *2916:B 0.000127967
6 *2908:B 5.72221e-05
7 *2904:B 4.09294e-05
8 *2895:B 4.42321e-05
9 *2891:B 0.00017355
10 *2881:B 0.000548963
11 *3317:Z 0.000191098
12 *789:123 0.000635978
13 *789:102 0.00156657
14 *789:26 0.000839193
15 *789:24 0.000745011
16 *789:22 0.000645036
17 *789:18 0.000632438
18 *789:12 0.000821878
19 *789:10 0.000672099
20 *2843:B *2615:A1 0
21 *2843:B *2618:A1 0
22 *2843:B *2828:B 0.000310443
23 *2843:B *2828:C 3.73535e-05
24 *2843:B *798:10 0.000181814
25 *2843:B *799:105 1.91231e-05
26 *2843:B *874:10 2.15263e-05
27 *2843:B *874:25 0.000346834
28 *2843:B *896:26 1.08266e-05
29 *2843:B *896:37 2.11901e-05
30 *2843:B *896:55 9.99279e-05
31 *2843:B *896:59 3.96676e-05
32 *2872:B *894:12 0.000199473
33 *2872:B *894:16 6.60872e-05
34 *2872:B *894:27 9.17565e-06
35 *2872:B *894:40 1.05191e-05
36 *2877:B *895:10 2.96621e-05
37 *2891:B *876:10 0
38 *2895:B *2895:A1 2.22758e-05
39 *2895:B *876:25 7.83779e-05
40 *2904:B *2908:A1 2.33043e-05
41 *2908:B *2908:A1 2.68618e-05
42 *2916:B *2921:A1 0.000213388
43 *2916:B *882:6 0.000424388
44 *789:18 *2908:A1 9.935e-05
45 *789:18 *879:25 0.000207404
46 *789:22 *879:10 8.64281e-06
47 *789:22 *879:25 1.59363e-05
48 *789:24 *876:25 8.15645e-05
49 *789:26 *876:10 0.000578344
50 *789:26 *876:25 0.00018371
51 *789:102 *2879:A1 3.08902e-05
52 *789:102 *896:37 0.000105278
53 *2614:A3 *2843:B 3.26422e-05
54 *2617:A2 *2843:B 0.000246185
55 *2619:A2 *2843:B 0.000832837
56 *2625:A1 *2843:B 0.000227859
57 *2625:B *2843:B 8.69862e-05
58 *2828:A1 *2843:B 0.000357108
59 *2863:B1 *2872:B 3.73535e-05
60 *2874:A2 *2877:B 7.83779e-05
61 *2880:A2 *2872:B 3.83946e-05
62 *2880:B1 *2843:B 8.55242e-05
63 *2880:B1 *789:102 5.22519e-05
64 *2882:A1 *789:102 0.000124318
65 *2883:A4 *2843:B 3.28428e-06
66 *2886:A2 *2843:B 3.15187e-06
67 *2888:A1 *789:123 0.000140539
68 *2892:A2 *2891:B 9.26705e-05
69 *2896:A2 *2895:B 5.87561e-06
70 *2905:A2 *789:24 0.000396912
71 *2908:A2 *2904:B 5.97012e-05
72 *2908:A2 *789:22 7.26556e-05
73 *2908:A2 *789:24 6.54978e-05
74 *2909:A2 *789:18 0
75 *2909:A2 *789:22 0.000269857
76 *2917:A1 *789:18 0.000351169
77 *2920:A2 *2916:B 6.06975e-05
78 *2921:A2 *2921:B 0
79 *2924:A2 *2921:B 0.000138146
80 *2924:A2 *789:10 0
81 *2924:A2 *789:12 0
82 *3147:D *2843:B 7.08883e-05
83 *3147:CLK *2843:B 0.0010286
84 *3148:CLK *2843:B 1.5015e-05
85 *3213:CLK *2872:B 0.000431535
86 *3220:D *789:18 8.60176e-05
87 *3222:D *789:12 9.29187e-05
88 *3222:D *789:18 7.60777e-05
89 *3223:D *789:12 6.18153e-06
90 *3226:CLK *789:10 0
91 *3227:CLK *2921:B 0
92 *3227:CLK *789:10 5.18727e-05
93 *3292:I *2843:B 0
94 *3297:I *789:12 0.000707424
95 *3297:I *789:18 0.0022112
96 *3365:I *2916:B 0.000637776
97 *10:16 *2881:B 0.000399453
98 *10:16 *789:18 2.34796e-05
99 *10:16 *789:22 2.65777e-05
100 *10:16 *789:24 0.000542287
101 *10:16 *789:26 0.000281631
102 *469:47 *2921:B 2.28663e-05
103 *469:47 *789:10 0.000336682
104 *469:47 *789:12 9.09842e-05
105 *491:10 *2872:B 1.47007e-05
106 *499:6 *2843:B 8.55242e-05
107 *499:6 *2881:B 0.00031512
108 *499:6 *789:102 0.000653985
109 *526:10 *2916:B 3.83136e-05
110 *685:30 *789:10 0.000148665
111 *685:36 *2921:B 1.72881e-05
112 *685:36 *789:10 0.000184283
113 *685:36 *789:12 0.000105545
114 *685:40 *789:12 7.98925e-05
115 *685:40 *789:18 5.95497e-05
116 *685:46 *789:18 4.46847e-05
117 *694:47 *2843:B 0.000243955
118 *694:53 *2872:B 0.000514812
119 *694:53 *789:123 0.000426379
120 *750:106 *2872:B 3.75951e-05
121 *752:12 *789:123 5.43763e-05
122 *752:16 *2872:B 0.000451288
123 *752:16 *789:123 0.000671072
124 *752:24 *2872:B 1.21492e-05
125 *753:25 *2916:B 1.18656e-05
*RES
1 *3317:Z *789:10 11.584 
2 *789:10 *789:12 2.812 
3 *789:12 *789:18 11.492 
4 *789:18 *789:22 5.64 
5 *789:22 *789:24 5.548 
6 *789:24 *789:26 2.964 
7 *789:26 *2881:B 13.712 
8 *789:26 *2891:B 9.988 
9 *789:24 *2895:B 9.38 
10 *789:22 *2904:B 9.38 
11 *789:18 *2908:B 4.88 
12 *789:12 *2916:B 20.28 
13 *789:10 *2921:B 10.748 
14 *2881:B *789:102 6.248 
15 *789:102 *2843:B 19.548 
16 *789:102 *789:123 6.4 
17 *789:123 *2872:B 14.624 
18 *789:123 *2877:B 9.228 
*END

*D_NET *790 0.00201208
*CONN
*I *2506:A3 I *D gf180mcu_fd_sc_mcu7t5v0__nor3_1
*I *3352:Z O *D gf180mcu_fd_sc_mcu7t5v0__dlyb_1
*CAP
1 *2506:A3 0.000560818
2 *3352:Z 0.000560818
3 *2506:A3 *2506:A2 4.10312e-05
4 *2506:A1 *2506:A3 8.17271e-05
5 *2507:A4 *2506:A3 0
6 *3349:I *2506:A3 0
7 *3352:I *2506:A3 0
8 *3353:I *2506:A3 2.57365e-05
9 *226:10 *2506:A3 0.000741951
*RES
1 *3352:Z *2506:A3 13.56 
*END

*D_NET *791 0.010714
*CONN
*I *2927:A2 I *D gf180mcu_fd_sc_mcu7t5v0__and3_1
*I *2926:A2 I *D gf180mcu_fd_sc_mcu7t5v0__and3_1
*I *2928:A2 I *D gf180mcu_fd_sc_mcu7t5v0__and3_1
*I *2925:A2 I *D gf180mcu_fd_sc_mcu7t5v0__and3_1
*I *2940:A3 I *D gf180mcu_fd_sc_mcu7t5v0__nand3_1
*I *2930:A2 I *D gf180mcu_fd_sc_mcu7t5v0__nand2_1
*I *3318:Z O *D gf180mcu_fd_sc_mcu7t5v0__dlyb_1
*CAP
1 *2927:A2 0.000275847
2 *2926:A2 0.000212075
3 *2928:A2 0
4 *2925:A2 0.000104706
5 *2940:A3 0
6 *2930:A2 0.000190436
7 *3318:Z 0
8 *791:52 0.000773122
9 *791:45 0.000348613
10 *791:30 0.00164387
11 *791:17 0.00168145
12 *791:4 0.00039613
13 *2925:A2 *2833:A1 8.36287e-05
14 *2927:A2 *2927:A1 0
15 *791:30 *2484:I 4.82579e-05
16 *791:30 *2654:A1 0.0002976
17 *791:30 *2833:A1 0.000684149
18 *791:45 *3317:I 7.24161e-06
19 *791:45 *888:10 3.00299e-05
20 *791:45 *888:12 0.000787164
21 *791:52 *3317:I 0.00025215
22 *791:52 *886:29 1.95122e-05
23 *791:52 *888:10 9.58397e-05
24 *2927:A3 *2926:A2 0.000154451
25 *2927:A3 *2927:A2 0.000379283
26 *2928:A3 *2925:A2 5.82583e-05
27 *2928:A3 *791:45 0.000751793
28 *2940:A1 *791:17 0
29 *2941:A1 *791:17 2.25184e-05
30 *2941:A1 *791:30 0.000203407
31 *2943:A1 *791:17 2.7935e-05
32 *2944:A1 *791:17 0
33 *2944:A1 *791:30 0
34 *2944:A2 *791:30 8.55819e-05
35 *2949:A2 *791:30 0
36 *2951:A1 *791:30 3.73535e-05
37 *2952:A1 *791:30 2.25835e-05
38 *3226:CLK *2926:A2 2.57058e-06
39 *3226:CLK *791:52 0.000378635
40 *3227:D *2926:A2 0
41 *3234:D *791:30 0.000178215
42 *155:10 *791:30 0
43 *219:14 *2930:A2 0
44 *219:14 *791:17 0
45 *469:69 *2925:A2 8.9355e-05
46 *543:8 *791:30 0
47 *545:14 *791:30 0.000122747
48 *546:25 *791:30 0.00016625
49 *551:12 *791:30 5.61233e-05
50 *687:40 *791:30 0
51 *687:97 *791:30 2.34618e-06
52 *704:65 *2930:A2 4.27914e-05
53 *704:65 *791:17 0
*RES
1 *3318:Z *791:4 4.5 
2 *791:4 *2930:A2 5.944 
3 *791:4 *791:17 1.292 
4 *791:17 *2940:A3 4.5 
5 *791:17 *791:30 15.824 
6 *791:30 *2925:A2 9.836 
7 *791:30 *791:45 6.932 
8 *791:45 *2928:A2 4.5 
9 *791:45 *791:52 3.42 
10 *791:52 *2926:A2 6.172 
11 *791:52 *2927:A2 6.628 
*END

*D_NET *792 0.0268539
*CONN
*I *3318:I I *D gf180mcu_fd_sc_mcu7t5v0__dlyb_1
*I *3317:I I *D gf180mcu_fd_sc_mcu7t5v0__dlyb_1
*I *2774:B I *D gf180mcu_fd_sc_mcu7t5v0__oai21_1
*I *2665:A2 I *D gf180mcu_fd_sc_mcu7t5v0__nand2_1
*I *2776:B I *D gf180mcu_fd_sc_mcu7t5v0__oai21_1
*I *3319:Z O *D gf180mcu_fd_sc_mcu7t5v0__dlyb_1
*CAP
1 *3318:I 1.26573e-05
2 *3317:I 0.000900194
3 *2774:B 0
4 *2665:A2 0.000462555
5 *2776:B 0
6 *3319:Z 0.000130187
7 *792:51 0.00100584
8 *792:40 0.00100837
9 *792:34 0.00414561
10 *792:14 0.00542987
11 *792:10 0.000991993
12 *2665:A2 *3324:I 0
13 *3317:I *2655:A1 9.75219e-05
14 *3317:I *2657:A1 3.40627e-05
15 *3317:I *2660:A1 6.37653e-05
16 *3317:I *2833:A4 2.49387e-05
17 *3317:I *3023:C2 0.000264222
18 *3317:I *886:29 0.000443667
19 *3317:I *887:25 1.31916e-06
20 *3318:I *927:8 0.000199573
21 *792:10 *2939:A2 7.95952e-05
22 *792:14 *911:10 0
23 *792:34 *2745:A1 0
24 *792:34 *2747:A1 0.000768379
25 *792:34 *2752:A1 5.40596e-05
26 *792:34 *2754:A1 0
27 *792:34 *3019:B2 0
28 *792:34 *3023:C2 5.95656e-05
29 *792:34 *3066:A1 0.000140167
30 *792:34 *3069:C 0.000162448
31 *792:34 *808:12 3.83835e-06
32 *792:34 *810:27 0.000310356
33 *792:34 *818:17 6.05982e-05
34 *2519:A1 *792:34 0
35 *2519:B *792:34 0.000189134
36 *2521:A1 *792:34 1.44832e-05
37 *2521:A2 *792:34 0.000397393
38 *2655:A2 *3317:I 5.15843e-05
39 *2655:A2 *792:14 4.38097e-05
40 *2657:A2 *3317:I 0
41 *2659:A3 *3317:I 0.000607364
42 *2659:A3 *792:34 0.000193933
43 *2665:A1 *2665:A2 0.000499602
44 *2665:A1 *792:51 8.1274e-05
45 *2742:A2 *792:51 7.57513e-06
46 *2747:A2 *792:34 0.000372137
47 *2747:A2 *792:40 4.27417e-05
48 *2755:A4 *792:34 5.83634e-05
49 *2757:A1 *792:34 0.000493797
50 *2760:A1 *792:40 9.68048e-05
51 *2776:A1 *792:40 8.15894e-05
52 *2776:A1 *792:51 0.00012247
53 *2836:B *3317:I 6.5393e-05
54 *2838:A2 *2665:A2 0.000206425
55 *2928:A3 *3317:I 0.000260436
56 *2943:A1 *792:14 3.07991e-05
57 *3010:A2 *792:34 0.000205195
58 *3019:A1 *792:34 3.71041e-05
59 *3065:A2 *792:34 2.49331e-05
60 *3067:A2 *792:34 5.37328e-05
61 *3067:A3 *792:34 0.000214408
62 *3068:A1 *792:34 2.23385e-05
63 *3069:A1 *792:34 0.000854757
64 *3069:B *792:34 0.000463081
65 *3083:A3 *792:34 0.000354258
66 *3105:B1 *792:34 3.35674e-05
67 *3161:CLK *792:14 7.47635e-05
68 *3236:CLK *792:10 3.68917e-05
69 *3282:I *792:14 0.000160202
70 *3294:I *3317:I 6.96334e-06
71 *3316:I *3317:I 0
72 *3355:I *792:34 0
73 *3364:I *792:34 2.96621e-05
74 *196:8 *792:34 0
75 *219:14 *3318:I 0.000199573
76 *239:12 *792:34 0
77 *241:10 *792:34 0.000113362
78 *241:27 *792:34 5.48978e-05
79 *243:26 *3317:I 0
80 *408:10 *792:40 5.38563e-06
81 *535:10 *792:10 8.78761e-05
82 *535:10 *792:14 0.000340865
83 *535:12 *792:10 1.52768e-05
84 *640:20 *792:34 0.00013951
85 *680:240 *792:14 0.000838231
86 *686:21 *792:14 0.000202771
87 *686:30 *792:10 6.01536e-05
88 *686:30 *792:14 2.6058e-05
89 *701:16 *792:34 0
90 *701:42 *792:34 4.74973e-05
91 *702:35 *792:34 0.000167874
92 *702:39 *792:34 0.000151957
93 *704:69 *792:14 4.36472e-05
94 *707:75 *792:51 6.05381e-05
95 *708:25 *792:51 0
96 *708:43 *792:40 1.45386e-05
97 *708:43 *792:51 0
98 *728:27 *792:34 2.03665e-05
99 *767:6 *792:34 0.00040687
100 *767:106 *792:34 0.000252939
101 *791:45 *3317:I 7.24161e-06
102 *791:52 *3317:I 0.00025215
*RES
1 *3319:Z *792:10 10.368 
2 *792:10 *792:14 12.784 
3 *792:14 *792:34 48.856 
4 *792:34 *792:40 11.964 
5 *792:40 *2776:B 4.5 
6 *792:40 *792:51 7.54 
7 *792:51 *2665:A2 12.8 
8 *792:51 *2774:B 9 
9 *792:14 *3317:I 13.544 
10 *792:10 *3318:I 9.532 
*END

*D_NET *793 0.0169013
*CONN
*I *3192:CLK I *D gf180mcu_fd_sc_mcu7t5v0__dffq_1
*I *3195:CLK I *D gf180mcu_fd_sc_mcu7t5v0__dffq_1
*I *3194:CLK I *D gf180mcu_fd_sc_mcu7t5v0__dffq_1
*I *3191:CLK I *D gf180mcu_fd_sc_mcu7t5v0__dffq_1
*I *3193:CLK I *D gf180mcu_fd_sc_mcu7t5v0__dffq_1
*I *3190:CLK I *D gf180mcu_fd_sc_mcu7t5v0__dffq_1
*I *2838:A1 I *D gf180mcu_fd_sc_mcu7t5v0__nand2_1
*I *3189:CLK I *D gf180mcu_fd_sc_mcu7t5v0__dffq_1
*I *3271:D I *D gf180mcu_fd_sc_mcu7t5v0__dffq_1
*I *3188:CLK I *D gf180mcu_fd_sc_mcu7t5v0__dffq_1
*I *3320:Z O *D gf180mcu_fd_sc_mcu7t5v0__dlyb_1
*CAP
1 *3192:CLK 0
2 *3195:CLK 0.000367051
3 *3194:CLK 0
4 *3191:CLK 2.65248e-05
5 *3193:CLK 0.000487371
6 *3190:CLK 0.000160378
7 *2838:A1 0.000266373
8 *3189:CLK 0.000352054
9 *3271:D 4.17003e-05
10 *3188:CLK 0.000130479
11 *3320:Z 0.000102881
12 *793:107 0.000478599
13 *793:103 0.000202829
14 *793:53 0.000638518
15 *793:22 0.000476067
16 *793:20 0.000908989
17 *793:16 0.000861375
18 *793:10 0.00103809
19 *793:6 0.000374846
20 *3188:CLK *2545:A1 0
21 *2769:A2 *2838:A1 9.42485e-06
22 *2779:A2 *3190:CLK 7.21203e-05
23 *2779:A2 *793:53 2.6126e-05
24 *2780:A3 *3190:CLK 4.50449e-05
25 *2780:A3 *793:53 2.88155e-05
26 *2783:A2 *793:16 5.26555e-05
27 *2784:A2 *793:10 0.000224874
28 *2784:A2 *793:107 0
29 *2785:A2 *793:10 8.36287e-05
30 *2785:A2 *793:16 0.000197036
31 *2786:A2 *793:16 1.15244e-05
32 *2786:A3 *793:20 0.000397569
33 *2789:A3 *3191:CLK 1.97747e-05
34 *2789:A3 *3193:CLK 0
35 *2789:A3 *793:6 0.00049857
36 *2794:A1 *3195:CLK 1.83741e-05
37 *2794:A2 *3195:CLK 0.000116414
38 *2795:A2 *3195:CLK 6.03845e-05
39 *2795:A3 *3195:CLK 5.48455e-05
40 *3188:D *3189:CLK 0
41 *3192:D *3193:CLK 1.85017e-05
42 *3194:D *3195:CLK 7.54771e-06
43 *3314:I *3189:CLK 0.000284356
44 *3315:I *3189:CLK 0.00119247
45 *3367:I *3271:D 0.000653985
46 *3368:I *2838:A1 0.00140496
47 *3368:I *3193:CLK 5.34319e-05
48 *3368:I *793:16 0.000275092
49 *3368:I *793:53 0.00035886
50 *3369:I *2838:A1 0.000719405
51 *3373:I *3188:CLK 6.73834e-05
52 *3373:I *3271:D 0.000653985
53 *212:10 *2838:A1 0.000206333
54 *212:23 *3190:CLK 8.76648e-05
55 *212:23 *793:53 7.45328e-07
56 *422:12 *793:53 5.3266e-05
57 *422:16 *793:16 0
58 *422:16 *793:53 0
59 *424:10 *793:10 0.000349747
60 *426:10 *3191:CLK 3.83835e-06
61 *426:10 *793:103 1.76575e-05
62 *428:8 *793:6 9.4764e-05
63 *428:8 *793:103 0.000314853
64 *428:23 *3195:CLK 0
65 *431:15 *3195:CLK 0.000307983
66 *706:6 *3189:CLK 0
67 *717:21 *3195:CLK 0.000120187
68 *717:21 *793:10 0
69 *717:21 *793:16 0
70 *717:21 *793:107 0.00044901
71 *737:12 *3193:CLK 7.57767e-05
72 *754:21 *793:16 2.23232e-05
73 *785:12 *3189:CLK 6.50663e-05
74 *786:10 *3188:CLK 3.75951e-05
75 *786:10 *793:22 0.000173168
*RES
1 *3320:Z *793:6 6.4 
2 *793:6 *793:10 6.248 
3 *793:10 *793:16 7.692 
4 *793:16 *793:20 6.704 
5 *793:20 *793:22 2.204 
6 *793:22 *3188:CLK 9.912 
7 *793:22 *3271:D 10.748 
8 *793:20 *3189:CLK 13.028 
9 *793:16 *793:53 2.204 
10 *793:53 *2838:A1 18.06 
11 *793:53 *3190:CLK 6.02 
12 *793:10 *3193:CLK 12.116 
13 *793:6 *3191:CLK 4.728 
14 *793:6 *793:103 1.368 
15 *793:103 *793:107 5.64 
16 *793:107 *3194:CLK 9 
17 *793:107 *3195:CLK 12.04 
18 *793:103 *3192:CLK 4.5 
*END

*D_NET *794 0.013994
*CONN
*I *3203:CLK I *D gf180mcu_fd_sc_mcu7t5v0__dffq_1
*I *3204:CLK I *D gf180mcu_fd_sc_mcu7t5v0__dffq_1
*I *3202:CLK I *D gf180mcu_fd_sc_mcu7t5v0__dffq_1
*I *3200:CLK I *D gf180mcu_fd_sc_mcu7t5v0__dffq_1
*I *3201:CLK I *D gf180mcu_fd_sc_mcu7t5v0__dffq_1
*I *3199:CLK I *D gf180mcu_fd_sc_mcu7t5v0__dffq_1
*I *3198:CLK I *D gf180mcu_fd_sc_mcu7t5v0__dffq_1
*I *3197:CLK I *D gf180mcu_fd_sc_mcu7t5v0__dffq_1
*I *3196:CLK I *D gf180mcu_fd_sc_mcu7t5v0__dffq_1
*I *3321:Z O *D gf180mcu_fd_sc_mcu7t5v0__dlyb_1
*CAP
1 *3203:CLK 0.000304269
2 *3204:CLK 0
3 *3202:CLK 0
4 *3200:CLK 0
5 *3201:CLK 0
6 *3199:CLK 0.000181664
7 *3198:CLK 0.000418508
8 *3197:CLK 3.14645e-05
9 *3196:CLK 0.000388259
10 *3321:Z 0.000138719
11 *794:109 0.000553735
12 *794:94 0.000802246
13 *794:56 0.000668876
14 *794:52 0.000364836
15 *794:40 0.000310731
16 *794:38 0.000706917
17 *794:25 0.00048655
18 *794:6 0.000842526
19 *3203:CLK *2750:A1 2.89664e-05
20 *3203:CLK *3324:I 5.09937e-05
21 *3203:CLK *806:16 8.05911e-06
22 *2750:A2 *3203:CLK 0.000326954
23 *2750:A2 *794:109 0.000119514
24 *2757:A2 *794:109 0.00032652
25 *2764:A2 *3203:CLK 3.84832e-06
26 *2764:A4 *794:109 5.87561e-06
27 *2777:I *3199:CLK 0
28 *2777:I *794:52 6.95292e-05
29 *2790:A1 *3196:CLK 0
30 *2794:A1 *3196:CLK 7.1896e-05
31 *2795:A3 *3196:CLK 0
32 *2796:A2 *3196:CLK 1.54747e-06
33 *2797:A1 *3196:CLK 9.26705e-05
34 *2797:A1 *794:6 5.4634e-05
35 *2797:A1 *794:25 0.000342528
36 *2798:A2 *3196:CLK 0.00068261
37 *2804:A1 *3198:CLK 0.000107858
38 *2805:A2 *3198:CLK 0
39 *2806:A3 *794:25 0.000129252
40 *2807:A1 *3198:CLK 0.000221732
41 *2807:A1 *794:52 0.000229594
42 *2807:A1 *794:56 0.000366797
43 *2807:A2 *3198:CLK 1.51256e-05
44 *2807:A2 *3199:CLK 5.94709e-06
45 *2807:A3 *3198:CLK 1.2682e-05
46 *2807:A3 *3199:CLK 3.8202e-05
47 *2807:A3 *794:52 1.99693e-05
48 *2807:A3 *794:56 9.26907e-05
49 *2810:A1 *794:40 8.55242e-05
50 *2810:A1 *794:52 4.03405e-05
51 *2810:A1 *794:94 0.00019583
52 *2810:A2 *794:52 0.000195189
53 *2811:A1 *794:94 3.94624e-05
54 *2811:A2 *794:94 8.52658e-05
55 *2813:B *794:94 6.54282e-05
56 *2815:A2 *794:94 1.02823e-05
57 *2816:A2 *3203:CLK 8.05934e-05
58 *3197:D *794:25 3.98089e-05
59 *3198:D *3198:CLK 2.28598e-05
60 *3199:D *3198:CLK 2.7549e-05
61 *3203:D *3203:CLK 2.76863e-05
62 *3321:I *3196:CLK 6.78649e-05
63 *435:17 *794:25 0.000214157
64 *435:25 *3197:CLK 8.01724e-06
65 *435:25 *794:25 0.0004577
66 *441:16 *3197:CLK 2.22657e-05
67 *441:16 *794:40 8.02751e-06
68 *441:16 *794:52 6.13836e-05
69 *441:16 *794:94 7.22665e-05
70 *442:30 *794:94 0
71 *446:25 *3203:CLK 4.97386e-06
72 *446:25 *794:109 1.01183e-05
73 *447:25 *794:109 0.000217466
74 *710:20 *794:25 2.59561e-05
75 *710:20 *794:38 3.64733e-05
76 *711:50 *794:109 8.81341e-06
77 *712:25 *794:94 5.04921e-05
78 *712:25 *794:109 5.26936e-05
79 *714:18 *794:109 1.46914e-05
80 *720:29 *3196:CLK 5.71738e-05
81 *720:38 *794:6 0.000155868
82 *721:12 *794:25 0.000381142
83 *722:10 *794:25 0.000625851
84 *722:53 *794:25 0.000304625
85 *754:47 *3196:CLK 0
86 *754:97 *794:25 0.000249801
87 *754:112 *794:25 9.10083e-05
88 *754:112 *794:38 9.93985e-05
89 *754:112 *794:52 0.000154696
*RES
1 *3321:Z *794:6 5.64 
2 *794:6 *3196:CLK 16.768 
3 *794:6 *794:25 10.048 
4 *794:25 *3197:CLK 9.228 
5 *794:25 *794:38 5.64 
6 *794:38 *794:40 0.228 
7 *794:40 *794:52 11.584 
8 *794:52 *794:56 5.488 
9 *794:56 *3198:CLK 12.344 
10 *794:56 *3199:CLK 10.216 
11 *794:52 *3201:CLK 4.5 
12 *794:40 *3200:CLK 4.5 
13 *794:38 *794:94 4.18 
14 *794:94 *3202:CLK 4.5 
15 *794:94 *794:109 11.66 
16 *794:109 *3204:CLK 4.5 
17 *794:109 *3203:CLK 7.084 
*END

*D_NET *795 0.0173069
*CONN
*I *2551:C I *D gf180mcu_fd_sc_mcu7t5v0__aoi211_1
*I *2535:A1 I *D gf180mcu_fd_sc_mcu7t5v0__nor3_1
*I *2549:C I *D gf180mcu_fd_sc_mcu7t5v0__aoi211_1
*I *2563:A1 I *D gf180mcu_fd_sc_mcu7t5v0__nor3_1
*I *2596:A1 I *D gf180mcu_fd_sc_mcu7t5v0__nor3_1
*I *2572:A1 I *D gf180mcu_fd_sc_mcu7t5v0__nor3_1
*I *2593:A1 I *D gf180mcu_fd_sc_mcu7t5v0__nor3_1
*I *2575:A1 I *D gf180mcu_fd_sc_mcu7t5v0__nor3_1
*I *2569:A1 I *D gf180mcu_fd_sc_mcu7t5v0__nor3_1
*I *2554:A1 I *D gf180mcu_fd_sc_mcu7t5v0__nor3_1
*I *3322:Z O *D gf180mcu_fd_sc_mcu7t5v0__dlyb_1
*CAP
1 *2551:C 5.89652e-05
2 *2535:A1 0.000598988
3 *2549:C 0
4 *2563:A1 0
5 *2596:A1 0.000336849
6 *2572:A1 4.02556e-05
7 *2593:A1 0.000411203
8 *2575:A1 0.000145365
9 *2569:A1 0.000130162
10 *2554:A1 0.000173328
11 *3322:Z 9.12848e-05
12 *795:61 0.000451458
13 *795:50 0.000626218
14 *795:46 0.00112192
15 *795:33 0.000496689
16 *795:31 0.000344485
17 *795:18 0.000582332
18 *795:14 0.00062524
19 *795:12 0.00119821
20 *795:8 0.000251052
21 *2551:C *3041:A1 8.84331e-05
22 *2554:A1 *2562:A1 3.07734e-05
23 *2596:A1 *3024:C2 5.27013e-05
24 *795:8 *3041:B2 4.58601e-06
25 *795:12 *3041:A1 0.000380904
26 *795:14 *2548:A1 3.88009e-05
27 *795:14 *3032:B2 0.000126898
28 *795:50 *854:10 0
29 *2538:A2 *2535:A1 0.000308746
30 *2548:A2 *2554:A1 3.73535e-05
31 *2548:A2 *795:14 5.42076e-05
32 *2549:A1 *795:14 2.9378e-06
33 *2549:B *795:14 0.000276453
34 *2554:A3 *2554:A1 0.000181422
35 *2563:A2 *795:31 0.000117908
36 *2563:A2 *795:33 0.000469575
37 *2563:A3 *795:31 0.000403764
38 *2566:A2 *2596:A1 0
39 *2566:A2 *795:46 0
40 *2569:A3 *2569:A1 7.09389e-05
41 *2569:A3 *2596:A1 8.18373e-05
42 *2569:A3 *795:33 4.84492e-05
43 *2569:A3 *795:46 0.000350578
44 *2572:A2 *2575:A1 0
45 *2572:A3 *795:50 0.000157075
46 *2575:A2 *2575:A1 9.98669e-06
47 *2575:A3 *2575:A1 0.000213194
48 *2575:A3 *795:50 0.000553434
49 *2578:A2 *2593:A1 0.000197598
50 *2593:A3 *2593:A1 0.000161792
51 *3008:B1 *2535:A1 2.05156e-05
52 *3041:B1 *2535:A1 0.000636833
53 *3041:B1 *795:14 2.6126e-05
54 *3041:C1 *2535:A1 0.000613089
55 *3041:C1 *795:14 0.000154451
56 *3042:A2 *2551:C 7.02696e-05
57 *3117:D *2535:A1 4.10312e-05
58 *3118:D *2535:A1 0.000368152
59 *3122:D *795:14 5.14116e-06
60 *3123:D *795:8 4.27813e-05
61 *3124:D *2554:A1 0.00026286
62 *3124:CLK *2554:A1 0
63 *3126:CLK *795:8 5.86721e-05
64 *3127:D *795:33 6.57222e-05
65 *3127:D *795:46 0
66 *3129:D *795:46 0
67 *3129:D *795:50 0.000153137
68 *3130:D *2572:A1 4.50449e-05
69 *3130:D *2593:A1 0.00019344
70 *3130:CLK *2593:A1 0.000734813
71 *3137:CLK *2551:C 3.26302e-05
72 *681:6 *2596:A1 0
73 *681:6 *795:46 0
74 *688:77 *2593:A1 0.000301553
75 *755:55 *795:50 0
76 *760:16 *2596:A1 3.83835e-06
77 *760:20 *795:50 5.97259e-05
78 *761:58 *795:18 0.000406051
79 *776:42 *2535:A1 0.000183685
80 *776:44 *2535:A1 0.000110823
81 *777:48 *2535:A1 0
82 *777:50 *2535:A1 0.000299217
83 *777:62 *2535:A1 0.000312232
84 *783:65 *2535:A1 7.45328e-07
*RES
1 *3322:Z *795:8 10.292 
2 *795:8 *795:12 5.488 
3 *795:12 *795:14 4.332 
4 *795:14 *795:18 5.792 
5 *795:18 *2554:A1 10.9 
6 *795:18 *795:31 2.432 
7 *795:31 *795:33 1.292 
8 *795:33 *2569:A1 9.988 
9 *795:33 *795:46 6.856 
10 *795:46 *795:50 8.984 
11 *795:50 *2575:A1 9.988 
12 *795:50 *795:61 4.5 
13 *795:61 *2593:A1 9.288 
14 *795:61 *2572:A1 4.88 
15 *795:46 *2596:A1 6.628 
16 *795:31 *2563:A1 9 
17 *795:14 *2549:C 4.5 
18 *795:12 *2535:A1 29.112 
19 *795:8 *2551:C 9.684 
*END

*D_NET *796 0.00899681
*CONN
*I *2538:A1 I *D gf180mcu_fd_sc_mcu7t5v0__nor3_1
*I *2582:C I *D gf180mcu_fd_sc_mcu7t5v0__aoi211_1
*I *2587:A1 I *D gf180mcu_fd_sc_mcu7t5v0__nor3_1
*I *2584:C I *D gf180mcu_fd_sc_mcu7t5v0__aoi211_1
*I *2578:A1 I *D gf180mcu_fd_sc_mcu7t5v0__nor3_1
*I *2590:A1 I *D gf180mcu_fd_sc_mcu7t5v0__nor3_1
*I *3323:Z O *D gf180mcu_fd_sc_mcu7t5v0__dlyb_1
*CAP
1 *2538:A1 0.000305626
2 *2582:C 0.000202894
3 *2587:A1 0
4 *2584:C 0
5 *2578:A1 0.000106529
6 *2590:A1 4.86509e-05
7 *3323:Z 0
8 *796:51 0.000450468
9 *796:40 0.000270196
10 *796:23 0.000531543
11 *796:12 0.00062776
12 *796:6 0.000482344
13 *2538:A1 *2978:A1 0
14 *2538:A1 *3032:A1 0
15 *2538:A1 *3323:I 5.69191e-05
16 *796:12 *2978:A1 0
17 *796:12 *3032:A1 0
18 *796:23 *2577:A1 6.39888e-05
19 *2538:A3 *2538:A1 0.00109338
20 *2577:A2 *2582:C 0.000353157
21 *2577:A2 *796:51 0.000902675
22 *2578:A2 *2578:A1 2.6126e-05
23 *2578:A3 *2578:A1 6.14317e-05
24 *2582:A1 *2582:C 0.00021548
25 *2582:B *2582:C 3.08902e-05
26 *2584:A1 *2578:A1 0.000135941
27 *2584:A1 *796:23 0.000261987
28 *2584:B *796:23 0.000360509
29 *2587:A3 *2582:C 3.62183e-05
30 *2590:A2 *2578:A1 3.46377e-05
31 *2590:A2 *796:12 8.64281e-06
32 *2590:A2 *796:23 0.000493974
33 *2590:A3 *2538:A1 5.05245e-05
34 *2590:A3 *796:12 8.92063e-06
35 *2594:A2 *2578:A1 2.79476e-05
36 *3132:D *2578:A1 0.000149637
37 *3132:D *796:40 0.000187268
38 *3132:D *796:51 5.22519e-05
39 *3132:CLK *2578:A1 3.25336e-05
40 *3132:CLK *796:40 0.000187268
41 *3132:CLK *796:51 0.000392093
42 *3136:D *796:51 0.00032464
43 *3136:CLK *796:51 0
44 *691:14 *2582:C 8.55327e-05
45 *691:34 *2582:C 0
46 *760:14 *2590:A1 0.000134622
47 *760:14 *796:12 0.000135062
48 *776:42 *2538:A1 3.41017e-05
49 *777:48 *2538:A1 3.24312e-05
*RES
1 *3323:Z *796:6 9 
2 *796:6 *796:12 5.716 
3 *796:12 *2590:A1 4.88 
4 *796:12 *796:23 9.592 
5 *796:23 *2578:A1 10.292 
6 *796:23 *796:40 5.032 
7 *796:40 *2584:C 4.5 
8 *796:40 *796:51 3.572 
9 *796:51 *2587:A1 4.5 
10 *796:51 *2582:C 15.704 
11 *796:6 *2538:A1 12.572 
*END

*D_NET *797 0.0214458
*CONN
*I *3046:A1 I *D gf180mcu_fd_sc_mcu7t5v0__nor2_1
*I *2998:A1 I *D gf180mcu_fd_sc_mcu7t5v0__nor2_1
*I *2547:A1 I *D gf180mcu_fd_sc_mcu7t5v0__nor3_1
*I *2541:A1 I *D gf180mcu_fd_sc_mcu7t5v0__nor3_1
*I *2557:A1 I *D gf180mcu_fd_sc_mcu7t5v0__nor3_1
*I *2560:A1 I *D gf180mcu_fd_sc_mcu7t5v0__nor3_1
*I *2532:A1 I *D gf180mcu_fd_sc_mcu7t5v0__nor3_1
*I *3323:I I *D gf180mcu_fd_sc_mcu7t5v0__dlyb_1
*I *3322:I I *D gf180mcu_fd_sc_mcu7t5v0__dlyb_1
*I *2544:A1 I *D gf180mcu_fd_sc_mcu7t5v0__nor3_1
*I *3324:Z O *D gf180mcu_fd_sc_mcu7t5v0__dlyb_1
*CAP
1 *3046:A1 0.000299068
2 *2998:A1 0
3 *2547:A1 0.000198377
4 *2541:A1 0.000212394
5 *2557:A1 0
6 *2560:A1 0.00026795
7 *2532:A1 0.000526397
8 *3323:I 0.000499728
9 *3322:I 0
10 *2544:A1 9.28799e-05
11 *3324:Z 0
12 *797:116 0.000965966
13 *797:72 0.000473224
14 *797:46 0.00143478
15 *797:37 0.000679782
16 *797:27 0.000579492
17 *797:25 0.0008079
18 *797:10 0.00078236
19 *797:8 0.000509205
20 *797:4 0.000780664
21 *2532:A1 *2530:A1 0
22 *2532:A1 *2533:A1 2.75585e-05
23 *2532:A1 *2536:A1 0.000369724
24 *2532:A1 *2999:B2 0.000449691
25 *2532:A1 *835:10 7.24052e-05
26 *2541:A1 *2991:B2 1.15275e-05
27 *2541:A1 *3016:B2 2.22758e-05
28 *2541:A1 *866:8 0.000128363
29 *2544:A1 *3024:B2 2.22758e-05
30 *2544:A1 *867:8 4.58601e-06
31 *2560:A1 *2982:B2 3.17618e-05
32 *3323:I *2536:A1 0.000317373
33 *3323:I *2978:A1 0.000105632
34 *797:10 *2546:A1 0.000396912
35 *797:25 *2543:A1 0
36 *797:25 *2546:A1 5.70962e-05
37 *797:27 *2543:A1 0
38 *797:27 *849:16 0.000560596
39 *797:37 *2982:B2 0.000359408
40 *797:37 *849:16 0.000146943
41 *797:46 *2982:B2 0.00115978
42 *797:46 *2999:B2 0.000234648
43 *797:72 *2991:B2 1.45682e-05
44 *797:116 *3324:I 0
45 *2532:A2 *2532:A1 8.73421e-05
46 *2535:A2 *3323:I 7.24887e-06
47 *2538:A1 *3323:I 5.69191e-05
48 *2538:A2 *3323:I 0.000293735
49 *2538:A3 *3323:I 0.00020334
50 *2543:A2 *797:25 9.31684e-05
51 *2543:A2 *797:27 6.49724e-05
52 *2546:A2 *797:116 0
53 *2547:A3 *2547:A1 0.000276462
54 *2556:A2 *797:72 0
55 *2557:A2 *2560:A1 0.000651006
56 *2559:A2 *797:72 4.99429e-05
57 *2560:A3 *797:37 0.000176696
58 *2589:A2 *3323:I 0.000148766
59 *2998:A2 *3046:A1 0.000104535
60 *3009:B *2532:A1 0.000441055
61 *3045:A2 *3046:A1 0
62 *3120:D *2544:A1 7.71175e-06
63 *3120:CLK *797:116 0.000140396
64 *3121:D *2547:A1 0.000255722
65 *3123:CLK *797:46 0.000140167
66 *3125:D *2560:A1 2.22758e-05
67 *3125:D *797:72 5.1289e-05
68 *3240:D *3046:A1 0.000275025
69 *3240:D *797:116 0
70 *3246:D *3046:A1 2.40867e-05
71 *3246:D *797:116 2.333e-05
72 *341:25 *2544:A1 5.75752e-06
73 *341:25 *2547:A1 2.11264e-05
74 *341:25 *797:116 0
75 *689:35 *797:37 0.000533734
76 *689:43 *2560:A1 1.15312e-05
77 *689:43 *797:72 5.09861e-05
78 *695:20 *3046:A1 0
79 *695:24 *3046:A1 0
80 *736:22 *2532:A1 0.00041486
81 *756:18 *2532:A1 0.000184529
82 *761:31 *797:46 0.00118286
83 *761:39 *797:46 0.000176687
84 *761:41 *797:46 0.000204521
85 *761:52 *797:37 0.000944615
86 *761:52 *797:46 0.000139333
87 *761:54 *2560:A1 0
88 *761:54 *797:37 1.28891e-05
89 *761:81 *2560:A1 0
90 *761:81 *797:37 5.37016e-05
91 *761:92 *2560:A1 0
92 *761:92 *797:27 0.000110874
93 *761:92 *797:37 6.12154e-05
94 *776:42 *3323:I 0
95 *777:48 *3323:I 2.74245e-05
96 *786:20 *2541:A1 0.000110619
*RES
1 *3324:Z *797:4 4.5 
2 *797:4 *797:8 5.184 
3 *797:8 *797:10 1.596 
4 *797:10 *2544:A1 9.608 
5 *797:10 *797:25 2.736 
6 *797:25 *797:27 1.748 
7 *797:27 *797:37 9.212 
8 *797:37 *3322:I 4.5 
9 *797:37 *797:46 11.264 
10 *797:46 *3323:I 13.712 
11 *797:46 *2532:A1 14.928 
12 *797:27 *797:72 6.096 
13 *797:72 *2560:A1 16.008 
14 *797:72 *2557:A1 4.5 
15 *797:25 *2541:A1 10.824 
16 *797:8 *2547:A1 11.052 
17 *797:4 *797:116 4.408 
18 *797:116 *2998:A1 4.5 
19 *797:116 *3046:A1 7.16 
*END

*D_NET *798 0.0167384
*CONN
*I *2598:C I *D gf180mcu_fd_sc_mcu7t5v0__aoi211_1
*I *2609:C I *D gf180mcu_fd_sc_mcu7t5v0__aoi211_1
*I *2580:C I *D gf180mcu_fd_sc_mcu7t5v0__aoi211_1
*I *2604:A1 I *D gf180mcu_fd_sc_mcu7t5v0__nor3_1
*I *2601:A1 I *D gf180mcu_fd_sc_mcu7t5v0__nor3_1
*I *2566:A1 I *D gf180mcu_fd_sc_mcu7t5v0__nor3_1
*I *2617:A1 I *D gf180mcu_fd_sc_mcu7t5v0__nor3_1
*I *2614:A1 I *D gf180mcu_fd_sc_mcu7t5v0__nor3_1
*I *2607:A1 I *D gf180mcu_fd_sc_mcu7t5v0__nor3_1
*I *2611:C I *D gf180mcu_fd_sc_mcu7t5v0__aoi211_1
*I *3325:Z O *D gf180mcu_fd_sc_mcu7t5v0__dlyb_1
*CAP
1 *2598:C 0
2 *2609:C 5.22665e-05
3 *2580:C 0.000351897
4 *2604:A1 0
5 *2601:A1 0.000189346
6 *2566:A1 0.00018307
7 *2617:A1 0.000236034
8 *2614:A1 0
9 *2607:A1 0
10 *2611:C 0.000563985
11 *3325:Z 0.000787986
12 *798:80 0.000354801
13 *798:78 0.000750548
14 *798:74 0.00056837
15 *798:63 0.000601137
16 *798:61 0.000359091
17 *798:34 0.000465296
18 *798:14 0.0011335
19 *798:10 0.00136283
20 *2580:C *2992:C2 0.000256789
21 *2580:C *908:10 0.000497477
22 *2609:C *3000:C2 1.3758e-05
23 *2609:C *913:6 4.58601e-06
24 *2611:C *2853:A1 0
25 *2617:A1 *916:8 5.14116e-06
26 *798:34 *916:8 4.97712e-06
27 *798:74 *2565:A1 0.000714522
28 *798:78 *2603:A1 0.000644146
29 *798:80 *2603:A1 8.8425e-05
30 *2598:A1 *798:10 0.000502835
31 *2598:A1 *798:61 7.38643e-05
32 *2598:A1 *798:63 4.58601e-06
33 *2604:A3 *798:80 0.000134113
34 *2607:A3 *798:14 0.000331102
35 *2611:A2 *2617:A1 5.94709e-06
36 *2614:A2 *2617:A1 0
37 *2625:A1 *2617:A1 0.000829806
38 *2625:A1 *798:10 3.73535e-05
39 *2625:A1 *798:34 0.000372181
40 *2826:A2 *2611:C 0.000521063
41 *2828:A1 *2617:A1 8.78761e-05
42 *2843:A1 *798:10 0.000114072
43 *2843:A2 *798:10 3.67255e-05
44 *2843:B *798:10 0.000181814
45 *3133:D *2580:C 4.10312e-05
46 *3140:D *2566:A1 2.6126e-05
47 *3140:D *798:63 0.000229596
48 *3140:CLK *798:10 0.000144293
49 *3140:CLK *798:63 0
50 *3143:D *798:14 1.98965e-05
51 *3143:CLK *798:14 0
52 *3146:D *2617:A1 0.000248576
53 *3147:CLK *798:10 0.000457219
54 *3148:CLK *798:10 2.25184e-05
55 *567:20 *2566:A1 0
56 *567:20 *2601:A1 0
57 *567:20 *798:63 0
58 *567:20 *798:74 4.30102e-05
59 *567:20 *798:80 0
60 *680:171 *2580:C 5.92049e-05
61 *691:6 *2580:C 0.000186933
62 *691:8 *2580:C 0.000175652
63 *691:12 *2580:C 0.000272977
64 *693:22 *798:10 0.000547958
65 *724:16 *2601:A1 0
66 *724:16 *798:74 0
67 *724:16 *798:78 0
68 *724:16 *798:80 0
69 *735:23 *2566:A1 0
70 *750:22 *2611:C 1.2682e-05
71 *750:78 *2611:C 0.000571762
72 *758:26 *2617:A1 4.0437e-05
73 *758:36 *2611:C 0
74 *758:36 *2617:A1 0
75 *758:36 *798:10 0
76 *758:36 *798:14 0
77 *758:36 *798:34 0
78 *758:48 *2611:C 0
79 *763:14 *798:63 3.83835e-06
80 *763:18 *798:74 0.000109801
81 *763:20 *798:74 8.83756e-05
82 *763:20 *798:78 1.32435e-05
*RES
1 *3325:Z *798:10 10.656 
2 *798:10 *798:14 8.224 
3 *798:14 *2611:C 13.712 
4 *798:14 *2607:A1 9 
5 *798:10 *798:34 2.052 
6 *798:34 *2614:A1 4.5 
7 *798:34 *2617:A1 16.388 
8 *3325:Z *798:61 5.868 
9 *798:61 *798:63 0.988 
10 *798:63 *2566:A1 5.488 
11 *798:63 *798:74 7.768 
12 *798:74 *798:78 2.28 
13 *798:78 *798:80 1.444 
14 *798:80 *2601:A1 10.292 
15 *798:80 *2604:A1 9 
16 *798:78 *2580:C 13.636 
17 *798:74 *2609:C 9.228 
18 *798:61 *2598:C 4.5 
*END

*D_NET *799 0.019927
*CONN
*I *2636:A1 I *D gf180mcu_fd_sc_mcu7t5v0__nor3_1
*I *2623:A1 I *D gf180mcu_fd_sc_mcu7t5v0__nor3_1
*I *2625:C I *D gf180mcu_fd_sc_mcu7t5v0__aoi211_1
*I *2620:A1 I *D gf180mcu_fd_sc_mcu7t5v0__nor3_1
*I *3325:I I *D gf180mcu_fd_sc_mcu7t5v0__dlyb_1
*I *2631:A1 I *D gf180mcu_fd_sc_mcu7t5v0__nor3_1
*I *2633:C I *D gf180mcu_fd_sc_mcu7t5v0__aoi211_1
*I *2628:A1 I *D gf180mcu_fd_sc_mcu7t5v0__nor3_1
*I *2639:A1 I *D gf180mcu_fd_sc_mcu7t5v0__nor3_1
*I *2641:C I *D gf180mcu_fd_sc_mcu7t5v0__aoi211_1
*I *3326:Z O *D gf180mcu_fd_sc_mcu7t5v0__dlyb_1
*CAP
1 *2636:A1 3.1342e-05
2 *2623:A1 0
3 *2625:C 0.000218412
4 *2620:A1 0
5 *3325:I 0.00029427
6 *2631:A1 5.25942e-05
7 *2633:C 7.27933e-05
8 *2628:A1 0.000241681
9 *2639:A1 0
10 *2641:C 5.5095e-05
11 *3326:Z 0.000140342
12 *799:105 0.000595249
13 *799:95 0.000914538
14 *799:85 0.000489581
15 *799:68 0.00050979
16 *799:42 0.000357342
17 *799:40 0.000531414
18 *799:38 0.00044406
19 *799:27 0.000800861
20 *799:12 0.000709363
21 *2628:A1 *3023:B2 7.11472e-05
22 *2628:A1 *3031:B2 0.000577482
23 *2636:A1 *3031:B2 7.3227e-05
24 *2636:A1 *903:8 0
25 *799:12 *2999:C2 3.73535e-05
26 *799:38 *2635:A1 3.71997e-05
27 *799:38 *3023:C2 1.08028e-05
28 *799:38 *3031:A1 0.000105536
29 *799:40 *3031:B2 0.00103962
30 *799:42 *3031:B2 0.000196614
31 *799:85 *3007:C2 3.53241e-05
32 *799:95 *2624:A1 0.000226687
33 *799:95 *3007:B2 0.00166693
34 *799:105 *2619:A1 0.000499934
35 *2619:A2 *2625:C 0.000124452
36 *2619:A2 *799:105 9.19281e-05
37 *2620:A2 *3325:I 4.94368e-05
38 *2620:A3 *3325:I 0.000140167
39 *2620:A3 *799:95 0.000126727
40 *2620:A3 *799:105 0.000535275
41 *2623:A2 *799:85 2.74753e-05
42 *2623:A2 *799:95 9.88736e-06
43 *2623:A3 *799:95 6.63508e-06
44 *2631:A2 *2631:A1 2.22657e-05
45 *2631:A2 *2633:C 6.7429e-05
46 *2631:A2 *799:68 0.0006539
47 *2633:B *2633:C 3.08902e-05
48 *2636:A3 *799:38 0.000684193
49 *2638:A2 *799:38 0.000134113
50 *2639:A2 *799:38 5.4883e-05
51 *2641:A1 *799:27 4.8524e-05
52 *2641:A2 *2641:C 0.000140167
53 *2641:A2 *799:27 0.000782422
54 *2641:B *2641:C 3.08902e-05
55 *2641:B *799:27 0.00057798
56 *2843:B *799:105 1.91231e-05
57 *2844:A2 *799:105 0.000173033
58 *3007:B1 *799:95 0.000734733
59 *3009:A1 *799:95 4.99514e-05
60 *3023:B1 *799:68 0.000276815
61 *3148:D *3325:I 4.51731e-05
62 *3149:D *799:85 4.92886e-05
63 *3149:CLK *799:12 1.90059e-05
64 *3154:D *799:38 4.36692e-05
65 *3156:D *799:12 5.37083e-05
66 *3275:I *2641:C 2.25184e-05
67 *3275:I *799:27 0.000468261
68 *3275:I *799:38 6.10581e-05
69 *3289:I *2625:C 6.4431e-05
70 *3289:I *3325:I 9.88736e-06
71 *3289:I *799:105 0.00025142
72 *680:35 *799:12 0.000203643
73 *693:10 *799:95 6.33213e-05
74 *750:10 *2625:C 1.97747e-05
75 *750:10 *799:105 9.88736e-06
76 *764:44 *799:95 4.2691e-05
77 *765:62 *799:68 4.24867e-05
78 *766:12 *799:38 5.70962e-05
79 *766:16 *799:27 0.000148486
80 *766:16 *799:38 1.20079e-05
81 *766:22 *799:27 0.000187379
82 *774:41 *2631:A1 3.73535e-05
83 *774:41 *799:68 0.000144093
84 *774:41 *799:95 5.74961e-05
85 *778:16 *799:85 0.000159942
86 *778:16 *799:95 0.000342236
87 *781:21 *2628:A1 0.000353025
88 *781:21 *799:40 6.25545e-05
89 *781:21 *799:42 2.76566e-05
90 *781:32 *799:38 2.65777e-05
91 *781:32 *799:40 0.000211024
*RES
1 *3326:Z *799:12 14.868 
2 *799:12 *2641:C 5.108 
3 *799:12 *799:27 6.46 
4 *799:27 *2639:A1 4.5 
5 *799:27 *799:38 8.148 
6 *799:38 *799:40 2.812 
7 *799:40 *799:42 0.532 
8 *799:42 *2628:A1 12.724 
9 *799:42 *2633:C 9.532 
10 *799:40 *799:68 8.224 
11 *799:68 *2631:A1 4.956 
12 *799:68 *799:85 9.912 
13 *799:85 *799:95 16.068 
14 *799:95 *799:105 13.028 
15 *799:105 *3325:I 6.4 
16 *799:105 *2620:A1 4.5 
17 *799:95 *2625:C 6.172 
18 *799:85 *2623:A1 4.5 
19 *799:38 *2636:A1 9.228 
*END

*D_NET *800 0.026642
*CONN
*I *3022:A1 I *D gf180mcu_fd_sc_mcu7t5v0__nor2_1
*I *3067:A1 I *D gf180mcu_fd_sc_mcu7t5v0__nor3_1
*I *3091:B I *D gf180mcu_fd_sc_mcu7t5v0__aoi21_1
*I *3089:A1 I *D gf180mcu_fd_sc_mcu7t5v0__nor3_1
*I *3069:C I *D gf180mcu_fd_sc_mcu7t5v0__aoi211_1
*I *3095:A1 I *D gf180mcu_fd_sc_mcu7t5v0__nor3_1
*I *3112:C I *D gf180mcu_fd_sc_mcu7t5v0__aoi211_1
*I *3110:C I *D gf180mcu_fd_sc_mcu7t5v0__aoi211_1
*I *3014:A1 I *D gf180mcu_fd_sc_mcu7t5v0__nor2_1
*I *3006:A1 I *D gf180mcu_fd_sc_mcu7t5v0__nor2_1
*I *3327:Z O *D gf180mcu_fd_sc_mcu7t5v0__dlyb_1
*CAP
1 *3022:A1 0.000926794
2 *3067:A1 0
3 *3091:B 0.000540665
4 *3089:A1 5.37406e-05
5 *3069:C 0.000455445
6 *3095:A1 0
7 *3112:C 0.000254047
8 *3110:C 0.000119128
9 *3014:A1 0
10 *3006:A1 0.000168512
11 *3327:Z 0
12 *800:72 0.000508045
13 *800:59 0.000573
14 *800:46 0.000653169
15 *800:20 0.000508949
16 *800:16 0.000720259
17 *800:14 0.000468151
18 *800:10 0.00111972
19 *800:8 0.00216113
20 *800:6 0.00281114
21 *3022:A1 *3038:A1 0.00120516
22 *3022:A1 *3108:C 9.02676e-05
23 *3022:A1 *802:8 8.81341e-06
24 *3022:A1 *802:12 0.000378617
25 *3069:C *2481:I 0.000877667
26 *3069:C *3019:B2 0
27 *3069:C *818:17 6.70884e-05
28 *3091:B *2742:A1 0
29 *3091:B *3088:A1 2.71997e-05
30 *800:8 *3086:A1 0.000215472
31 *800:8 *802:12 0.00112238
32 *800:8 *809:10 0
33 *800:10 *3002:A1 0
34 *800:10 *816:17 0
35 *800:14 *3002:A1 0
36 *800:16 *3002:A1 1.2682e-05
37 *800:20 *3002:A1 2.43212e-05
38 *800:46 *3011:B2 1.76272e-05
39 DAT_O[6] *3022:A1 0.000151876
40 *2477:I *3112:C 0.000979568
41 *2477:I *800:72 8.84331e-05
42 *2520:A2 *3069:C 4.66935e-05
43 *2520:A2 *800:72 2.20428e-05
44 *3002:A2 *800:46 0.00139824
45 *3003:C *3112:C 0.000351422
46 *3005:A1 *3006:A1 0
47 *3006:A2 *3006:A1 0.000261801
48 *3010:A2 *3069:C 0
49 *3013:A1 *3006:A1 0
50 *3013:A1 *800:20 0
51 *3036:A1 *3069:C 0.00024914
52 *3036:A1 *800:72 0.000118153
53 *3061:A1 *800:8 7.72448e-05
54 *3086:A3 *800:8 0.000566901
55 *3088:A2 *3091:B 0
56 *3089:A2 *3091:B 2.36392e-05
57 *3089:A3 *3091:B 2.40935e-05
58 *3095:A3 *3069:C 5.35814e-05
59 *3107:A1 *3022:A1 0.000107367
60 *3108:B *3022:A1 0.00011955
61 *3109:A2 *800:46 1.35204e-05
62 *3109:A2 *800:59 7.98484e-05
63 *3110:A1 *3110:C 1.74373e-05
64 *3110:A1 *800:46 0
65 *3110:B *800:59 9.17202e-06
66 *3112:A2 *3110:C 3.83835e-06
67 *3112:B *3112:C 1.97747e-05
68 *3242:D *3006:A1 0.00102986
69 *3243:D *3022:A1 0.000277343
70 *3243:CLK *3022:A1 6.60524e-05
71 *3250:D *800:8 6.83457e-05
72 *3252:D *3091:B 0
73 *3252:D *800:10 0.000146948
74 *3252:CLK *800:8 0
75 *3252:CLK *800:10 0
76 *3259:D *3089:A1 0.000317494
77 *3259:CLK *800:46 5.29122e-05
78 *3266:D *3022:A1 4.41944e-05
79 *3268:D *3112:C 0.000353805
80 *3368:I *3006:A1 0
81 *3368:I *800:20 1.51227e-05
82 *212:58 *3089:A1 4.9823e-05
83 *212:58 *800:46 0.00188026
84 *212:58 *800:59 7.22665e-05
85 *212:62 *3112:C 0.000250276
86 *212:62 *800:72 6.7889e-05
87 *467:30 *800:59 3.36949e-05
88 *563:18 *3112:C 9.17202e-06
89 *656:95 *3091:B 8.55327e-05
90 *682:35 *800:8 0
91 *695:85 *3091:B 0
92 *696:6 *800:59 0.00013063
93 *696:86 *800:59 0.000363388
94 *707:58 *3089:A1 0.000207586
95 *707:58 *3091:B 0
96 *707:58 *800:59 6.03924e-05
97 *773:48 *3069:C 2.40434e-05
98 *792:34 *3069:C 0.000162448
*RES
1 *3327:Z *800:6 9 
2 *800:6 *800:8 12.996 
3 *800:8 *800:10 2.052 
4 *800:10 *800:14 1.672 
5 *800:14 *800:16 0.532 
6 *800:16 *800:20 2.128 
7 *800:20 *3006:A1 11.812 
8 *800:20 *3014:A1 9 
9 *800:16 *800:46 10.124 
10 *800:46 *3110:C 5.412 
11 *800:46 *800:59 7.008 
12 *800:59 *3112:C 12.648 
13 *800:59 *800:72 0.836 
14 *800:72 *3095:A1 9 
15 *800:72 *3069:C 13.712 
16 *800:14 *3089:A1 10.14 
17 *800:10 *3091:B 12.268 
18 *800:8 *3067:A1 9 
19 *800:6 *3022:A1 17.664 
*END

*D_NET *801 0.00104874
*CONN
*I *2506:A2 I *D gf180mcu_fd_sc_mcu7t5v0__nor3_1
*I *3353:Z O *D gf180mcu_fd_sc_mcu7t5v0__dlyb_1
*CAP
1 *2506:A2 0.000119961
2 *3353:Z 0.000119961
3 *2506:A1 *2506:A2 0.000299159
4 *2506:A3 *2506:A2 4.10312e-05
5 *226:10 *2506:A2 0.000314174
6 *757:10 *2506:A2 0.000154451
*RES
1 *3353:Z *2506:A2 11.28 
*END

*D_NET *802 0.02551
*CONN
*I *3108:C I *D gf180mcu_fd_sc_mcu7t5v0__aoi211_1
*I *3038:A1 I *D gf180mcu_fd_sc_mcu7t5v0__nor2_1
*I *3100:B I *D gf180mcu_fd_sc_mcu7t5v0__aoi21_1
*I *3075:A1 I *D gf180mcu_fd_sc_mcu7t5v0__nor3_1
*I *3103:B I *D gf180mcu_fd_sc_mcu7t5v0__aoi21_1
*I *3060:B I *D gf180mcu_fd_sc_mcu7t5v0__aoi21_1
*I *3078:A1 I *D gf180mcu_fd_sc_mcu7t5v0__nor3_1
*I *3064:A1 I *D gf180mcu_fd_sc_mcu7t5v0__nor3_1
*I *3086:A1 I *D gf180mcu_fd_sc_mcu7t5v0__nor3_1
*I *3328:Z O *D gf180mcu_fd_sc_mcu7t5v0__dlyb_1
*CAP
1 *3108:C 8.06887e-05
2 *3038:A1 0.000966895
3 *3100:B 0.00106002
4 *3075:A1 0
5 *3103:B 0.000168401
6 *3060:B 0
7 *3078:A1 0
8 *3064:A1 0.000224007
9 *3086:A1 4.23786e-06
10 *3328:Z 0.000746662
11 *802:82 0.000362676
12 *802:72 0.00141272
13 *802:41 0.00035303
14 *802:37 0.000215182
15 *802:35 0.000505172
16 *802:27 0.00138639
17 *802:12 0.000293547
18 *802:8 0.000957753
19 *3064:A1 *2747:A1 0
20 *3100:B *2753:A1 0.000295337
21 *3103:B *3102:A1 0.000114041
22 *3103:B *821:10 7.84143e-05
23 *3103:B *821:25 7.83779e-05
24 *802:27 *2750:A1 0.000371311
25 *802:27 *2995:B2 9.30038e-05
26 *802:35 *814:12 6.817e-05
27 *802:37 *2753:A1 0
28 *802:37 *814:12 7.32209e-05
29 *802:72 *2753:A1 0
30 *802:72 *814:12 0.000207761
31 *802:82 *2753:A1 0.00062779
32 *802:82 *3039:B2 0
33 DAT_O[6] *3038:A1 2.68958e-05
34 DAT_O[6] *3108:C 0.000116995
35 DAT_O[6] *802:8 9.53792e-05
36 *2528:A1 *3100:B 6.11873e-05
37 *2757:A1 *802:35 1.14705e-06
38 *2757:A1 *802:37 3.95494e-05
39 *2757:A1 *802:72 0.000137346
40 *2757:A1 *802:82 0.0001181
41 *2817:A1 *802:8 0.000107858
42 *2817:B *802:8 4.97712e-06
43 *2995:A2 *802:27 8.55242e-05
44 *2995:B1 *3103:B 5.13352e-06
45 *2996:A2 *3064:A1 0.000703104
46 *2996:A2 *802:27 6.95885e-05
47 *2996:A2 *802:35 0.000876918
48 *2996:A2 *802:41 0.00116493
49 *3022:A1 *3038:A1 0.00120516
50 *3022:A1 *3108:C 9.02676e-05
51 *3022:A1 *802:8 8.81341e-06
52 *3022:A1 *802:12 0.000378617
53 *3038:A2 *3038:A1 6.85937e-05
54 *3039:A2 *3103:B 8.55242e-05
55 *3064:A2 *3064:A1 0.000159117
56 *3074:A2 *802:35 0.000433002
57 *3075:A2 *3100:B 1.3758e-05
58 *3076:A1 *802:82 0.000265489
59 *3078:A2 *802:41 0.000435272
60 *3084:A2 *3103:B 1.97747e-05
61 *3084:A2 *802:35 0
62 *3086:A2 *802:27 2.11326e-05
63 *3086:A2 *802:35 2.67803e-05
64 *3099:A2 *3103:B 0.000200571
65 *3107:A1 *3038:A1 0.000408037
66 *3107:A1 *802:35 5.43087e-05
67 *3108:A1 *802:12 0.000335379
68 *3243:CLK *3038:A1 0.000726065
69 *3250:D *3086:A1 3.19219e-05
70 *3250:D *802:27 0.000673033
71 *3258:D *3086:A1 0.000151949
72 *3258:D *802:12 0.000623573
73 *3263:CLK *3103:B 8.49277e-05
74 *3266:D *3108:C 0.000154451
75 *3277:I *3100:B 0.000305935
76 *3277:I *802:72 7.71104e-05
77 *3277:I *802:82 7.31349e-05
78 *3278:I *3100:B 0
79 *3332:I *802:8 0
80 *3337:I *3038:A1 0
81 *3337:I *802:8 7.01996e-05
82 *3342:I *3100:B 1.48976e-05
83 *3370:I *3038:A1 6.73203e-06
84 *3370:I *802:35 2.10669e-05
85 *639:20 *3103:B 2.41362e-05
86 *639:57 *802:41 0.000529172
87 *682:35 *3064:A1 5.48389e-05
88 *682:86 *802:27 0.000545575
89 *682:112 *3038:A1 0.000378481
90 *713:17 *802:8 7.70742e-05
91 *726:14 *3100:B 4.97386e-06
92 *727:10 *3064:A1 0.000299417
93 *727:10 *802:41 9.10024e-05
94 *727:12 *3064:A1 4.07337e-05
95 *732:10 *3100:B 9.04313e-05
96 *743:10 *3038:A1 1.70306e-05
97 *771:23 *3103:B 0.000435289
98 *800:8 *3086:A1 0.000215472
99 *800:8 *802:12 0.00112238
*RES
1 *3328:Z *802:8 9.668 
2 *802:8 *802:12 8.376 
3 *802:12 *3086:A1 9.532 
4 *802:12 *802:27 12.572 
5 *802:27 *802:35 7.768 
6 *802:35 *802:37 0.532 
7 *802:37 *802:41 7.616 
8 *802:41 *3064:A1 12.116 
9 *802:41 *3078:A1 9 
10 *802:37 *3060:B 4.5 
11 *802:35 *802:72 6.02 
12 *802:72 *802:82 7.084 
13 *802:82 *3103:B 15.932 
14 *802:82 *3075:A1 4.5 
15 *802:72 *3100:B 15.916 
16 *802:27 *3038:A1 18.576 
17 *802:8 *3108:C 5.64 
*END

*D_NET *803 0.0186188
*CONN
*I *3083:A1 I *D gf180mcu_fd_sc_mcu7t5v0__nor3_1
*I *2513:A1 I *D gf180mcu_fd_sc_mcu7t5v0__or2_1
*I *2650:A1 I *D gf180mcu_fd_sc_mcu7t5v0__nor3_1
*I *2653:A1 I *D gf180mcu_fd_sc_mcu7t5v0__nor3_1
*I *2647:A1 I *D gf180mcu_fd_sc_mcu7t5v0__nor3_1
*I *2644:A1 I *D gf180mcu_fd_sc_mcu7t5v0__nor3_1
*I *2512:A1 I *D gf180mcu_fd_sc_mcu7t5v0__nor2_1
*I *3053:B I *D gf180mcu_fd_sc_mcu7t5v0__aoi21_1
*I *3049:A1 I *D gf180mcu_fd_sc_mcu7t5v0__nor2_1
*I *3114:C I *D gf180mcu_fd_sc_mcu7t5v0__aoi211_1
*I *3329:Z O *D gf180mcu_fd_sc_mcu7t5v0__dlyb_1
*CAP
1 *3083:A1 0.000208128
2 *2513:A1 3.58553e-05
3 *2650:A1 0.000101654
4 *2653:A1 0.00097696
5 *2647:A1 0.000113057
6 *2644:A1 8.47143e-05
7 *2512:A1 0
8 *3053:B 7.20575e-05
9 *3049:A1 0.000172054
10 *3114:C 5.95477e-05
11 *3329:Z 0
12 *803:71 0.00116146
13 *803:60 0.000156155
14 *803:58 0.000912803
15 *803:51 0.000841013
16 *803:27 0.000404335
17 *803:25 0.00089697
18 *803:21 0.000845715
19 *803:10 0.000844967
20 *803:6 0.000890572
21 *2650:A1 *3007:C2 0
22 *2653:A1 *2823:A1 0.000435272
23 *2653:A1 *2929:B 0.00032464
24 *2653:A1 *3040:C2 0
25 *2653:A1 *912:12 9.65141e-05
26 *3049:A1 *3015:C2 0
27 *3083:A1 *2987:B2 1.14482e-05
28 *3083:A1 *3329:I 8.22324e-05
29 *803:10 *808:8 5.72168e-05
30 *803:27 *3015:C2 0
31 *803:58 *3007:C2 0
32 *803:58 *3326:I 0.00026286
33 *803:71 *3040:C2 0
34 *2514:A1 *803:25 7.35289e-05
35 *2514:A2 *803:51 1.66121e-06
36 *2521:A2 *3083:A1 8.92063e-06
37 *2521:A2 *803:10 5.02525e-05
38 *2644:A2 *2644:A1 0.000469567
39 *2644:A2 *803:71 0.000206341
40 *2647:A2 *2647:A1 0.000191693
41 *2650:A2 *2650:A1 3.08902e-05
42 *2652:A2 *2653:A1 6.68265e-05
43 *2653:A3 *2653:A1 7.88344e-05
44 *2661:A2 *2653:A1 0.000752915
45 *2823:A2 *2653:A1 0.000331102
46 *2839:A1 *2653:A1 0.00010639
47 *2929:A1 *2653:A1 0.000431535
48 *2929:A2 *2653:A1 4.56746e-05
49 *2931:C *2653:A1 6.00599e-05
50 *2933:A1 *2653:A1 0
51 *2935:C *2653:A1 2.6126e-05
52 *3048:A2 *3053:B 1.83229e-05
53 *3048:A2 *803:25 4.32371e-05
54 *3048:A2 *803:27 1.28891e-05
55 *3048:A2 *803:51 0.000147313
56 *3048:A2 *803:58 0.000116414
57 *3053:A1 *3049:A1 7.22944e-05
58 *3053:A1 *803:27 1.94858e-05
59 *3114:A1 *803:10 3.26804e-05
60 *3157:D *803:58 2.333e-05
61 *3229:CLK *2513:A1 1.08611e-05
62 *3229:CLK *803:21 8.7332e-05
63 *3248:D *3053:B 9.26705e-05
64 *3257:D *3083:A1 0
65 *3310:I *2653:A1 0.000898011
66 *3310:I *803:71 0.000396904
67 *3316:I *2653:A1 0.000120146
68 *229:12 *803:27 0
69 *230:26 *3083:A1 0
70 *230:26 *803:10 0
71 *230:28 *803:10 0
72 *230:28 *803:25 0.000164336
73 *230:30 *803:25 0.000197335
74 *232:8 *803:51 9.88736e-06
75 *239:12 *803:10 0
76 *242:8 *803:10 0.000173175
77 *242:8 *803:25 0
78 *242:16 *803:25 0
79 *334:16 *2653:A1 3.2235e-05
80 *469:22 *2653:A1 6.40724e-05
81 *470:14 *2653:A1 0.000228407
82 *471:8 *2653:A1 1.70277e-05
83 *580:12 *3114:C 8.55242e-05
84 *684:45 *2647:A1 6.25074e-05
85 *684:45 *2650:A1 0.000131642
86 *684:45 *803:58 0.000186933
87 *684:49 *803:58 0.000848846
88 *696:93 *3114:C 7.14125e-05
89 *696:93 *803:21 2.05156e-05
90 *707:58 *2513:A1 8.44403e-05
91 *707:58 *3114:C 0.000369754
92 *707:58 *803:21 0.000206527
93 *767:10 *803:10 0
94 *767:106 *3083:A1 0.000557712
95 *767:106 *803:10 3.41363e-05
*RES
1 *3329:Z *803:6 9 
2 *803:6 *803:10 8.984 
3 *803:10 *3114:C 5.488 
4 *803:10 *803:21 1.216 
5 *803:21 *803:25 9.136 
6 *803:25 *803:27 0.988 
7 *803:27 *3049:A1 10.368 
8 *803:27 *3053:B 9.684 
9 *803:25 *803:51 4.88 
10 *803:51 *2512:A1 4.5 
11 *803:51 *803:58 6.46 
12 *803:58 *803:60 4.5 
13 *803:60 *2644:A1 10.14 
14 *803:60 *803:71 1.14 
15 *803:71 *2647:A1 10.14 
16 *803:71 *2653:A1 19.944 
17 *803:58 *2650:A1 5.336 
18 *803:21 *2513:A1 5.032 
19 *803:6 *3083:A1 11.128 
*END

*D_NET *804 0.0194835
*CONN
*I *2526:A1 I *D gf180mcu_fd_sc_mcu7t5v0__nor2_1
*I *2659:A1 I *D gf180mcu_fd_sc_mcu7t5v0__nor3_1
*I *2656:A1 I *D gf180mcu_fd_sc_mcu7t5v0__nor3_1
*I *2663:A2 I *D gf180mcu_fd_sc_mcu7t5v0__nor2_1
*I *3057:B I *D gf180mcu_fd_sc_mcu7t5v0__aoi21_1
*I *2529:B I *D gf180mcu_fd_sc_mcu7t5v0__aoi21_1
*I *3072:A1 I *D gf180mcu_fd_sc_mcu7t5v0__nor3_1
*I *3097:B I *D gf180mcu_fd_sc_mcu7t5v0__aoi21_1
*I *2990:A1 I *D gf180mcu_fd_sc_mcu7t5v0__nor2_1
*I *3030:A1 I *D gf180mcu_fd_sc_mcu7t5v0__nor2_1
*I *3330:Z O *D gf180mcu_fd_sc_mcu7t5v0__dlyb_1
*CAP
1 *2526:A1 0.000399744
2 *2659:A1 0.000131455
3 *2656:A1 0.00014177
4 *2663:A2 0
5 *3057:B 0.000917375
6 *2529:B 0
7 *3072:A1 0
8 *3097:B 0
9 *2990:A1 0
10 *3030:A1 0.000146427
11 *3330:Z 0
12 *804:101 0.000974171
13 *804:90 0.000887996
14 *804:67 0.00150212
15 *804:54 0.00103341
16 *804:37 0.000751072
17 *804:28 0.00062267
18 *804:10 0.000323129
19 *804:8 0.000735727
20 *804:4 0.000451462
21 *2526:A1 *2510:A1 3.81953e-05
22 *3030:A1 *3330:I 0
23 *3057:B *3056:A1 8.69862e-05
24 *3057:B *805:43 0
25 *804:10 *3330:I 0
26 *804:54 *3326:I 0.000469567
27 *804:67 *805:43 2.41778e-05
28 *804:90 *805:43 0
29 *804:101 *805:43 0
30 *2475:I *804:54 2.84988e-05
31 *2498:I *804:67 8.0338e-05
32 *2510:A2 *2526:A1 0.00085433
33 *2510:A2 *804:8 0
34 *2524:A1 *804:54 5.72245e-06
35 *2525:A1 *804:28 0.000135047
36 *2529:A1 *804:54 0.000131651
37 *2529:A2 *804:67 6.36516e-05
38 *2656:A2 *2656:A1 6.73926e-05
39 *2659:A3 *2656:A1 3.89111e-05
40 *2659:A3 *2659:A1 4.07435e-05
41 *2664:A1 *804:90 0
42 *2664:A1 *804:101 0
43 *2987:A1 *3057:B 0.000404411
44 *2987:A2 *3057:B 0.000285002
45 *2988:A1 *3057:B 0
46 *2990:A2 *3030:A1 5.86721e-05
47 *3039:C1 *804:54 0
48 *3056:A2 *3057:B 0.000106363
49 *3105:A2 *3057:B 3.83835e-06
50 *3115:A1 *804:37 0.000191033
51 *3116:A1 *804:54 9.2298e-05
52 *3116:A2 *804:54 1.53627e-05
53 *3116:B *804:37 9.26705e-05
54 *3116:B *804:54 2.74171e-05
55 *3161:D *2656:A1 8.55242e-05
56 *3161:D *2659:A1 0
57 *3161:D *804:101 0
58 *3162:D *2659:A1 0.000595303
59 *3162:D *804:101 0.000716048
60 *3239:D *3030:A1 0.000618391
61 *3244:D *3030:A1 0.00026286
62 *3254:D *804:37 0.00031512
63 *3265:D *3057:B 0
64 *3265:D *804:67 0.000175636
65 *3265:CLK *804:67 0.00046699
66 *3270:D *804:37 0
67 *3270:D *804:54 0
68 *3272:D *2526:A1 0.000307974
69 *3273:D *804:54 1.16944e-05
70 *3273:D *804:67 1.3758e-05
71 *3281:I *804:101 0
72 *3294:I *2656:A1 0
73 *3303:I *804:67 0
74 *3319:I *804:67 0
75 *3335:I *804:28 0
76 *3340:I *2526:A1 0
77 *3340:I *804:8 0
78 *3340:I *804:28 0.000517091
79 *3344:I *2526:A1 6.06919e-05
80 *3354:I *804:28 0
81 *230:14 *2526:A1 5.14116e-06
82 *640:84 *3057:B 4.98138e-05
83 *680:240 *2656:A1 0.000320873
84 *683:51 *3057:B 6.48283e-06
85 *686:46 *804:54 7.45328e-07
86 *687:10 *2656:A1 0
87 *687:25 *2659:A1 7.3227e-05
88 *697:19 *3057:B 4.58601e-06
89 *697:19 *804:90 7.42484e-05
90 *697:30 *804:90 1.3758e-05
91 *702:35 *804:54 0.000125479
92 *703:12 *2526:A1 3.02222e-05
93 *704:25 *804:67 9.96758e-05
94 *704:29 *804:54 0
95 *725:8 *3057:B 3.24134e-05
96 *725:8 *804:28 0.000431808
97 *725:25 *3057:B 0.00111802
98 *730:10 *804:28 0.00024199
99 *730:14 *804:28 5.43087e-05
100 *759:8 *804:54 7.83779e-05
101 *759:34 *3057:B 0
102 *759:54 *804:101 0
103 *767:131 *804:54 2.14567e-06
104 *769:10 *3057:B 3.36925e-05
105 *769:43 *804:28 8.59748e-05
106 *787:12 *3057:B 9.26705e-05
*RES
1 *3330:Z *804:4 4.5 
2 *804:4 *804:8 0.456 
3 *804:8 *804:10 0.988 
4 *804:10 *3030:A1 6.552 
5 *804:10 *2990:A1 4.5 
6 *804:8 *804:28 14.092 
7 *804:28 *3097:B 4.5 
8 *804:28 *804:37 1.52 
9 *804:37 *3072:A1 4.5 
10 *804:37 *804:54 13.712 
11 *804:54 *2529:B 4.5 
12 *804:54 *804:67 12.8 
13 *804:67 *3057:B 30.404 
14 *804:67 *804:90 1.14 
15 *804:90 *2663:A2 4.5 
16 *804:90 *804:101 4.94 
17 *804:101 *2656:A1 15.476 
18 *804:101 *2659:A1 6.096 
19 *804:4 *2526:A1 17.452 
*END

*D_NET *805 0.017676
*CONN
*I *2664:A2 I *D gf180mcu_fd_sc_mcu7t5v0__or2_1
*I *2662:A1 I *D gf180mcu_fd_sc_mcu7t5v0__nor3_1
*I *3329:I I *D gf180mcu_fd_sc_mcu7t5v0__dlyb_1
*I *3106:C I *D gf180mcu_fd_sc_mcu7t5v0__aoi211_1
*I *3116:C I *D gf180mcu_fd_sc_mcu7t5v0__aoi211_1
*I *3330:I I *D gf180mcu_fd_sc_mcu7t5v0__dlyb_1
*I *3331:Z O *D gf180mcu_fd_sc_mcu7t5v0__dlyb_1
*CAP
1 *2664:A2 0
2 *2662:A1 0.000954197
3 *3329:I 0.000405652
4 *3106:C 0
5 *3116:C 0.000116807
6 *3330:I 0.000629436
7 *3331:Z 0.000201722
8 *805:57 0.000722733
9 *805:49 0.00153565
10 *805:43 0.00117349
11 *805:22 0.00145363
12 *2662:A1 *2652:A1 7.86358e-05
13 *2662:A1 *2655:A1 4.66861e-05
14 *2662:A1 *2658:A1 1.29518e-05
15 *2662:A1 *3023:C2 0
16 *2662:A1 *911:10 0.000122747
17 *3116:C *3326:I 8.67049e-05
18 *805:22 *3326:I 3.6222e-05
19 *805:49 *872:10 0
20 *2498:I *805:49 0
21 *2498:I *805:57 0.000171918
22 *2518:A2 *3329:I 1.53758e-05
23 *2524:A2 *805:43 7.35289e-05
24 *2525:A3 *805:43 2.10698e-05
25 *2526:A2 *805:43 1.18656e-05
26 *2529:A1 *805:43 4.89305e-05
27 *2529:A2 *805:43 0.000358107
28 *2655:A2 *2662:A1 0.000770408
29 *2656:A3 *2662:A1 0.000433917
30 *2657:A2 *2662:A1 0
31 *2659:A3 *2662:A1 0.000199473
32 *2662:A2 *2662:A1 5.53802e-05
33 *2664:A1 *805:43 0.000161681
34 *3030:A1 *3330:I 0
35 *3057:B *805:43 0
36 *3083:A1 *3329:I 8.22324e-05
37 *3105:A1 *3329:I 0.00116391
38 *3105:B1 *3329:I 0.00018927
39 *3106:A2 *3329:I 3.74244e-05
40 *3106:B *3329:I 0.000184378
41 *3106:B *805:57 5.89964e-05
42 *3257:D *3329:I 8.7332e-05
43 *3265:D *805:43 3.73627e-05
44 *3265:CLK *805:43 0.000320584
45 *3272:D *805:22 0.000469567
46 *3272:CLK *805:43 0.0010798
47 *3294:I *2662:A1 8.59272e-06
48 *3303:I *805:43 4.12743e-05
49 *3312:I *3329:I 0
50 *3319:I *805:49 0.000112962
51 *3335:I *3330:I 0
52 *3335:I *805:22 5.76373e-06
53 *3340:I *3330:I 2.6126e-05
54 *3340:I *805:22 0.000562242
55 *3344:I *805:22 0.000151303
56 *3344:I *805:43 0.000115603
57 *3354:I *805:22 0
58 *200:12 *805:57 0.000285145
59 *218:8 *805:49 8.84331e-05
60 *230:14 *805:22 4.0581e-05
61 *230:14 *805:43 0
62 *230:20 *805:43 0
63 *243:16 *3329:I 0.000367066
64 *243:26 *2662:A1 0
65 *243:26 *805:57 0
66 *334:10 *805:49 0.000822088
67 *680:240 *2662:A1 0
68 *697:30 *805:49 0
69 *702:10 *3116:C 6.40545e-05
70 *703:12 *3116:C 6.31034e-05
71 *703:12 *805:22 0.000165303
72 *759:12 *805:43 1.51424e-05
73 *759:54 *805:43 0.000946229
74 *767:106 *3329:I 2.4945e-05
75 *769:25 *3116:C 0.000136112
76 *769:43 *3330:I 0
77 *769:43 *805:22 0
78 *804:10 *3330:I 0
79 *804:67 *805:43 2.41778e-05
80 *804:90 *805:43 0
81 *804:101 *805:43 0
*RES
1 *3331:Z *3330:I 10.14 
2 *3330:I *805:22 13.408 
3 *805:22 *3116:C 10.292 
4 *805:22 *805:43 23.152 
5 *805:43 *805:49 13.028 
6 *805:49 *805:57 2.736 
7 *805:57 *3106:C 4.5 
8 *805:57 *3329:I 9.972 
9 *805:49 *2662:A1 21.1 
10 *805:43 *2664:A2 4.5 
*END

*D_NET *806 0.0328558
*CONN
*I *3326:I I *D gf180mcu_fd_sc_mcu7t5v0__dlyb_1
*I *3331:I I *D gf180mcu_fd_sc_mcu7t5v0__dlyb_1
*I *3327:I I *D gf180mcu_fd_sc_mcu7t5v0__dlyb_1
*I *3328:I I *D gf180mcu_fd_sc_mcu7t5v0__dlyb_1
*I *3324:I I *D gf180mcu_fd_sc_mcu7t5v0__dlyb_1
*I *3332:Z O *D gf180mcu_fd_sc_mcu7t5v0__dlyb_1
*CAP
1 *3326:I 0.00249135
2 *3331:I 0
3 *3327:I 0
4 *3328:I 0
5 *3324:I 0.00211761
6 *3332:Z 0
7 *806:45 0.00323273
8 *806:16 0.00253711
9 *806:8 0.000697513
10 *806:4 0.00101939
11 *3326:I *3015:C2 0.000877328
12 *806:8 *2750:A1 0
13 *806:45 *2750:A1 1.84662e-05
14 DAT_O[4] *806:8 1.02578e-05
15 DAT_O[4] *806:45 0.000154507
16 *2479:I *806:8 1.72887e-05
17 *2519:B *3326:I 2.97155e-05
18 *2521:A1 *3326:I 0.000420442
19 *2665:A1 *3324:I 0
20 *2665:A2 *3324:I 0
21 *2747:A2 *3324:I 0.000580653
22 *2748:A2 *3324:I 8.05328e-06
23 *2751:A2 *3324:I 0.00101909
24 *2753:A2 *3324:I 0.000378617
25 *2755:A1 *3324:I 0.000496526
26 *2757:A1 *3324:I 0.0002956
27 *2760:A1 *3324:I 0.00019545
28 *2760:A3 *3324:I 0.000174507
29 *2761:A1 *806:8 0.000194624
30 *2761:A1 *806:16 0.000916903
31 *2762:A3 *3324:I 0
32 *2767:A2 *3324:I 0.000701299
33 *2767:A3 *3324:I 0.000452526
34 *2769:A1 *3324:I 0
35 *2769:A2 *3324:I 0
36 *2775:A1 *3324:I 5.48099e-05
37 *2775:A2 *3324:I 2.26999e-05
38 *2816:A2 *806:16 0
39 *2818:A2 *3324:I 0.000237595
40 *2932:A1 *3326:I 0
41 *3028:A2 *3326:I 5.14116e-06
42 *3029:B2 *3326:I 4.38725e-05
43 *3029:B2 *806:45 5.555e-05
44 *3035:C1 *3326:I 0
45 *3105:A1 *3326:I 0
46 *3116:A1 *3326:I 4.65442e-05
47 *3116:C *3326:I 8.67049e-05
48 *3203:D *806:16 0.000196417
49 *3203:CLK *3324:I 5.09937e-05
50 *3203:CLK *806:16 8.05911e-06
51 *3229:CLK *3326:I 0.000302034
52 *3258:D *806:8 0.000307974
53 *3258:D *806:16 2.6126e-05
54 *3332:I *806:16 0
55 *3354:I *3326:I 3.26422e-05
56 *230:26 *3326:I 0
57 *230:28 *3326:I 0
58 *241:10 *3326:I 0
59 *243:16 *3326:I 0.000138974
60 *446:25 *3324:I 0.000146666
61 *446:25 *806:16 8.55242e-05
62 *447:12 *3324:I 2.11881e-05
63 *616:22 *3326:I 0.00078605
64 *680:31 *3326:I 4.74709e-05
65 *680:35 *3326:I 0.000185032
66 *695:24 *3324:I 0.000209085
67 *701:16 *3326:I 7.84009e-05
68 *708:25 *3324:I 0.000523951
69 *708:43 *3324:I 0.00060781
70 *714:18 *3324:I 0.00075922
71 *715:10 *3324:I 5.98831e-05
72 *715:16 *3324:I 0.00015894
73 *725:8 *3326:I 0
74 *727:10 *806:8 0.00103802
75 *727:10 *806:16 0.000525689
76 *730:10 *3326:I 0.000483804
77 *731:10 *806:45 0.000766943
78 *739:10 *806:45 1.53696e-05
79 *744:10 *806:45 8.94144e-05
80 *769:25 *3326:I 1.75634e-05
81 *769:43 *3326:I 0.000331964
82 *769:43 *806:8 0.000328211
83 *769:43 *806:45 0.00416725
84 *797:116 *3324:I 0
85 *803:58 *3326:I 0.00026286
86 *804:54 *3326:I 0.000469567
87 *805:22 *3326:I 3.6222e-05
*RES
1 *3332:Z *806:4 4.5 
2 *806:4 *806:8 4.256 
3 *806:8 *806:16 4.864 
4 *806:16 *3324:I 36.224 
5 *806:16 *3328:I 4.5 
6 *806:8 *3327:I 4.5 
7 *806:4 *806:45 11.248 
8 *806:45 *3331:I 4.5 
9 *806:45 *3326:I 36.528 
*END

*D_NET *807 0.00132878
*CONN
*I *2510:A1 I *D gf180mcu_fd_sc_mcu7t5v0__nand2_1
*I *3354:Z O *D gf180mcu_fd_sc_mcu7t5v0__dlyb_1
*CAP
1 *2510:A1 0.000300393
2 *3354:Z 0.000300393
3 *2510:A2 *2510:A1 3.38323e-05
4 *2526:A1 *2510:A1 3.81953e-05
5 *3272:D *2510:A1 0.000123951
6 *230:14 *2510:A1 0.000532013
7 *702:10 *2510:A1 0
*RES
1 *3354:Z *2510:A1 11.812 
*END

*D_NET *808 0.0114202
*CONN
*I *2987:B2 I *D gf180mcu_fd_sc_mcu7t5v0__aoi222_1
*I *2747:A1 I *D gf180mcu_fd_sc_mcu7t5v0__xor2_1
*I *3082:A1 I *D gf180mcu_fd_sc_mcu7t5v0__nor2_1
*I *3257:Q O *D gf180mcu_fd_sc_mcu7t5v0__dffq_1
*CAP
1 *2987:B2 0.000379842
2 *2747:A1 0.00161862
3 *3082:A1 3.28034e-05
4 *3257:Q 0.000155139
5 *808:12 0.00186152
6 *808:8 0.000745069
7 *2747:A1 *2752:A1 0.000661079
8 *2755:A2 *2747:A1 0
9 *2988:A1 *2987:B2 0.000122047
10 *2988:A1 *808:8 6.08467e-05
11 *2988:A2 *2987:B2 8.55242e-05
12 *2989:B2 *2987:B2 2.23385e-05
13 *3020:A2 *2747:A1 9.28591e-05
14 *3039:C1 *2987:B2 4.86993e-06
15 *3055:A1 *2747:A1 7.60156e-05
16 *3058:A1 *2987:B2 7.86802e-05
17 *3064:A1 *2747:A1 0
18 *3064:A2 *2747:A1 6.63595e-05
19 *3068:A1 *2747:A1 8.02751e-06
20 *3070:A2 *2987:B2 0.000135941
21 *3083:A1 *2987:B2 1.14482e-05
22 *3083:A2 *808:12 0.000354563
23 *3083:A3 *808:12 0.000206726
24 *3249:CLK *2747:A1 9.88736e-06
25 *3249:CLK *2987:B2 0.000698514
26 *3249:CLK *808:12 0.00020289
27 *3253:CLK *2747:A1 5.47552e-05
28 *3264:CLK *2747:A1 2.44925e-05
29 *580:45 *2987:B2 3.08902e-05
30 *640:8 *2747:A1 0.000369754
31 *640:16 *2747:A1 0.000137168
32 *640:20 *2747:A1 0.00189551
33 *657:31 *2747:A1 3.91081e-05
34 *657:33 *2747:A1 5.14116e-06
35 *657:39 *2747:A1 1.48587e-05
36 *767:10 *808:8 0.00015172
37 *767:106 *2987:B2 1.11891e-05
38 *767:106 *808:8 0.000164555
39 *792:34 *2747:A1 0.000768379
40 *792:34 *808:12 3.83835e-06
41 *803:10 *808:8 5.72168e-05
*RES
1 *3257:Q *808:8 10.748 
2 *808:8 *808:12 6.856 
3 *808:12 *3082:A1 4.728 
4 *808:12 *2747:A1 19.928 
5 *808:8 *2987:B2 12.8 
*END

*D_NET *809 0.0133792
*CONN
*I *3003:B2 I *D gf180mcu_fd_sc_mcu7t5v0__aoi221_1
*I *3063:A1 I *D gf180mcu_fd_sc_mcu7t5v0__nor2_1
*I *2746:A1 I *D gf180mcu_fd_sc_mcu7t5v0__xor2_1
*I *3251:Q O *D gf180mcu_fd_sc_mcu7t5v0__dffq_1
*CAP
1 *3003:B2 0.000490239
2 *3063:A1 0
3 *2746:A1 0.000447061
4 *3251:Q 0.000150034
5 *809:29 0.000646983
6 *809:10 0.000753839
7 *2746:A1 *2741:A1 6.73834e-05
8 *2746:A1 *2743:A1 0
9 *2746:A1 *2751:A1 0.00132794
10 *2746:A1 *2753:A1 0.000194624
11 *3003:B2 *2741:A1 0.00012864
12 *3003:B2 *3090:A1 0.000115621
13 *3003:B2 *817:10 0.00139451
14 *809:10 *3059:A1 8.81325e-07
15 *809:29 *2741:A1 2.11524e-05
16 *809:29 *2743:A1 0
17 *809:29 *2751:A1 0.000372137
18 *2759:A2 *2746:A1 0
19 *2996:A2 *3003:B2 0.00356958
20 *3003:A1 *3003:B2 1.81275e-05
21 *3004:A2 *3003:B2 6.54358e-05
22 *3065:A2 *3003:B2 0.000269865
23 *3066:A2 *809:29 0.000158809
24 *3110:A1 *3003:B2 2.29516e-07
25 *3277:I *3003:B2 0.00016456
26 *3290:I *3003:B2 0
27 *639:26 *809:29 7.83779e-05
28 *639:30 *809:29 0.000759767
29 *640:33 *3003:B2 0.00068276
30 *640:48 *3003:B2 0.000235816
31 *680:120 *3003:B2 0.000109452
32 *682:35 *3003:B2 0.000156176
33 *682:35 *809:29 6.48288e-05
34 *728:14 *809:10 0
35 *728:14 *809:29 0.000934339
36 *800:8 *809:10 0
*RES
1 *3251:Q *809:10 14.184 
2 *809:10 *2746:A1 9.212 
3 *809:10 *809:29 12.724 
4 *809:29 *3063:A1 4.5 
5 *809:29 *3003:B2 25.28 
*END

*D_NET *810 0.00490278
*CONN
*I *3066:A1 I *D gf180mcu_fd_sc_mcu7t5v0__nor2_1
*I *3010:A1 I *D gf180mcu_fd_sc_mcu7t5v0__nand2_1
*I *2752:A1 I *D gf180mcu_fd_sc_mcu7t5v0__xor2_1
*I *3252:Q O *D gf180mcu_fd_sc_mcu7t5v0__dffq_1
*CAP
1 *3066:A1 1.56412e-05
2 *3010:A1 0.000122803
3 *2752:A1 0.000613608
4 *3252:Q 0
5 *810:27 0.000242383
6 *810:4 0.000717546
7 *3010:A1 *2754:A1 6.00599e-05
8 *2747:A1 *2752:A1 0.000661079
9 *2747:A2 *2752:A1 2.11326e-05
10 *2755:A2 *2752:A1 0.000417311
11 *2762:A1 *2752:A1 0.000127814
12 *3010:A2 *3010:A1 3.08902e-05
13 *3012:A1 *3010:A1 2.77603e-05
14 *3064:A3 *810:27 4.29636e-06
15 *3066:A2 *810:27 7.03613e-05
16 *3067:A2 *3010:A1 2.25184e-05
17 *3067:A2 *3066:A1 4.98138e-05
18 *3067:A2 *810:27 2.23385e-05
19 *3067:A3 *810:27 0.00026286
20 *3251:D *2752:A1 0
21 *3252:CLK *3010:A1 2.91769e-05
22 *3252:CLK *810:27 0.000514812
23 *408:10 *2752:A1 0.000255722
24 *727:12 *3010:A1 2.97354e-06
25 *728:14 *3010:A1 0.000105292
26 *728:14 *810:27 0
27 *792:34 *2752:A1 5.40596e-05
28 *792:34 *3066:A1 0.000140167
29 *792:34 *810:27 0.000310356
*RES
1 *3252:Q *810:4 4.5 
2 *810:4 *2752:A1 10.808 
3 *810:4 *810:27 11.128 
4 *810:27 *3010:A1 14.868 
5 *810:27 *3066:A1 4.88 
*END

*D_NET *811 0.0044061
*CONN
*I *3019:C2 I *D gf180mcu_fd_sc_mcu7t5v0__aoi222_1
*I *2481:I I *D gf180mcu_fd_sc_mcu7t5v0__clkinv_1
*I *3253:Q O *D gf180mcu_fd_sc_mcu7t5v0__dffq_1
*CAP
1 *3019:C2 8.67684e-05
2 *2481:I 0.000146164
3 *3253:Q 0
4 *811:4 0.000232932
5 *3019:C1 *3019:C2 0.000626913
6 *3036:A1 *2481:I 0.00109747
7 *3069:A1 *2481:I 0.000441055
8 *3069:C *2481:I 0.000877667
9 *3253:D *2481:I 9.88736e-06
10 *640:20 *2481:I 0.000123777
11 *767:33 *3019:C2 0.0007481
12 *771:10 *2481:I 0
13 *773:10 *3019:C2 1.53727e-05
*RES
1 *3253:Q *811:4 4.5 
2 *811:4 *2481:I 17.452 
3 *811:4 *3019:C2 6.552 
*END

*D_NET *812 0.0139747
*CONN
*I *2750:A1 I *D gf180mcu_fd_sc_mcu7t5v0__xor2_1
*I *3027:C2 I *D gf180mcu_fd_sc_mcu7t5v0__aoi222_1
*I *3071:A1 I *D gf180mcu_fd_sc_mcu7t5v0__nor2_1
*I *3254:Q O *D gf180mcu_fd_sc_mcu7t5v0__dffq_1
*CAP
1 *2750:A1 0.00164113
2 *3027:C2 4.13491e-05
3 *3071:A1 0.000179255
4 *3254:Q 0
5 *812:19 0.00178403
6 *812:6 0.000280808
7 *2750:A1 *2756:A1 0
8 *3027:C2 *819:24 0.000300342
9 DAT_O[4] *2750:A1 0.000727579
10 *2479:I *2750:A1 4.98138e-05
11 *2764:A2 *2750:A1 0.000778308
12 *2816:A2 *2750:A1 0.000602496
13 *2989:B2 *3027:C2 2.03965e-05
14 *2990:A2 *2750:A1 3.00745e-05
15 *2995:A1 *2750:A1 0
16 *3021:A1 *2750:A1 0.000366543
17 *3022:A2 *2750:A1 4.64343e-05
18 *3029:A2 *2750:A1 5.27567e-06
19 *3035:C1 *2750:A1 0.000955234
20 *3036:A1 *2750:A1 5.09739e-06
21 *3070:A1 *3071:A1 1.91917e-06
22 *3071:A2 *3071:A1 2.52855e-05
23 *3097:A2 *3027:C2 0.000353088
24 *3097:A2 *3071:A1 2.19873e-05
25 *3097:A2 *812:19 2.82929e-05
26 *3098:A1 *3071:A1 0
27 *3098:A1 *812:19 8.57425e-05
28 *3203:CLK *2750:A1 2.89664e-05
29 *3338:I *2750:A1 0.00138245
30 *3366:I *2750:A1 0
31 *562:101 *2750:A1 4.68843e-05
32 *682:86 *2750:A1 0.00103192
33 *683:43 *2750:A1 0.000606597
34 *683:43 *3071:A1 0.000487853
35 *683:43 *812:19 0.000614833
36 *683:76 *2750:A1 0.000108753
37 *698:6 *2750:A1 0
38 *727:10 *2750:A1 0
39 *728:14 *2750:A1 1.98468e-05
40 *729:10 *2750:A1 6.00778e-05
41 *731:10 *2750:A1 0.00021144
42 *739:10 *2750:A1 0.000137785
43 *743:10 *2750:A1 0.000431543
44 *744:10 *2750:A1 8.55242e-05
45 *802:27 *2750:A1 0.000371311
46 *806:8 *2750:A1 0
47 *806:45 *2750:A1 1.84662e-05
*RES
1 *3254:Q *812:6 9 
2 *812:6 *3071:A1 10.52 
3 *812:6 *812:19 1.596 
4 *812:19 *3027:C2 9.988 
5 *812:19 *2750:A1 29.368 
*END

*D_NET *813 0.00739032
*CONN
*I *3035:B2 I *D gf180mcu_fd_sc_mcu7t5v0__aoi222_1
*I *3074:A1 I *D gf180mcu_fd_sc_mcu7t5v0__nor2_1
*I *2744:A1 I *D gf180mcu_fd_sc_mcu7t5v0__xor2_1
*I *3255:Q O *D gf180mcu_fd_sc_mcu7t5v0__dffq_1
*CAP
1 *3035:B2 0.000339283
2 *3074:A1 0.000336625
3 *2744:A1 0.000273962
4 *3255:Q 0
5 *813:10 0.000894597
6 *813:4 0.000623294
7 DAT_O[4] *3035:B2 0.000301655
8 DAT_O[6] *2744:A1 0
9 *2995:A2 *3035:B2 0.000422023
10 *2995:A2 *3074:A1 0.000140167
11 *3021:A2 *3035:B2 8.54902e-05
12 *3021:B2 *3035:B2 9.50338e-05
13 *3022:A2 *3074:A1 6.42273e-05
14 *3035:B1 *3035:B2 2.05156e-05
15 *3036:A2 *3035:B2 0.000429161
16 *3036:A2 *3074:A1 0.000242347
17 *3037:A2 *3074:A1 0
18 *3037:B1 *3035:B2 0.000238847
19 *3037:B2 *2744:A1 1.72918e-05
20 *3037:B2 *3074:A1 0.00035824
21 *3037:B2 *813:10 5.09899e-05
22 *3255:D *3074:A1 2.09512e-05
23 *3258:CLK *2744:A1 2.6126e-05
24 *3332:I *2744:A1 0.000135795
25 *3336:I *3035:B2 1.53748e-05
26 *3337:I *2744:A1 3.30251e-05
27 *3341:I *3035:B2 0.000246965
28 *3341:I *813:10 0.000328367
29 *3370:I *3074:A1 0
30 *3372:I *2744:A1 0.000592326
31 *3372:I *813:10 0.000232828
32 *562:78 *3035:B2 0.000322654
33 *563:70 *3035:B2 3.00299e-05
34 *563:90 *3035:B2 2.22814e-05
35 *682:86 *3074:A1 3.80298e-05
36 *682:112 *2744:A1 0.000395889
37 *769:43 *3035:B2 1.07909e-05
38 *769:43 *813:10 5.14116e-06
*RES
1 *3255:Q *813:4 4.5 
2 *813:4 *813:10 2.508 
3 *813:10 *2744:A1 8.072 
4 *813:10 *3074:A1 16.844 
5 *813:4 *3035:B2 18.744 
*END

*D_NET *814 0.00954537
*CONN
*I *3039:B2 I *D gf180mcu_fd_sc_mcu7t5v0__aoi222_1
*I *3077:A1 I *D gf180mcu_fd_sc_mcu7t5v0__nor2_1
*I *2751:A1 I *D gf180mcu_fd_sc_mcu7t5v0__xor2_1
*I *3256:Q O *D gf180mcu_fd_sc_mcu7t5v0__dffq_1
*CAP
1 *3039:B2 0.000367333
2 *3077:A1 0
3 *2751:A1 0.000122424
4 *3256:Q 0.000167405
5 *814:14 0.000218839
6 *814:12 0.000631153
7 *2751:A1 *2753:A1 0.00178798
8 *3039:B2 *2741:A1 0.000821049
9 *3039:B2 *2743:A1 0.00012944
10 *814:14 *2743:A1 1.34504e-05
11 *2746:A1 *2751:A1 0.00132794
12 *2757:A1 *3039:B2 0.00022449
13 *2757:A1 *814:12 0.000237018
14 *2996:A2 *814:12 0.000737659
15 *3044:A1 *3039:B2 0.00041564
16 *3059:A2 *2751:A1 1.11891e-05
17 *3076:A1 *3039:B2 7.31121e-05
18 *3076:A1 *814:14 1.97747e-05
19 *3078:A2 *814:14 0.00013063
20 *3078:A3 *3039:B2 1.02578e-05
21 *3078:A3 *814:14 0.000298437
22 *3084:A2 *3039:B2 5.74961e-05
23 *3277:I *3039:B2 0.000171183
24 *3277:I *814:12 6.3983e-05
25 *639:20 *3039:B2 8.55242e-05
26 *639:26 *2751:A1 3.95494e-05
27 *639:26 *814:14 6.82255e-05
28 *640:48 *814:12 0.000253849
29 *727:10 *2751:A1 6.91944e-05
30 *728:14 *2751:A1 0.000269857
31 *802:35 *814:12 6.817e-05
32 *802:37 *814:12 7.32209e-05
33 *802:72 *814:12 0.000207761
34 *802:82 *3039:B2 0
35 *809:29 *2751:A1 0.000372137
*RES
1 *3256:Q *814:12 16.236 
2 *814:12 *814:14 1.14 
3 *814:14 *2751:A1 18.82 
4 *814:14 *3077:A1 4.5 
5 *814:12 *3039:B2 18.288 
*END

*D_NET *815 0.00355154
*CONN
*I *2995:B2 I *D gf180mcu_fd_sc_mcu7t5v0__aoi222_1
*I *3085:A1 I *D gf180mcu_fd_sc_mcu7t5v0__nor2_1
*I *2748:A1 I *D gf180mcu_fd_sc_mcu7t5v0__xor2_1
*I *3258:Q O *D gf180mcu_fd_sc_mcu7t5v0__dffq_1
*CAP
1 *2995:B2 0.000281065
2 *3085:A1 0.000159416
3 *2748:A1 0.000319588
4 *3258:Q 0
5 *815:19 0.000440481
6 *815:4 0.000319588
7 *2748:A1 *2756:A1 0.00101491
8 *2995:B2 *2995:C2 6.47993e-06
9 *3085:A1 *2995:C2 0
10 *2757:A1 *2748:A1 6.7819e-05
11 *2996:A2 *2995:B2 8.55327e-05
12 *3061:A1 *3085:A1 3.92025e-05
13 *3061:A2 *2748:A1 0.000189147
14 *3085:A2 *3085:A1 3.4631e-05
15 *3086:A2 *2995:B2 0.000326276
16 *3086:A3 *3085:A1 0
17 *3250:D *2995:B2 0.000167823
18 *3250:D *3085:A1 6.57222e-06
19 *728:14 *2995:B2 0
20 *802:27 *2995:B2 9.30038e-05
*RES
1 *3258:Q *815:4 4.5 
2 *815:4 *2748:A1 8.452 
3 *815:4 *815:19 4.5 
4 *815:19 *3085:A1 10.064 
5 *815:19 *2995:B2 11.888 
*END

*D_NET *816 0.00611656
*CONN
*I *3088:A1 I *D gf180mcu_fd_sc_mcu7t5v0__nor2_1
*I *3002:A1 I *D gf180mcu_fd_sc_mcu7t5v0__nand2_1
*I *2745:A1 I *D gf180mcu_fd_sc_mcu7t5v0__xor2_1
*I *3259:Q O *D gf180mcu_fd_sc_mcu7t5v0__dffq_1
*CAP
1 *3088:A1 0.000114042
2 *3002:A1 0.000481497
3 *2745:A1 0.000181726
4 *3259:Q 0
5 *816:17 0.000672434
6 *816:4 0.000258621
7 *2745:A1 *2742:A1 0.00120438
8 *2745:A1 *2754:A1 0.000796585
9 *3088:A1 *2742:A1 0.000183163
10 *816:17 *2742:A1 0.000398271
11 *816:17 *2754:A1 0.000424397
12 *2742:A2 *2745:A1 0.000177177
13 *2754:A2 *2745:A1 0.000220301
14 *3088:A2 *3088:A1 1.5015e-05
15 *3089:A3 *3002:A1 0.000147092
16 *3089:A3 *3088:A1 0.000193942
17 *3091:B *3088:A1 2.71997e-05
18 *3252:D *3088:A1 2.6126e-05
19 *3252:D *816:17 1.58383e-05
20 *3252:CLK *3002:A1 0.000342519
21 *3252:CLK *816:17 0.000190317
22 *467:30 *3002:A1 8.92063e-06
23 *695:10 *3002:A1 0
24 *792:34 *2745:A1 0
25 *800:10 *3002:A1 0
26 *800:10 *816:17 0
27 *800:14 *3002:A1 0
28 *800:16 *3002:A1 1.2682e-05
29 *800:20 *3002:A1 2.43212e-05
*RES
1 *3259:Q *816:4 4.5 
2 *816:4 *2745:A1 8.68 
3 *816:4 *816:17 6.172 
4 *816:17 *3002:A1 12.42 
5 *816:17 *3088:A1 10.444 
*END

*D_NET *817 0.011558
*CONN
*I *3011:B2 I *D gf180mcu_fd_sc_mcu7t5v0__aoi221_1
*I *3090:A1 I *D gf180mcu_fd_sc_mcu7t5v0__nand2_1
*I *2742:A1 I *D gf180mcu_fd_sc_mcu7t5v0__xor2_1
*I *3260:Q O *D gf180mcu_fd_sc_mcu7t5v0__dffq_1
*CAP
1 *3011:B2 0.000616327
2 *3090:A1 0.00016019
3 *2742:A1 0.000549821
4 *3260:Q 0
5 *817:10 0.00089216
6 *817:4 0.000798476
7 *2742:A1 *2754:A1 0.00089854
8 *3090:A1 *2754:A1 0.000419644
9 *3090:A1 *818:17 4.1148e-05
10 *2742:A2 *2742:A1 3.73535e-05
11 *2745:A1 *2742:A1 0.00120438
12 *2996:A2 *3011:B2 0
13 *3002:A2 *3011:B2 0.000206711
14 *3002:A2 *817:10 0.000196417
15 *3003:A1 *3011:B2 0.000770702
16 *3003:B2 *3090:A1 0.000115621
17 *3003:B2 *817:10 0.00139451
18 *3010:A2 *3090:A1 0.000170031
19 *3012:A2 *3011:B2 0.000103153
20 *3044:A1 *3011:B2 0.000189064
21 *3088:A1 *2742:A1 0.000183163
22 *3088:A2 *2742:A1 0.00024691
23 *3091:A2 *2742:A1 1.2339e-05
24 *3091:B *2742:A1 0
25 *3092:A2 *2742:A1 7.93459e-06
26 *3110:A1 *3011:B2 1.71528e-06
27 *3111:A1 *2742:A1 0
28 *3252:D *2742:A1 0.000310356
29 *3277:I *3011:B2 1.20889e-05
30 *3277:I *3090:A1 5.59457e-05
31 *3277:I *817:10 0.000546697
32 *229:20 *3011:B2 2.96621e-05
33 *467:30 *3011:B2 0.000439917
34 *467:30 *817:10 0.000202974
35 *562:16 *3011:B2 0.0001565
36 *656:95 *2742:A1 0
37 *680:120 *3011:B2 4.2508e-05
38 *767:43 *3011:B2 0.000129111
39 *800:46 *3011:B2 1.76272e-05
40 *816:17 *2742:A1 0.000398271
*RES
1 *3260:Q *817:4 4.5 
2 *817:4 *817:10 8.604 
3 *817:10 *2742:A1 16.22 
4 *817:10 *3090:A1 11.128 
5 *817:4 *3011:B2 19.808 
*END

*D_NET *818 0.00795191
*CONN
*I *3094:A1 I *D gf180mcu_fd_sc_mcu7t5v0__nor2_1
*I *2754:A1 I *D gf180mcu_fd_sc_mcu7t5v0__xor2_1
*I *3019:B2 I *D gf180mcu_fd_sc_mcu7t5v0__aoi222_1
*I *3261:Q O *D gf180mcu_fd_sc_mcu7t5v0__dffq_1
*CAP
1 *3094:A1 0.00027633
2 *2754:A1 0.000598655
3 *3019:B2 0.000233835
4 *3261:Q 0
5 *818:17 0.00137406
6 *818:4 0.000732908
7 *2742:A1 *2754:A1 0.00089854
8 *2745:A1 *2754:A1 0.000796585
9 *3010:A1 *2754:A1 6.00599e-05
10 *3010:A2 *2754:A1 0.000421235
11 *3010:A2 *818:17 8.4112e-05
12 *3019:A1 *3019:B2 0
13 *3019:C1 *3094:A1 9.88736e-06
14 *3044:A1 *3094:A1 0.000206029
15 *3067:A2 *2754:A1 4.96477e-05
16 *3069:C *3019:B2 0
17 *3069:C *818:17 6.70884e-05
18 *3090:A1 *2754:A1 0.000419644
19 *3090:A1 *818:17 4.1148e-05
20 *3090:A2 *818:17 5.97012e-05
21 *3092:A1 *818:17 3.02841e-05
22 *3092:A2 *2754:A1 7.84011e-05
23 *3092:A2 *818:17 3.84832e-06
24 *3111:A1 *3094:A1 3.08902e-05
25 *3260:D *3094:A1 0.000109515
26 *3260:D *818:17 6.63508e-06
27 *3355:I *3019:B2 0.000482193
28 *3355:I *818:17 7.61855e-05
29 *656:95 *3094:A1 5.08971e-06
30 *695:85 *3094:A1 8.66733e-05
31 *767:33 *3094:A1 6.57508e-05
32 *767:39 *3094:A1 3.21021e-05
33 *771:10 *818:17 3.14479e-05
34 *773:18 *3094:A1 9.15733e-05
35 *773:18 *818:17 6.86053e-06
36 *792:34 *2754:A1 0
37 *792:34 *3019:B2 0
38 *792:34 *818:17 6.05982e-05
39 *816:17 *2754:A1 0.000424397
*RES
1 *3261:Q *818:4 4.5 
2 *818:4 *3019:B2 6.476 
3 *818:4 *818:17 3.648 
4 *818:17 *2754:A1 11.72 
5 *818:17 *3094:A1 16.312 
*END

*D_NET *819 0.0131792
*CONN
*I *3027:B2 I *D gf180mcu_fd_sc_mcu7t5v0__aoi222_1
*I *3096:A1 I *D gf180mcu_fd_sc_mcu7t5v0__nand2_1
*I *2756:A1 I *D gf180mcu_fd_sc_mcu7t5v0__xor2_1
*I *3262:Q O *D gf180mcu_fd_sc_mcu7t5v0__dffq_1
*CAP
1 *3027:B2 0
2 *3096:A1 0
3 *2756:A1 0.0012666
4 *3262:Q 0.000234185
5 *819:24 0.00152778
6 *819:12 0.000495365
7 *2756:A1 *2749:A1 3.07734e-05
8 *2756:A1 *2995:C2 0.000300828
9 *2756:A1 *3035:A1 0.000474275
10 DAT_O[0] *2756:A1 0
11 DAT_O[0] *819:24 0
12 *2525:A1 *819:12 0.000417311
13 *2525:A1 *819:24 0.000155334
14 *2748:A1 *2756:A1 0.00101491
15 *2748:A2 *2756:A1 4.71484e-05
16 *2750:A1 *2756:A1 0
17 *2756:A2 *2756:A1 1.26428e-05
18 *2757:A1 *2756:A1 1.04401e-05
19 *2761:A2 *2756:A1 7.53241e-05
20 *2761:A4 *2756:A1 0.000340241
21 *2762:A3 *2756:A1 7.09751e-05
22 *2989:B2 *819:24 0.000721801
23 *2995:C1 *2756:A1 0.00111745
24 *3027:A2 *819:24 9.09483e-06
25 *3027:C2 *819:24 0.000300342
26 *3028:A2 *819:12 0.000528382
27 *3028:A2 *819:24 9.26705e-05
28 *3035:A2 *2756:A1 0.000259659
29 *3035:A2 *819:24 3.08902e-05
30 *3035:B1 *2756:A1 0.00124467
31 *3061:A2 *2756:A1 1.44832e-05
32 *3085:A2 *2756:A1 0.000136508
33 *3086:A2 *2756:A1 1.74287e-05
34 *3096:A2 *2756:A1 2.6126e-05
35 *3096:A2 *819:24 1.97747e-05
36 *3097:A2 *819:24 0.000114063
37 *3278:I *2756:A1 4.49065e-06
38 *3293:I *2756:A1 0.000409658
39 *447:12 *2756:A1 2.40654e-06
40 *563:70 *2756:A1 2.57058e-06
41 *682:12 *2756:A1 0.000192419
42 *683:8 *2756:A1 0.000287125
43 *726:14 *2756:A1 0.00016679
44 *726:25 *2756:A1 0.000403683
45 *728:14 *2756:A1 0.000495742
46 *730:10 *819:12 5.13643e-06
47 *730:14 *819:12 2.69281e-06
48 *787:27 *819:24 9.90142e-05
*RES
1 *3262:Q *819:12 15.78 
2 *819:12 *819:24 12.344 
3 *819:24 *2756:A1 30.448 
4 *819:24 *3096:A1 4.5 
5 *819:12 *3027:B2 4.5 
*END

*D_NET *820 0.0134306
*CONN
*I *3035:A1 I *D gf180mcu_fd_sc_mcu7t5v0__aoi222_1
*I *3099:A1 I *D gf180mcu_fd_sc_mcu7t5v0__nand2_1
*I *2741:A1 I *D gf180mcu_fd_sc_mcu7t5v0__xor2_1
*I *3263:Q O *D gf180mcu_fd_sc_mcu7t5v0__dffq_1
*CAP
1 *3035:A1 3.79719e-05
2 *3099:A1 7.29112e-05
3 *2741:A1 0.00193946
4 *3263:Q 1.2652e-05
5 *820:12 0.00211637
6 *820:8 0.000154619
7 *2741:A1 *2743:A1 0.000633883
8 *2741:A1 *2753:A1 3.46083e-05
9 *2746:A1 *2741:A1 6.73834e-05
10 *2746:A2 *2741:A1 0.000686802
11 *2751:A2 *2741:A1 0
12 *2753:A2 *2741:A1 0.000227842
13 *2756:A1 *3035:A1 0.000474275
14 *2758:A3 *2741:A1 0.000126964
15 *2758:A4 *2741:A1 0.000159384
16 *2759:A2 *2741:A1 5.84368e-05
17 *2759:A3 *2741:A1 0.000432776
18 *2762:A3 *2741:A1 8.59272e-06
19 *3003:B2 *2741:A1 0.00012864
20 *3021:B2 *820:8 0.000197186
21 *3021:B2 *820:12 0.00163284
22 *3039:B1 *2741:A1 7.83779e-05
23 *3039:B2 *2741:A1 0.000821049
24 *3039:C1 *2741:A1 9.08478e-05
25 *3044:A1 *2741:A1 4.725e-05
26 *3078:A2 *2741:A1 1.52691e-05
27 *3099:A2 *2741:A1 0.000277862
28 *3099:A2 *3099:A1 2.96621e-05
29 *3101:A1 *3099:A1 3.08902e-05
30 *3103:A2 *2741:A1 3.73535e-05
31 *3251:D *2741:A1 2.17248e-05
32 *3256:D *2741:A1 0.000177054
33 *3263:D *3099:A1 9.88736e-06
34 *3264:D *2741:A1 4.24995e-05
35 *562:78 *820:8 0.000172284
36 *562:78 *820:12 0.00163971
37 *656:31 *2741:A1 0.000112643
38 *656:31 *3099:A1 1.94399e-05
39 *682:29 *2741:A1 3.35594e-05
40 *682:35 *2741:A1 6.50158e-05
41 *683:8 *3035:A1 0.000474275
42 *759:34 *3099:A1 9.17202e-06
43 *809:29 *2741:A1 2.11524e-05
*RES
1 *3263:Q *820:8 9.532 
2 *820:8 *820:12 8.832 
3 *820:12 *2741:A1 31.436 
4 *820:12 *3099:A1 5.108 
5 *820:8 *3035:A1 10.292 
*END

*D_NET *821 0.007978
*CONN
*I *3102:A1 I *D gf180mcu_fd_sc_mcu7t5v0__nand2_1
*I *3039:A1 I *D gf180mcu_fd_sc_mcu7t5v0__aoi222_1
*I *2743:A1 I *D gf180mcu_fd_sc_mcu7t5v0__xor2_1
*I *3264:Q O *D gf180mcu_fd_sc_mcu7t5v0__dffq_1
*CAP
1 *3102:A1 0.000110155
2 *3039:A1 0
3 *2743:A1 0.0015266
4 *3264:Q 0.000128362
5 *821:25 0.000184977
6 *821:10 0.00172978
7 *2743:A1 *2753:A1 0.000196837
8 *2741:A1 *2743:A1 0.000633883
9 *2743:A2 *2743:A1 2.6126e-05
10 *2746:A1 *2743:A1 0
11 *2746:A2 *2743:A1 7.02539e-05
12 *2753:A2 *2743:A1 8.12225e-05
13 *2758:A1 *2743:A1 0.0001032
14 *2758:A2 *2743:A1 0.000121193
15 *2760:A3 *2743:A1 3.84832e-06
16 *2995:B1 *2743:A1 6.73926e-05
17 *2995:B1 *821:10 0.000217716
18 *2995:B1 *821:25 6.9898e-05
19 *3039:A2 *821:25 1.7642e-05
20 *3039:B2 *2743:A1 0.00012944
21 *3039:C2 *3102:A1 0.000394617
22 *3078:A2 *2743:A1 7.83779e-05
23 *3078:A3 *2743:A1 6.38647e-05
24 *3084:A2 *2743:A1 1.2018e-05
25 *3103:B *3102:A1 0.000114041
26 *3103:B *821:10 7.84143e-05
27 *3103:B *821:25 7.83779e-05
28 *3253:CLK *3102:A1 3.19219e-05
29 *3256:D *2743:A1 0.00015503
30 *639:20 *2743:A1 0.000153622
31 *639:20 *3102:A1 5.97012e-05
32 *639:20 *821:25 0.000123951
33 *657:65 *3102:A1 0.000859356
34 *682:14 *3102:A1 0.000264369
35 *771:23 *3102:A1 6.71348e-05
36 *771:23 *821:10 1.12331e-05
37 *809:29 *2743:A1 0
38 *814:14 *2743:A1 1.34504e-05
*RES
1 *3264:Q *821:10 14.792 
2 *821:10 *2743:A1 16.356 
3 *821:10 *821:25 0.836 
4 *821:25 *3039:A1 4.5 
5 *821:25 *3102:A1 16.54 
*END

*D_NET *822 0.0128177
*CONN
*I *3056:A1 I *D gf180mcu_fd_sc_mcu7t5v0__nand2_1
*I *2987:C2 I *D gf180mcu_fd_sc_mcu7t5v0__aoi222_1
*I *2753:A1 I *D gf180mcu_fd_sc_mcu7t5v0__xor2_1
*I *3249:Q O *D gf180mcu_fd_sc_mcu7t5v0__dffq_1
*CAP
1 *3056:A1 0.000399219
2 *2987:C2 0
3 *2753:A1 0.0016037
4 *3249:Q 0
5 *822:29 0.000542646
6 *822:4 0.00174712
7 *2753:A1 *2749:A1 0.000161536
8 *2753:A1 *3059:A1 2.74661e-05
9 *2528:A1 *2753:A1 0.00014619
10 *2741:A1 *2753:A1 3.46083e-05
11 *2743:A1 *2753:A1 0.000196837
12 *2746:A1 *2753:A1 0.000194624
13 *2751:A1 *2753:A1 0.00178798
14 *2751:A2 *2753:A1 0.000116841
15 *2758:A1 *2753:A1 0.000166805
16 *2760:A3 *2753:A1 6.98996e-05
17 *2762:A3 *2753:A1 0.000295319
18 *2988:A1 *3056:A1 0.000258736
19 *2988:A2 *3056:A1 5.1289e-05
20 *3057:B *3056:A1 8.69862e-05
21 *3059:A2 *2753:A1 0.000471499
22 *3061:A1 *2753:A1 0.000141382
23 *3073:A1 *2753:A1 0.000327183
24 *3075:A2 *2753:A1 0.000413078
25 *3076:A1 *2753:A1 0.000234245
26 *3100:B *2753:A1 0.000295337
27 *3277:I *2753:A1 2.03665e-05
28 *639:20 *2753:A1 0.000256715
29 *639:20 *822:29 9.42885e-05
30 *639:26 *2753:A1 1.73203e-05
31 *640:48 *2753:A1 7.32209e-05
32 *732:10 *2753:A1 0.000843944
33 *759:34 *2753:A1 0.000223578
34 *759:34 *3056:A1 0.000295002
35 *759:34 *822:29 0.000268062
36 *770:21 *822:29 2.03665e-05
37 *770:32 *3056:A1 5.22519e-05
38 *770:32 *822:29 0.000254229
39 *802:37 *2753:A1 0
40 *802:72 *2753:A1 0
41 *802:82 *2753:A1 0.00062779
*RES
1 *3249:Q *822:4 4.5 
2 *822:4 *2753:A1 32.424 
3 *822:4 *822:29 1.748 
4 *822:29 *2987:C2 4.5 
5 *822:29 *3056:A1 7.92 
*END

*D_NET *823 0.00555956
*CONN
*I *2995:C2 I *D gf180mcu_fd_sc_mcu7t5v0__aoi222_1
*I *3059:A1 I *D gf180mcu_fd_sc_mcu7t5v0__nand2_1
*I *2749:A1 I *D gf180mcu_fd_sc_mcu7t5v0__xnor2_1
*I *3250:Q O *D gf180mcu_fd_sc_mcu7t5v0__dffq_1
*CAP
1 *2995:C2 0.000258179
2 *3059:A1 0.000132287
3 *2749:A1 0.000692004
4 *3250:Q 0
5 *823:21 0.00041489
6 *823:4 0.000716429
7 *2751:A2 *2749:A1 0.000711682
8 *2753:A1 *2749:A1 0.000161536
9 *2753:A1 *3059:A1 2.74661e-05
10 *2756:A1 *2749:A1 3.07734e-05
11 *2756:A1 *2995:C2 0.000300828
12 *2756:A2 *2749:A1 6.92538e-05
13 *2757:A1 *2749:A1 0.00012213
14 *2757:A1 *823:21 1.19401e-05
15 *2995:B2 *2995:C2 6.47993e-06
16 *3059:A2 *3059:A1 2.6126e-05
17 *3061:A1 *2749:A1 0.000673033
18 *3061:A1 *3059:A1 9.88736e-06
19 *3061:A1 *823:21 2.23385e-05
20 *3085:A1 *2995:C2 0
21 *3085:A2 *2749:A1 2.57835e-05
22 *3085:A2 *2995:C2 7.18188e-05
23 *3086:A2 *2995:C2 5.37328e-05
24 *3086:A3 *2749:A1 4.52262e-05
25 *728:14 *2995:C2 0.000735633
26 *728:14 *3059:A1 0.00023922
27 *809:10 *3059:A1 8.81325e-07
*RES
1 *3250:Q *823:4 4.5 
2 *823:4 *2749:A1 11.492 
3 *823:4 *823:21 4.728 
4 *823:21 *3059:A1 9.912 
5 *823:21 *2995:C2 11.736 
*END

*D_NET *824 0.00329876
*CONN
*I *2666:A2 I *D gf180mcu_fd_sc_mcu7t5v0__and2_1
*I *2673:A4 I *D gf180mcu_fd_sc_mcu7t5v0__and4_1
*I *2667:A2 I *D gf180mcu_fd_sc_mcu7t5v0__nor2_1
*I *2530:A1 I *D gf180mcu_fd_sc_mcu7t5v0__nor2_1
*I *3164:Q O *D gf180mcu_fd_sc_mcu7t5v0__dffq_1
*CAP
1 *2666:A2 8.53553e-05
2 *2673:A4 7.86826e-05
3 *2667:A2 0
4 *2530:A1 0.000337392
5 *3164:Q 0
6 *824:32 0.000383249
7 *824:12 0.000498459
8 *824:6 0.000380278
9 *2530:A1 *2533:A1 9.88736e-06
10 *824:12 *2533:A1 3.81953e-05
11 *824:12 *3016:B2 2.85089e-05
12 *2532:A1 *2530:A1 0
13 *2666:A1 *2666:A2 6.76465e-05
14 *2667:A1 *824:32 3.26302e-05
15 *2669:A2 *824:12 6.6058e-05
16 *3001:A1 *2530:A1 4.58601e-06
17 *3011:C *824:12 1.10835e-05
18 *3011:C *824:32 5.29424e-05
19 *3025:A2 *2530:A1 0.000232623
20 *3025:A2 *824:12 0.000147313
21 *3033:A2 *2673:A4 0
22 *212:68 *2666:A2 0.000143839
23 *212:68 *2673:A4 0.000134206
24 *212:68 *824:32 7.35289e-05
25 *336:12 *824:12 1.85245e-05
26 *336:12 *824:32 2.4706e-05
27 *756:18 *2530:A1 8.58e-05
28 *756:64 *2666:A2 0.000201598
29 *756:64 *2673:A4 0.000161672
*RES
1 *3164:Q *824:6 9 
2 *824:6 *824:12 5.868 
3 *824:12 *2530:A1 7.16 
4 *824:12 *2667:A2 4.5 
5 *824:6 *824:32 6.248 
6 *824:32 *2673:A4 5.488 
7 *824:32 *2666:A2 5.792 
*END

*D_NET *825 0.00353793
*CONN
*I *2558:A1 I *D gf180mcu_fd_sc_mcu7t5v0__nor2_1
*I *2698:A1 I *D gf180mcu_fd_sc_mcu7t5v0__nand3_1
*I *2697:A1 I *D gf180mcu_fd_sc_mcu7t5v0__nor2_1
*I *3174:Q O *D gf180mcu_fd_sc_mcu7t5v0__dffq_1
*CAP
1 *2558:A1 0.00019768
2 *2698:A1 0
3 *2697:A1 0.000392221
4 *3174:Q 0.000261625
5 *825:23 0.000435469
6 *825:10 0.000891636
7 *2697:A1 *2694:B 2.67333e-05
8 *825:10 *847:12 0
9 *825:10 *847:25 0
10 *825:10 *847:36 3.20359e-06
11 *825:23 *847:36 0.000107525
12 *2549:A1 *2558:A1 0.000469571
13 *2549:A1 *825:23 0.000369763
14 *2551:A1 *2558:A1 0
15 *2551:A1 *825:23 0
16 *2699:A3 *825:23 0
17 *2699:A4 *2558:A1 0
18 *2699:A4 *825:23 3.94662e-05
19 *216:19 *825:23 0
20 *352:19 *2697:A1 0
21 *352:19 *825:10 0
22 *356:8 *2697:A1 0.000200822
23 *689:57 *825:10 0.000142219
*RES
1 *3174:Q *825:10 10.824 
2 *825:10 *2697:A1 11.356 
3 *825:10 *825:23 6.552 
4 *825:23 *2698:A1 4.5 
5 *825:23 *2558:A1 6.324 
*END

*D_NET *826 0.00551222
*CONN
*I *2561:A1 I *D gf180mcu_fd_sc_mcu7t5v0__nor2_1
*I *2708:A3 I *D gf180mcu_fd_sc_mcu7t5v0__and4_1
*I *2702:A1 I *D gf180mcu_fd_sc_mcu7t5v0__and2_1
*I *2701:A1 I *D gf180mcu_fd_sc_mcu7t5v0__nor2_1
*I *3175:Q O *D gf180mcu_fd_sc_mcu7t5v0__dffq_1
*CAP
1 *2561:A1 0.000453954
2 *2708:A3 5.78604e-05
3 *2702:A1 0
4 *2701:A1 5.28316e-05
5 *3175:Q 0.000210415
6 *826:32 0.000634864
7 *826:23 0.000242225
8 *826:12 0.000382423
9 *2561:A1 *2564:A1 1.47088e-05
10 *2561:A1 *827:8 8.84331e-05
11 *2561:A1 *827:32 0.000310758
12 *2708:A3 *2705:A1 8.84331e-05
13 *2708:A3 *2708:A2 0.000379283
14 *2708:A3 *827:8 5.66631e-05
15 *826:32 *2704:A1 2.40328e-06
16 *2701:A2 *2701:A1 0.000185989
17 *2701:A2 *826:23 0.000107509
18 *2702:A2 *826:23 2.6126e-05
19 *2702:A2 *826:32 4.98138e-05
20 *2703:A2 *2701:A1 0.000426195
21 *2703:A2 *826:23 8.70108e-05
22 *2704:A2 *826:32 6.71845e-05
23 *2705:A2 *826:12 7.84072e-05
24 *2708:A4 *2708:A3 0.000438681
25 *2708:A4 *826:32 7.53241e-05
26 *359:12 *2561:A1 0.000142431
27 *359:12 *2708:A3 2.26535e-05
28 *361:19 *826:12 2.57651e-05
29 *681:36 *826:12 0.000727911
30 *784:25 *2561:A1 7.5964e-05
*RES
1 *3175:Q *826:12 15.78 
2 *826:12 *2701:A1 5.64 
3 *826:12 *826:23 1.064 
4 *826:23 *2702:A1 4.5 
5 *826:23 *826:32 5.64 
6 *826:32 *2708:A3 10.52 
7 *826:32 *2561:A1 12.8 
*END

*D_NET *827 0.00399396
*CONN
*I *2564:A1 I *D gf180mcu_fd_sc_mcu7t5v0__nor2_1
*I *2704:A1 I *D gf180mcu_fd_sc_mcu7t5v0__nor2_1
*I *2708:A2 I *D gf180mcu_fd_sc_mcu7t5v0__and4_1
*I *2705:A1 I *D gf180mcu_fd_sc_mcu7t5v0__and2_1
*I *3176:Q O *D gf180mcu_fd_sc_mcu7t5v0__dffq_1
*CAP
1 *2564:A1 0.000101942
2 *2704:A1 3.20406e-05
3 *2708:A2 8.03352e-05
4 *2705:A1 0.000463726
5 *3176:Q 0
6 *827:32 0.000204992
7 *827:8 0.000579081
8 *827:6 0.000106029
9 *2708:A2 *2708:A1 3.08902e-05
10 *2561:A1 *2564:A1 1.47088e-05
11 *2561:A1 *827:8 8.84331e-05
12 *2561:A1 *827:32 0.000310758
13 *2701:A2 *2705:A1 0
14 *2704:A2 *2704:A1 1.5015e-05
15 *2705:A2 *2705:A1 0
16 *2706:A2 *2564:A1 0.000753802
17 *2706:A2 *2704:A1 2.6126e-05
18 *2706:A2 *2708:A2 2.31659e-05
19 *2708:A3 *2705:A1 8.84331e-05
20 *2708:A3 *2708:A2 0.000379283
21 *2708:A3 *827:8 5.66631e-05
22 *2708:A4 *2705:A1 0
23 *361:19 *2705:A1 0
24 *363:8 *2705:A1 6.44359e-05
25 *784:25 *2564:A1 0.000433917
26 *784:25 *2704:A1 0.000137776
27 *784:25 *2705:A1 0
28 *784:25 *827:8 0
29 *784:25 *827:32 0
30 *826:32 *2704:A1 2.40328e-06
*RES
1 *3176:Q *827:6 9 
2 *827:6 *827:8 0.38 
3 *827:8 *2705:A1 12.04 
4 *827:8 *2708:A2 9.988 
5 *827:6 *827:32 5.336 
6 *827:32 *2704:A1 4.88 
7 *827:32 *2564:A1 6.552 
*END

*D_NET *828 0.00292371
*CONN
*I *2567:A1 I *D gf180mcu_fd_sc_mcu7t5v0__nor2_1
*I *2708:A1 I *D gf180mcu_fd_sc_mcu7t5v0__and4_1
*I *2707:A1 I *D gf180mcu_fd_sc_mcu7t5v0__nor2_1
*I *3177:Q O *D gf180mcu_fd_sc_mcu7t5v0__dffq_1
*CAP
1 *2567:A1 0
2 *2708:A1 0.000373864
3 *2707:A1 0.000576393
4 *3177:Q 0.000302018
5 *828:24 0.00064824
6 *2569:A2 *2708:A1 0.000147305
7 *2706:A1 *2707:A1 0.000372137
8 *2706:A2 *2708:A1 6.25143e-05
9 *2706:A2 *828:24 0
10 *2707:A2 *2707:A1 8.45062e-05
11 *2708:A2 *2708:A1 3.08902e-05
12 *2708:A4 *2707:A1 0
13 *2709:A2 *2707:A1 0
14 *363:8 *2707:A1 8.67574e-05
15 *365:10 *2707:A1 1.53727e-05
16 *365:10 *2708:A1 6.63508e-06
17 *365:10 *828:24 3.2964e-05
18 *681:12 *828:24 0
19 *681:18 *2707:A1 0
20 *755:55 *2708:A1 9.88736e-06
21 *755:61 *2707:A1 0
22 *755:61 *2708:A1 0.000164236
23 *755:61 *828:24 9.98921e-06
*RES
1 *3177:Q *2707:A1 11.584 
2 *2707:A1 *828:24 15.4 
3 *828:24 *2708:A1 7.312 
4 *828:24 *2567:A1 4.5 
*END

*D_NET *829 0.00445564
*CONN
*I *2570:A1 I *D gf180mcu_fd_sc_mcu7t5v0__nor2_1
*I *2716:A3 I *D gf180mcu_fd_sc_mcu7t5v0__nand4_1
*I *2710:A1 I *D gf180mcu_fd_sc_mcu7t5v0__nor2_1
*I *2711:A1 I *D gf180mcu_fd_sc_mcu7t5v0__and2_1
*I *3178:Q O *D gf180mcu_fd_sc_mcu7t5v0__dffq_1
*CAP
1 *2570:A1 5.50739e-05
2 *2716:A3 0
3 *2710:A1 2.38846e-05
4 *2711:A1 0.000162004
5 *3178:Q 0.000315058
6 *829:24 0.000492299
7 *829:14 0.000553106
8 *829:10 0.000616827
9 *2570:A1 *2576:A1 2.97354e-06
10 *829:10 *2573:A1 0.000149579
11 *829:14 *2576:A1 2.70198e-05
12 *829:14 *830:32 0
13 *829:14 *831:14 0.000269865
14 *829:24 *2576:A1 3.83835e-06
15 *829:24 *2716:A2 7.21615e-05
16 *829:24 *831:38 0
17 *2575:A2 *2570:A1 0.000166035
18 *2716:A4 *829:24 0.00109484
19 *3177:CLK *2710:A1 2.17248e-05
20 *3177:CLK *829:24 3.76237e-05
21 *3178:D *2710:A1 0
22 *3178:D *829:24 0
23 *369:10 *829:24 0.000193933
24 *370:8 *829:24 0
25 *681:18 *829:10 0
26 *681:74 *829:10 1.52691e-05
27 *681:74 *829:24 4.40364e-05
28 *755:40 *2570:A1 9.34472e-05
29 *755:40 *829:10 4.50449e-05
*RES
1 *3178:Q *829:10 11.584 
2 *829:10 *829:14 6.096 
3 *829:14 *829:24 4.028 
4 *829:24 *2711:A1 5.488 
5 *829:24 *2710:A1 4.728 
6 *829:14 *2716:A3 4.5 
7 *829:10 *2570:A1 9.988 
*END

*D_NET *830 0.00376659
*CONN
*I *2573:A1 I *D gf180mcu_fd_sc_mcu7t5v0__nor2_1
*I *2714:A1 I *D gf180mcu_fd_sc_mcu7t5v0__and2_1
*I *2716:A2 I *D gf180mcu_fd_sc_mcu7t5v0__nand4_1
*I *2713:A1 I *D gf180mcu_fd_sc_mcu7t5v0__nor2_1
*I *3179:Q O *D gf180mcu_fd_sc_mcu7t5v0__dffq_1
*CAP
1 *2573:A1 0.000186799
2 *2714:A1 0
3 *2716:A2 8.18631e-05
4 *2713:A1 0.000384096
5 *3179:Q 0
6 *830:32 0.000262
7 *830:19 0.00026162
8 *830:6 0.000488652
9 *2573:A1 *2576:A1 2.22657e-05
10 *2716:A2 *2576:A1 4.58601e-06
11 *830:19 *831:14 3.50638e-06
12 *830:32 *831:14 1.24299e-05
13 *2712:A3 *2713:A1 0
14 *2714:A2 *2713:A1 0.000817901
15 *2714:A2 *830:19 0.000321458
16 *2714:A2 *830:32 0.000127047
17 *369:10 *2713:A1 0.000101039
18 *369:10 *2716:A2 0.000193933
19 *369:10 *830:19 4.23191e-05
20 *369:14 *2713:A1 1.85312e-05
21 *681:74 *2713:A1 0
22 *681:74 *830:32 0
23 *755:40 *2573:A1 2.25107e-05
24 *784:37 *2713:A1 8.166e-05
25 *784:50 *2713:A1 0.000110626
26 *829:10 *2573:A1 0.000149579
27 *829:14 *830:32 0
28 *829:24 *2716:A2 7.21615e-05
*RES
1 *3179:Q *830:6 9 
2 *830:6 *2713:A1 13.104 
3 *830:6 *830:19 0.988 
4 *830:19 *2716:A2 9.988 
5 *830:19 *830:32 5.184 
6 *830:32 *2714:A1 4.5 
7 *830:32 *2573:A1 6.4 
*END

*D_NET *831 0.00321659
*CONN
*I *2717:A1 I *D gf180mcu_fd_sc_mcu7t5v0__aoi21_1
*I *2718:A1 I *D gf180mcu_fd_sc_mcu7t5v0__oai21_1
*I *2576:A1 I *D gf180mcu_fd_sc_mcu7t5v0__nor2_1
*I *2716:A1 I *D gf180mcu_fd_sc_mcu7t5v0__nand4_1
*I *3180:Q O *D gf180mcu_fd_sc_mcu7t5v0__dffq_1
*CAP
1 *2717:A1 0
2 *2718:A1 0.000296492
3 *2576:A1 0.000311504
4 *2716:A1 0
5 *3180:Q 6.80284e-05
6 *831:38 0.000502284
7 *831:14 0.000600687
8 *831:8 0.000563003
9 *2570:A1 *2576:A1 2.97354e-06
10 *2573:A1 *2576:A1 2.22657e-05
11 *2575:A2 *2576:A1 5.856e-06
12 *2716:A2 *2576:A1 4.58601e-06
13 *2716:A4 *831:8 0
14 *2717:A2 *831:8 2.17248e-05
15 *2717:A2 *831:38 7.49908e-05
16 *2717:B *831:38 9.56507e-05
17 *2718:B *831:38 7.45328e-07
18 *2740:A2 *2718:A1 0
19 *369:10 *2718:A1 0
20 *369:10 *831:14 0.000236264
21 *369:14 *2718:A1 0
22 *370:8 *2576:A1 8.27642e-05
23 *755:30 *2576:A1 1.0115e-05
24 *755:32 *2576:A1 0
25 *784:50 *831:38 0
26 *829:14 *2576:A1 2.70198e-05
27 *829:14 *831:14 0.000269865
28 *829:24 *2576:A1 3.83835e-06
29 *829:24 *831:38 0
30 *830:19 *831:14 3.50638e-06
31 *830:32 *831:14 1.24299e-05
*RES
1 *3180:Q *831:8 4.956 
2 *831:8 *831:14 11.052 
3 *831:14 *2716:A1 4.5 
4 *831:14 *2576:A1 15.704 
5 *831:8 *831:38 1.52 
6 *831:38 *2718:A1 14.792 
7 *831:38 *2717:A1 4.5 
*END

*D_NET *832 0.000437521
*CONN
*I *2495:I I *D gf180mcu_fd_sc_mcu7t5v0__clkinv_1
*I *3181:Q O *D gf180mcu_fd_sc_mcu7t5v0__dffq_1
*CAP
1 *2495:I 0.00014415
2 *3181:Q 0.00014415
3 *2580:A1 *2495:I 0.000111867
4 *2580:A2 *2495:I 0
5 *215:10 *2495:I 3.73535e-05
6 *760:95 *2495:I 0
*RES
1 *3181:Q *2495:I 10.064 
*END

*D_NET *833 0.00600685
*CONN
*I *2494:I I *D gf180mcu_fd_sc_mcu7t5v0__clkinv_1
*I *2723:A1 I *D gf180mcu_fd_sc_mcu7t5v0__aoi21_1
*I *2726:A1 I *D gf180mcu_fd_sc_mcu7t5v0__aoi21_1
*I *2724:A1 I *D gf180mcu_fd_sc_mcu7t5v0__oai21_1
*I *3182:Q O *D gf180mcu_fd_sc_mcu7t5v0__dffq_1
*CAP
1 *2494:I 0.000274852
2 *2723:A1 0
3 *2726:A1 0.000138226
4 *2724:A1 0.000182292
5 *3182:Q 5.9473e-05
6 *833:25 0.000225117
7 *833:23 0.00047786
8 *833:8 0.000357882
9 *2726:A1 *834:8 2.22533e-05
10 *2721:A2 *2494:I 6.91944e-05
11 *2722:A1 *833:23 1.29775e-05
12 *2722:A1 *833:25 5.09899e-05
13 *2723:B *2726:A1 1.02578e-05
14 *2723:B *833:25 4.27813e-05
15 *2724:A2 *2724:A1 0.000653985
16 *2724:B *833:23 0.000400645
17 *2724:B *833:25 0.000438681
18 *2725:I *2724:A1 0.00026286
19 *2726:A2 *2726:A1 0.000125537
20 *2727:A2 *2494:I 0.000469575
21 *3182:D *2724:A1 5.54829e-05
22 *215:10 *2494:I 0.000127688
23 *215:20 *2494:I 6.38438e-05
24 *374:12 *2494:I 0.0009946
25 *374:12 *2724:A1 1.2682e-05
26 *374:12 *833:8 5.5234e-06
27 *374:14 *2726:A1 1.02578e-05
28 *374:14 *833:25 1.02578e-05
29 *378:8 *2494:I 0
30 *736:22 *2724:A1 0.000258081
31 *736:22 *833:8 0.000187017
32 *784:62 *2494:I 5.97639e-06
*RES
1 *3182:Q *833:8 9.532 
2 *833:8 *2724:A1 11.432 
3 *833:8 *833:23 5.64 
4 *833:23 *833:25 1.292 
5 *833:25 *2726:A1 5.64 
6 *833:25 *2723:A1 4.5 
7 *833:23 *2494:I 17.072 
*END

*D_NET *834 0.00155648
*CONN
*I *2493:I I *D gf180mcu_fd_sc_mcu7t5v0__clkinv_1
*I *2726:B I *D gf180mcu_fd_sc_mcu7t5v0__aoi21_1
*I *3183:Q O *D gf180mcu_fd_sc_mcu7t5v0__dffq_1
*CAP
1 *2493:I 0.000200076
2 *2726:B 9.81548e-05
3 *3183:Q 0.000248941
4 *834:8 0.000547172
5 *2726:B *836:25 0
6 *2722:A1 *834:8 0.00026286
7 *2723:B *834:8 2.71872e-05
8 *2726:A1 *834:8 2.22533e-05
9 *2727:A3 *834:8 0
10 *2733:A3 *2726:B 1.75056e-06
11 *370:8 *834:8 2.20893e-05
12 *370:15 *834:8 2.07594e-05
13 *378:8 *2493:I 7.06791e-05
14 *378:8 *2726:B 3.45616e-05
*RES
1 *3183:Q *834:8 10.9 
2 *834:8 *2726:B 9.532 
3 *834:8 *2493:I 10.14 
*END

*D_NET *835 0.00399615
*CONN
*I *2673:A3 I *D gf180mcu_fd_sc_mcu7t5v0__and4_1
*I *2670:A1 I *D gf180mcu_fd_sc_mcu7t5v0__and2_1
*I *2533:A1 I *D gf180mcu_fd_sc_mcu7t5v0__nor2_1
*I *2669:A1 I *D gf180mcu_fd_sc_mcu7t5v0__nor2_1
*I *3165:Q O *D gf180mcu_fd_sc_mcu7t5v0__dffq_1
*CAP
1 *2673:A3 0.000133049
2 *2670:A1 0
3 *2533:A1 0.000270599
4 *2669:A1 0
5 *3165:Q 0.000207936
6 *835:32 0.000219065
7 *835:12 0.000270599
8 *835:10 0.000293952
9 *2533:A1 *3016:B2 0.000288923
10 *2673:A3 *2672:A1 2.26535e-05
11 *2673:A3 *840:21 8.59748e-05
12 *835:10 *2536:A1 9.50296e-06
13 *835:10 *2999:B2 3.59424e-05
14 *835:10 *840:8 0.000209085
15 *835:10 *840:21 2.77603e-05
16 *835:32 *840:21 6.52605e-05
17 *2530:A1 *2533:A1 9.88736e-06
18 *2532:A1 *2533:A1 2.75585e-05
19 *2532:A1 *835:10 7.24052e-05
20 *2667:A1 *2673:A3 0.000512533
21 *2667:A1 *835:32 9.52854e-05
22 *2669:A2 *835:32 5.43087e-05
23 *2671:A2 *835:10 2.21744e-05
24 *3025:A2 *2533:A1 6.85428e-05
25 *3025:A2 *835:10 0
26 *212:68 *2673:A3 0.000190571
27 *756:18 *2533:A1 0.000764386
28 *824:12 *2533:A1 3.81953e-05
*RES
1 *3165:Q *835:10 10.824 
2 *835:10 *835:12 4.5 
3 *835:12 *2669:A1 4.5 
4 *835:12 *2533:A1 17.148 
5 *835:10 *835:32 0.988 
6 *835:32 *2670:A1 9 
7 *835:32 *2673:A3 10.748 
*END

*D_NET *836 0.00389352
*CONN
*I *2585:A1 I *D gf180mcu_fd_sc_mcu7t5v0__nor2_1
*I *2730:A1 I *D gf180mcu_fd_sc_mcu7t5v0__and2_1
*I *2729:A1 I *D gf180mcu_fd_sc_mcu7t5v0__nor2_1
*I *2733:A2 I *D gf180mcu_fd_sc_mcu7t5v0__and3_1
*I *3184:Q O *D gf180mcu_fd_sc_mcu7t5v0__dffq_1
*CAP
1 *2585:A1 0.000368265
2 *2730:A1 0
3 *2729:A1 0.000186548
4 *2733:A2 0
5 *3184:Q 1.17249e-05
6 *836:25 0.000378429
7 *836:14 0.000524412
8 *836:8 0.000712521
9 *2585:A1 *2588:A1 0
10 *2729:A1 *2732:A1 0
11 *836:14 *2588:A1 0
12 *836:14 *2732:A1 0.000145251
13 *836:14 *2733:A1 0.000253457
14 *836:25 *2732:A1 0
15 *836:25 *2733:A1 3.73535e-05
16 *2584:A1 *2585:A1 0.000183443
17 *2584:A1 *836:8 0.000147305
18 *2594:A2 *2585:A1 0
19 *2726:B *836:25 0
20 *2727:A1 *2585:A1 2.88187e-05
21 *2729:A2 *2729:A1 0.000197957
22 *2733:A3 *2729:A1 6.38438e-05
23 *2733:A3 *836:25 0.000218418
24 *370:8 *836:8 6.73834e-05
25 *382:6 *836:14 4.1381e-05
26 *755:12 *2585:A1 2.05156e-05
27 *755:16 *2585:A1 0.000306492
*RES
1 *3184:Q *836:8 9.38 
2 *836:8 *836:14 6.78 
3 *836:14 *2733:A2 4.5 
4 *836:14 *836:25 6.02 
5 *836:25 *2729:A1 10.748 
6 *836:25 *2730:A1 9 
7 *836:8 *2585:A1 12.496 
*END

*D_NET *837 0.00353639
*CONN
*I *2733:A1 I *D gf180mcu_fd_sc_mcu7t5v0__and3_1
*I *2732:A1 I *D gf180mcu_fd_sc_mcu7t5v0__nor2_1
*I *2588:A1 I *D gf180mcu_fd_sc_mcu7t5v0__nor2_1
*I *3185:Q O *D gf180mcu_fd_sc_mcu7t5v0__dffq_1
*CAP
1 *2733:A1 0.000170106
2 *2732:A1 0.0006462
3 *2588:A1 0.000383568
4 *3185:Q 0
5 *837:19 0.000982734
6 *837:4 0.000549996
7 *2584:A1 *2588:A1 9.85832e-05
8 *2585:A1 *2588:A1 0
9 *2729:A1 *2732:A1 0
10 *2731:A2 *2732:A1 1.26706e-05
11 *2731:A3 *2732:A1 6.48268e-05
12 *2732:A2 *2732:A1 0.000111534
13 *370:8 *2588:A1 8.01993e-06
14 *370:8 *2733:A1 3.68791e-05
15 *370:8 *837:19 3.52123e-05
16 *382:6 *2588:A1 0
17 *382:6 *2733:A1 0
18 *382:6 *837:19 0
19 *786:34 *2588:A1 0
20 *836:14 *2588:A1 0
21 *836:14 *2732:A1 0.000145251
22 *836:14 *2733:A1 0.000253457
23 *836:25 *2732:A1 0
24 *836:25 *2733:A1 3.73535e-05
*RES
1 *3185:Q *837:4 4.5 
2 *837:4 *2588:A1 16.084 
3 *837:4 *837:19 0.988 
4 *837:19 *2732:A1 17.376 
5 *837:19 *2733:A1 6.248 
*END

*D_NET *838 0.00618323
*CONN
*I *2591:A1 I *D gf180mcu_fd_sc_mcu7t5v0__nor2_1
*I *2735:A1 I *D gf180mcu_fd_sc_mcu7t5v0__nor2_1
*I *2739:A2 I *D gf180mcu_fd_sc_mcu7t5v0__and3_1
*I *2738:A1 I *D gf180mcu_fd_sc_mcu7t5v0__aoi21_1
*I *2736:A1 I *D gf180mcu_fd_sc_mcu7t5v0__and2_1
*I *3186:Q O *D gf180mcu_fd_sc_mcu7t5v0__dffq_1
*CAP
1 *2591:A1 0.000448153
2 *2735:A1 0.000178047
3 *2739:A2 1.95965e-05
4 *2738:A1 7.7263e-06
5 *2736:A1 0.000112053
6 *3186:Q 0.000110074
7 *838:20 0.000224725
8 *838:16 0.000310087
9 *838:10 0.000429176
10 *838:8 0.000623813
11 *2591:A1 *2594:A1 1.97263e-05
12 *2591:A1 *839:14 1.63808e-05
13 *838:10 *839:14 5.14547e-06
14 *838:16 *839:14 1.45075e-05
15 *838:20 *839:14 0.000142801
16 *2593:A2 *2591:A1 0.000360226
17 *2594:A2 *2591:A1 0
18 *2596:A2 *2591:A1 6.74908e-05
19 *2736:A2 *2736:A1 7.09482e-05
20 *2737:A1 *2736:A1 5.1289e-05
21 *2737:A2 *2735:A1 0.000760871
22 *2737:A2 *2736:A1 2.0537e-05
23 *2737:A2 *838:8 7.83779e-05
24 *2737:A2 *838:10 5.43763e-05
25 *2737:A2 *838:16 0.000356883
26 *2737:A2 *838:20 2.56448e-05
27 *2738:A2 *2736:A1 1.02578e-05
28 *2739:A3 *2735:A1 3.58487e-05
29 *2740:A1 *2739:A2 5.22519e-05
30 *2740:A1 *838:16 0.000317494
31 *2740:A2 *2738:A1 2.6126e-05
32 *2740:A3 *2735:A1 0.00030072
33 *2740:A3 *2739:A2 1.91917e-06
34 *2740:A3 *838:8 0.000132001
35 *2740:A3 *838:16 4.13816e-05
36 *3131:CLK *2591:A1 2.89664e-05
37 *370:8 *2735:A1 0
38 *370:8 *838:8 3.52123e-05
39 *382:6 *2735:A1 1.15275e-05
40 *382:25 *2735:A1 1.19438e-05
41 *382:35 *2736:A1 8.64697e-06
42 *688:12 *2591:A1 0.000262996
43 *688:22 *2736:A1 5.59457e-05
44 *688:22 *838:20 0.000142917
45 *688:26 *2736:A1 2.25184e-05
46 *688:26 *2738:A1 2.74753e-05
47 *688:32 *2736:A1 3.28611e-05
48 *755:30 *2591:A1 3.00299e-05
49 *784:56 *2738:A1 8.55327e-05
*RES
1 *3186:Q *838:8 9.988 
2 *838:8 *838:10 0.38 
3 *838:10 *838:16 6.324 
4 *838:16 *838:20 5.64 
5 *838:20 *2736:A1 10.368 
6 *838:20 *2738:A1 9.228 
7 *838:16 *2739:A2 4.728 
8 *838:10 *2735:A1 11.356 
9 *838:8 *2591:A1 12.344 
*END

*D_NET *839 0.00296625
*CONN
*I *2594:A1 I *D gf180mcu_fd_sc_mcu7t5v0__nor2_1
*I *2739:A1 I *D gf180mcu_fd_sc_mcu7t5v0__and3_1
*I *2738:B I *D gf180mcu_fd_sc_mcu7t5v0__aoi21_1
*I *3187:Q O *D gf180mcu_fd_sc_mcu7t5v0__dffq_1
*CAP
1 *2594:A1 5.4419e-05
2 *2739:A1 0
3 *2738:B 7.65413e-05
4 *3187:Q 6.94798e-05
5 *839:14 0.000379006
6 *839:8 0.000426363
7 *2591:A1 *2594:A1 1.97263e-05
8 *2591:A1 *839:14 1.63808e-05
9 *2740:A1 *839:14 7.83779e-05
10 *3187:D *2738:B 0
11 *370:8 *839:8 0.000431535
12 *688:22 *2594:A1 0.00020862
13 *688:22 *839:8 0.00011703
14 *688:22 *839:14 0.000905913
15 *784:56 *839:14 1.52691e-05
16 *786:34 *2594:A1 5.13643e-06
17 *838:10 *839:14 5.14547e-06
18 *838:16 *839:14 1.45075e-05
19 *838:20 *839:14 0.000142801
*RES
1 *3187:Q *839:8 10.14 
2 *839:8 *839:14 7.236 
3 *839:14 *2738:B 5.032 
4 *839:14 *2739:A1 4.5 
5 *839:8 *2594:A1 9.684 
*END

*D_NET *840 0.00421142
*CONN
*I *2672:A1 I *D gf180mcu_fd_sc_mcu7t5v0__nor2_1
*I *2673:A2 I *D gf180mcu_fd_sc_mcu7t5v0__and4_1
*I *2536:A1 I *D gf180mcu_fd_sc_mcu7t5v0__nor2_1
*I *3166:Q O *D gf180mcu_fd_sc_mcu7t5v0__dffq_1
*CAP
1 *2672:A1 0.000256828
2 *2673:A2 5.06186e-05
3 *2536:A1 0.000363566
4 *3166:Q 0.000125289
5 *840:21 0.000604479
6 *840:8 0.000785887
7 *2536:A1 *2982:B2 8.22031e-06
8 *840:8 *2999:B2 2.07594e-05
9 *2532:A1 *2536:A1 0.000369724
10 *2668:A1 *2673:A2 0.000111867
11 *2668:A1 *840:21 0.000317373
12 *2671:A2 *840:8 0.000104743
13 *2672:A2 *2672:A1 0.000154651
14 *2672:A2 *840:21 3.22131e-05
15 *2673:A3 *2672:A1 2.26535e-05
16 *2673:A3 *840:21 8.59748e-05
17 *3009:A2 *2536:A1 3.95622e-05
18 *3323:I *2536:A1 0.000317373
19 *212:68 *2672:A1 2.56734e-05
20 *756:64 *2673:A2 0.000102353
21 *835:10 *2536:A1 9.50296e-06
22 *835:10 *840:8 0.000209085
23 *835:10 *840:21 2.77603e-05
24 *835:32 *840:21 6.52605e-05
*RES
1 *3166:Q *840:8 10.292 
2 *840:8 *2536:A1 11.888 
3 *840:8 *840:21 2.66 
4 *840:21 *2673:A2 9.684 
5 *840:21 *2672:A1 11.052 
*END

*D_NET *841 0.00596713
*CONN
*I *2675:A1 I *D gf180mcu_fd_sc_mcu7t5v0__nor2_1
*I *2683:A3 I *D gf180mcu_fd_sc_mcu7t5v0__nand4_1
*I *2676:A1 I *D gf180mcu_fd_sc_mcu7t5v0__and2_1
*I *2539:A1 I *D gf180mcu_fd_sc_mcu7t5v0__nor2_1
*I *3167:Q O *D gf180mcu_fd_sc_mcu7t5v0__dffq_1
*CAP
1 *2675:A1 0
2 *2683:A3 0
3 *2676:A1 0.000143078
4 *2539:A1 0.000273825
5 *3167:Q 0.000243851
6 *841:31 0.000143078
7 *841:14 0.000536086
8 *841:10 0.000506112
9 *2539:A1 *2542:A1 0.000220035
10 *2676:A1 *842:23 2.95996e-05
11 *841:10 *2545:A1 0.000181432
12 *841:10 *2683:A1 0.000278996
13 *841:10 *843:23 0.000126528
14 *841:14 *2683:A1 0.000467288
15 *2542:A2 *2539:A1 0.000118057
16 *2544:A2 *2539:A1 0.000251888
17 *2676:A2 *2676:A1 0.000716846
18 *2683:A4 *2539:A1 0.000221474
19 *2683:A4 *841:14 2.23783e-05
20 *3167:D *2539:A1 2.52728e-05
21 *3167:D *2676:A1 0.000379274
22 *3313:I *2539:A1 1.4284e-05
23 *341:36 *841:14 5.83401e-05
24 *756:64 *2539:A1 1.5015e-05
25 *756:66 *2539:A1 0.000171927
26 *756:68 *2539:A1 0.000224296
27 *785:26 *2539:A1 7.24591e-05
28 *785:26 *2676:A1 2.52505e-05
29 *785:133 *2539:A1 0.000500461
*RES
1 *3167:Q *841:10 11.28 
2 *841:10 *841:14 1.976 
3 *841:14 *2539:A1 13.256 
4 *841:14 *841:31 4.5 
5 *841:31 *2676:A1 6.78 
6 *841:31 *2683:A3 4.5 
7 *841:10 *2675:A1 9 
*END

*D_NET *842 0.00704959
*CONN
*I *2682:A2 I *D gf180mcu_fd_sc_mcu7t5v0__and3_1
*I *2678:A1 I *D gf180mcu_fd_sc_mcu7t5v0__aoi21_1
*I *2681:A1 I *D gf180mcu_fd_sc_mcu7t5v0__aoi21_1
*I *2542:A1 I *D gf180mcu_fd_sc_mcu7t5v0__nor2_1
*I *2683:A2 I *D gf180mcu_fd_sc_mcu7t5v0__nand4_1
*I *2679:A1 I *D gf180mcu_fd_sc_mcu7t5v0__oai21_1
*I *3168:Q O *D gf180mcu_fd_sc_mcu7t5v0__dffq_1
*CAP
1 *2682:A2 0
2 *2678:A1 0.000123537
3 *2681:A1 0.000133408
4 *2542:A1 0.000243667
5 *2683:A2 0
6 *2679:A1 0
7 *3168:Q 0
8 *842:66 0.000163735
9 *842:53 0.000224701
10 *842:23 0.000416715
11 *842:12 0.000259104
12 *842:6 0.000137151
13 *2681:A1 *2681:B 0.000241248
14 *2681:A1 *843:14 0.000248576
15 *842:12 *843:12 4.29636e-06
16 *842:53 *843:12 6.55118e-05
17 *842:66 *843:14 0.000402879
18 *2539:A1 *2542:A1 0.000220035
19 *2544:A2 *2542:A1 2.57058e-06
20 *2676:A1 *842:23 2.95996e-05
21 *2676:A2 *2542:A1 5.4634e-05
22 *2676:A2 *842:23 0.000724001
23 *2677:A3 *2542:A1 0.000129837
24 *2677:A3 *842:23 0.000876531
25 *2678:A2 *2678:A1 0.000254766
26 *2678:B *2678:A1 0.000132716
27 *2679:A2 *842:12 0.000166811
28 *2679:A2 *842:23 0.000302604
29 *2680:I *842:12 0.00015961
30 *2680:I *842:53 0.000158869
31 *2681:A2 *2681:A1 0.000514574
32 *2681:A2 *842:66 0.000382282
33 *2684:A3 *842:12 1.72912e-05
34 *2684:A3 *842:23 2.05424e-05
35 *3167:D *2542:A1 5.65394e-05
36 *3169:D *842:12 7.71643e-05
37 *785:26 *2542:A1 0.000104082
38 *785:26 *842:23 0
39 *785:38 *842:12 0
*RES
1 *3168:Q *842:6 9 
2 *842:6 *842:12 5.868 
3 *842:12 *2679:A1 4.5 
4 *842:12 *842:23 3.42 
5 *842:23 *2683:A2 4.5 
6 *842:23 *2542:A1 7.236 
7 *842:6 *842:53 5.336 
8 *842:53 *2681:A1 6.856 
9 *842:53 *842:66 1.14 
10 *842:66 *2678:A1 14.792 
11 *842:66 *2682:A2 4.5 
*END

*D_NET *843 0.00564735
*CONN
*I *2681:B I *D gf180mcu_fd_sc_mcu7t5v0__aoi21_1
*I *2545:A1 I *D gf180mcu_fd_sc_mcu7t5v0__nor2_1
*I *2683:A1 I *D gf180mcu_fd_sc_mcu7t5v0__nand4_1
*I *2682:A1 I *D gf180mcu_fd_sc_mcu7t5v0__and3_1
*I *3169:Q O *D gf180mcu_fd_sc_mcu7t5v0__dffq_1
*CAP
1 *2681:B 0.00021496
2 *2545:A1 0.00043724
3 *2683:A1 6.33281e-05
4 *2682:A1 0
5 *3169:Q 0.000117388
6 *843:23 0.000844987
7 *843:14 0.000566721
8 *843:12 0.000554651
9 *2675:A2 *843:23 7.45328e-07
10 *2677:A2 *843:23 0
11 *2678:B *843:14 0
12 *2679:B *843:14 1.59244e-05
13 *2680:I *843:12 2.69281e-06
14 *2681:A1 *2681:B 0.000241248
15 *2681:A1 *843:14 0.000248576
16 *2681:A2 *843:12 8.81341e-06
17 *2681:A2 *843:14 2.17381e-05
18 *3169:D *843:12 0.000387765
19 *3188:CLK *2545:A1 0
20 *341:36 *2683:A1 0.00033338
21 *348:10 *843:23 0
22 *786:10 *2545:A1 2.78305e-05
23 *786:10 *2683:A1 3.24312e-05
24 *841:10 *2545:A1 0.000181432
25 *841:10 *2683:A1 0.000278996
26 *841:10 *843:23 0.000126528
27 *841:14 *2683:A1 0.000467288
28 *842:12 *843:12 4.29636e-06
29 *842:53 *843:12 6.55118e-05
30 *842:66 *843:14 0.000402879
*RES
1 *3169:Q *843:12 14.716 
2 *843:12 *843:14 1.9 
3 *843:14 *2682:A1 4.5 
4 *843:14 *843:23 6.704 
5 *843:23 *2683:A1 10.748 
6 *843:23 *2545:A1 11.736 
7 *843:12 *2681:B 6.324 
*END

*D_NET *844 0.00264568
*CONN
*I *2497:I I *D gf180mcu_fd_sc_mcu7t5v0__clkinv_1
*I *2685:A1 I *D gf180mcu_fd_sc_mcu7t5v0__nor2_1
*I *3170:Q O *D gf180mcu_fd_sc_mcu7t5v0__dffq_1
*CAP
1 *2497:I 0.000126634
2 *2685:A1 0.000206201
3 *3170:Q 0.000196012
4 *844:12 0.000528848
5 *2497:I *845:8 1.18988e-05
6 *2678:B *844:12 0
7 *2679:A2 *844:12 1.46098e-05
8 *2684:A2 *2685:A1 7.49908e-05
9 *2685:A2 *844:12 5.75752e-06
10 *2687:A1 *2685:A1 3.83835e-06
11 *3169:D *2497:I 0.000193942
12 *3169:D *2685:A1 8.55242e-05
13 *3169:D *844:12 0.000571475
14 *3170:D *2685:A1 6.12935e-05
15 *217:10 *2497:I 0.000307139
16 *785:26 *2497:I 6.74077e-05
17 *785:28 *2497:I 8.42428e-05
18 *785:38 *2497:I 6.7213e-05
19 *785:38 *2685:A1 1.15312e-05
20 *785:38 *844:12 2.71239e-05
*RES
1 *3170:Q *844:12 15.324 
2 *844:12 *2685:A1 6.172 
3 *844:12 *2497:I 6.248 
*END

*D_NET *845 0.00162435
*CONN
*I *2688:A1 I *D gf180mcu_fd_sc_mcu7t5v0__nor2_1
*I *2496:I I *D gf180mcu_fd_sc_mcu7t5v0__clkinv_1
*I *3171:Q O *D gf180mcu_fd_sc_mcu7t5v0__dffq_1
*CAP
1 *2688:A1 0
2 *2496:I 3.68996e-05
3 *3171:Q 0.000226139
4 *845:8 0.000263038
5 *2497:I *845:8 1.18988e-05
6 *2686:A2 *845:8 0
7 *217:10 *2496:I 0.00034938
8 *217:10 *845:8 6.64501e-05
9 *217:14 *2496:I 0.000412903
10 *348:10 *2496:I 0.000177399
11 *348:12 *2496:I 7.09389e-05
12 *785:26 *845:8 9.30625e-06
*RES
1 *3171:Q *845:8 6.02 
2 *845:8 *2496:I 15.248 
3 *845:8 *2688:A1 4.5 
*END

*D_NET *846 0.00745379
*CONN
*I *2698:A3 I *D gf180mcu_fd_sc_mcu7t5v0__nand3_1
*I *2552:A1 I *D gf180mcu_fd_sc_mcu7t5v0__nor2_1
*I *2695:A2 I *D gf180mcu_fd_sc_mcu7t5v0__and3_1
*I *2694:A1 I *D gf180mcu_fd_sc_mcu7t5v0__aoi21_1
*I *2691:A1 I *D gf180mcu_fd_sc_mcu7t5v0__aoi21_1
*I *2692:A1 I *D gf180mcu_fd_sc_mcu7t5v0__oai21_1
*I *3172:Q O *D gf180mcu_fd_sc_mcu7t5v0__dffq_1
*CAP
1 *2698:A3 6.28169e-05
2 *2552:A1 0.000264063
3 *2695:A2 0
4 *2694:A1 0.000447069
5 *2691:A1 0
6 *2692:A1 0.000146502
7 *3172:Q 0
8 *846:52 0.000656718
9 *846:45 0.00050457
10 *846:28 0.000768394
11 *846:8 0.000318029
12 *846:4 0.000318121
13 *2694:A1 *2694:B 0
14 *2698:A3 *847:36 1.5015e-05
15 *846:45 *847:12 0.000422786
16 *846:45 *847:25 0.000286573
17 *846:45 *847:36 7.38371e-06
18 *846:52 *847:36 0.000152303
19 *2549:A1 *2698:A3 2.17248e-05
20 *2552:A2 *2552:A1 1.5015e-05
21 *2554:A2 *2552:A1 0.000154451
22 *2691:A2 *2692:A1 0.000412903
23 *2691:B *846:8 0.00014091
24 *2691:B *846:28 0.000224182
25 *2691:B *846:45 4.21224e-05
26 *2692:B *846:8 1.15312e-05
27 *2694:A2 *2694:A1 5.94709e-06
28 *2695:A3 *846:45 0.00048852
29 *2696:A1 *2694:A1 1.42281e-05
30 *2696:A3 *2694:A1 0.000448201
31 *3172:CLK *2694:A1 9.67157e-05
32 *3173:D *2694:A1 2.47727e-05
33 *3174:D *846:52 0
34 *3174:CLK *2694:A1 0.000340241
35 *689:59 *2694:A1 0.000628376
36 *784:10 *846:52 1.361e-05
*RES
1 *3172:Q *846:4 4.5 
2 *846:4 *846:8 1.368 
3 *846:8 *2692:A1 14.944 
4 *846:8 *2691:A1 4.5 
5 *846:4 *846:28 1.368 
6 *846:28 *2694:A1 18.288 
7 *846:28 *846:45 2.356 
8 *846:45 *2695:A2 4.5 
9 *846:45 *846:52 2.432 
10 *846:52 *2552:A1 6.4 
11 *846:52 *2698:A3 5.184 
*END

*D_NET *847 0.00637807
*CONN
*I *2698:A2 I *D gf180mcu_fd_sc_mcu7t5v0__nand3_1
*I *2555:A1 I *D gf180mcu_fd_sc_mcu7t5v0__nor2_1
*I *2695:A1 I *D gf180mcu_fd_sc_mcu7t5v0__and3_1
*I *2694:B I *D gf180mcu_fd_sc_mcu7t5v0__aoi21_1
*I *3173:Q O *D gf180mcu_fd_sc_mcu7t5v0__dffq_1
*CAP
1 *2698:A2 0
2 *2555:A1 0.000417239
3 *2695:A1 0
4 *2694:B 0.000389059
5 *3173:Q 0.000128235
6 *847:36 0.000774908
7 *847:25 0.000439985
8 *847:12 0.000599611
9 *2549:A1 *847:36 0.000199393
10 *2551:A1 *2555:A1 0.000201957
11 *2558:A2 *2555:A1 0
12 *2560:A2 *2555:A1 0
13 *2691:B *847:12 0.000135056
14 *2694:A1 *2694:B 0
15 *2694:A2 *2694:B 7.52295e-05
16 *2696:A1 *847:12 3.35674e-05
17 *2696:A3 *2694:B 0.000132916
18 *2697:A1 *2694:B 2.67333e-05
19 *2698:A3 *847:36 1.5015e-05
20 *3170:CLK *847:12 0.000151957
21 *3313:I *2555:A1 1.45899e-05
22 *352:19 *2694:B 3.02222e-05
23 *352:21 *2694:B 0.000288131
24 *356:8 *2694:B 7.20635e-05
25 *359:8 *2555:A1 9.13125e-05
26 *689:45 *2555:A1 0
27 *689:59 *847:12 0.000778045
28 *785:64 *847:12 0.000403072
29 *825:10 *847:12 0
30 *825:10 *847:25 0
31 *825:10 *847:36 3.20359e-06
32 *825:23 *847:36 0.000107525
33 *846:45 *847:12 0.000422786
34 *846:45 *847:25 0.000286573
35 *846:45 *847:36 7.38371e-06
36 *846:52 *847:36 0.000152303
*RES
1 *3173:Q *847:12 16.844 
2 *847:12 *2694:B 17.376 
3 *847:12 *847:25 0.836 
4 *847:25 *2695:A1 4.5 
5 *847:25 *847:36 3.116 
6 *847:36 *2555:A1 16.388 
7 *847:36 *2698:A2 4.5 
*END

*D_NET *848 0.00298514
*CONN
*I *2531:A1 I *D gf180mcu_fd_sc_mcu7t5v0__nor2_1
*I *2982:A1 I *D gf180mcu_fd_sc_mcu7t5v0__aoi222_1
*I *3274:Q O *D gf180mcu_fd_sc_mcu7t5v0__dffq_1
*CAP
1 *2531:A1 4.13213e-05
2 *2982:A1 0.000319749
3 *3274:Q 0.00029689
4 *848:12 0.00065796
5 *2982:A1 *2978:A1 0.000136871
6 *848:12 *2999:B2 0.000127985
7 *2532:A3 *848:12 0.00016306
8 *2971:A2 *848:12 1.40547e-05
9 *2981:A3 *2531:A1 0
10 *2981:A3 *2982:A1 0
11 *2983:A2 *2982:A1 0
12 *2984:A2 *2982:A1 0
13 *3001:A1 *2531:A1 0.000115621
14 *3001:A1 *2982:A1 0.000453567
15 *227:18 *2982:A1 0.000216995
16 *693:98 *2982:A1 0.000441063
*RES
1 *3274:Q *848:12 10.9 
2 *848:12 *2982:A1 12.496 
3 *848:12 *2531:A1 9.38 
*END

*D_NET *849 0.0125231
*CONN
*I *2999:B2 I *D gf180mcu_fd_sc_mcu7t5v0__aoi222_1
*I *2559:A1 I *D gf180mcu_fd_sc_mcu7t5v0__nor2_1
*I *3126:Q O *D gf180mcu_fd_sc_mcu7t5v0__dffq_1
*CAP
1 *2999:B2 0.00179679
2 *2559:A1 0
3 *3126:Q 0.000400636
4 *849:16 0.00219743
5 *2999:B2 *2991:B2 0
6 *2999:B2 *865:8 0.0011583
7 *849:16 *2543:A1 0
8 *849:16 *2991:B2 7.60145e-05
9 *849:16 *866:8 5.76373e-06
10 *2532:A1 *2999:B2 0.000449691
11 *2532:A3 *2999:B2 0
12 *2559:A2 *849:16 3.92048e-05
13 *2671:A2 *2999:B2 0
14 *2971:A2 *2999:B2 0.000392033
15 *3001:A1 *2999:B2 0.000719475
16 *3009:A1 *2999:B2 0.00065997
17 *3009:B *2999:B2 0.000448201
18 *3284:I *2999:B2 0.000136871
19 *3362:I *2999:B2 2.6126e-05
20 *3379:I *2999:B2 7.48287e-05
21 *565:31 *2999:B2 0.000223893
22 *565:35 *2999:B2 0.000883511
23 *565:37 *2999:B2 5.4634e-05
24 *575:15 *2999:B2 5.14664e-07
25 *680:197 *2999:B2 0.000125537
26 *689:43 *849:16 2.11799e-05
27 *736:22 *2999:B2 0.000391116
28 *761:31 *2999:B2 0.000194544
29 *761:39 *2999:B2 0.00018402
30 *761:41 *2999:B2 0.000271546
31 *761:52 *2999:B2 0.000431954
32 *761:52 *849:16 9.37296e-06
33 *786:20 *849:16 2.30219e-05
34 *797:27 *849:16 0.000560596
35 *797:37 *849:16 0.000146943
36 *797:46 *2999:B2 0.000234648
37 *835:10 *2999:B2 3.59424e-05
38 *840:8 *2999:B2 2.07594e-05
39 *848:12 *2999:B2 0.000127985
*RES
1 *3126:Q *849:16 16.844 
2 *849:16 *2559:A1 4.5 
3 *849:16 *2999:B2 26.236 
*END

*D_NET *850 0.00490957
*CONN
*I *3008:C2 I *D gf180mcu_fd_sc_mcu7t5v0__aoi222_1
*I *2562:A1 I *D gf180mcu_fd_sc_mcu7t5v0__nor2_1
*I *3127:Q O *D gf180mcu_fd_sc_mcu7t5v0__dffq_1
*CAP
1 *3008:C2 0.000956951
2 *2562:A1 0.000118798
3 *3127:Q 3.28034e-05
4 *850:6 0.00110855
5 *2562:A1 *868:8 1.5015e-05
6 *3008:C2 *3008:A1 0.00067353
7 *3008:C2 *3032:B2 0
8 *3008:C2 *3041:A1 0
9 *3008:C2 *861:8 1.84981e-05
10 *3008:C2 *863:8 0
11 *3008:C2 *868:8 0.000262008
12 *3008:C2 *869:10 9.48587e-05
13 *2548:A2 *2562:A1 4.52262e-05
14 *2554:A1 *2562:A1 3.07734e-05
15 *2562:A2 *2562:A1 0.00011955
16 *2562:A2 *3008:C2 0.000431371
17 *2566:A2 *3008:C2 0
18 *2590:A3 *3008:C2 0.000254112
19 *3008:B1 *3008:C2 1.69984e-05
20 *3041:B1 *3008:C2 1.65795e-06
21 *3124:CLK *2562:A1 1.9211e-05
22 *776:44 *3008:C2 4.58601e-06
23 *776:48 *3008:C2 3.88341e-05
24 *783:67 *3008:C2 5.329e-06
25 *786:34 *3008:C2 0.000660912
*RES
1 *3127:Q *850:6 4.728 
2 *850:6 *2562:A1 5.64 
3 *850:6 *3008:C2 22.24 
*END

*D_NET *851 0.00837628
*CONN
*I *3015:B2 I *D gf180mcu_fd_sc_mcu7t5v0__aoi222_1
*I *2565:A1 I *D gf180mcu_fd_sc_mcu7t5v0__nor2_1
*I *3128:Q O *D gf180mcu_fd_sc_mcu7t5v0__dffq_1
*CAP
1 *3015:B2 0.000696342
2 *2565:A1 0.000341148
3 *3128:Q 0.000264555
4 *851:6 0.00130204
5 *3015:B2 *2597:A1 3.26605e-05
6 *3015:B2 *2991:B2 0.000431526
7 *851:6 *2982:C1 2.4971e-05
8 *851:6 *3000:C2 4.42356e-05
9 *851:6 *3016:C2 2.17707e-06
10 *2566:A3 *2565:A1 0.000106627
11 *2598:B *2565:A1 0
12 *2974:A3 *3015:B2 0.000291377
13 *2974:A3 *851:6 0.000406112
14 *2979:A1 *3015:B2 7.88344e-05
15 *2979:A1 *851:6 6.7518e-05
16 *2991:B1 *3015:B2 2.6126e-05
17 *3047:A1 *3015:B2 0.000220559
18 *3307:I *2565:A1 7.82633e-06
19 *3307:I *3015:B2 0.00147635
20 *3379:I *3015:B2 0.000454898
21 *559:14 *851:6 1.3758e-05
22 *567:20 *2565:A1 4.43253e-05
23 *574:16 *851:6 2.59005e-05
24 *575:30 *3015:B2 0.000295329
25 *724:16 *2565:A1 0
26 *724:31 *851:6 2.68145e-05
27 *735:12 *851:6 4.10175e-06
28 *735:23 *2565:A1 9.4211e-05
29 *735:23 *3015:B2 0
30 *764:18 *3015:B2 0.000761809
31 *774:26 *3015:B2 0.000119632
32 *798:74 *2565:A1 0.000714522
*RES
1 *3128:Q *851:6 6.856 
2 *851:6 *2565:A1 17.224 
3 *851:6 *3015:B2 22.468 
*END

*D_NET *852 0.00631486
*CONN
*I *3024:C2 I *D gf180mcu_fd_sc_mcu7t5v0__aoi222_1
*I *2568:A1 I *D gf180mcu_fd_sc_mcu7t5v0__nor2_1
*I *3129:Q O *D gf180mcu_fd_sc_mcu7t5v0__dffq_1
*CAP
1 *3024:C2 0.000283053
2 *2568:A1 0
3 *3129:Q 0.000245297
4 *852:12 0.000528351
5 *3024:C2 *3032:B2 6.80181e-05
6 *3024:C2 *3032:C2 0.000652271
7 *3024:C2 *3041:A1 0.00108652
8 *3024:C2 *3041:C2 0.000704867
9 *852:12 *2571:A1 2.9378e-06
10 *852:12 *2574:A1 9.60518e-06
11 *852:12 *2592:A1 1.02578e-05
12 *852:12 *3041:C2 0.000354732
13 *2574:A2 *852:12 0.000161681
14 *2593:A3 *852:12 7.24161e-06
15 *2596:A1 *3024:C2 5.27013e-05
16 *3041:C1 *3024:C2 0.000696725
17 *681:6 *852:12 2.43252e-05
18 *760:16 *3024:C2 0.000307974
19 *760:20 *852:12 0.000966338
20 *760:24 *852:12 0.000151957
*RES
1 *3129:Q *852:12 17.452 
2 *852:12 *2568:A1 4.5 
3 *852:12 *3024:C2 20.188 
*END

*D_NET *853 0.00661703
*CONN
*I *3032:C2 I *D gf180mcu_fd_sc_mcu7t5v0__aoi222_1
*I *2571:A1 I *D gf180mcu_fd_sc_mcu7t5v0__nor2_1
*I *3130:Q O *D gf180mcu_fd_sc_mcu7t5v0__dffq_1
*CAP
1 *3032:C2 0.0003313
2 *2571:A1 0.000287858
3 *3130:Q 4.91916e-05
4 *853:8 0.00066835
5 *2571:A1 *2592:A1 0
6 *3032:C2 *3032:B2 0.00131189
7 *3032:C2 *3041:A1 0.000500492
8 *3032:C2 *3041:C2 3.11588e-05
9 *2596:A2 *2571:A1 0.000326528
10 *2596:A2 *3032:C2 0.000369716
11 *2596:A3 *3032:C2 0.000443984
12 *3024:C2 *3032:C2 0.000652271
13 *3041:C1 *3032:C2 4.24811e-05
14 *3137:CLK *3032:C2 0.000599866
15 *3139:D *853:8 7.32209e-05
16 *681:6 *2571:A1 0.000199065
17 *681:6 *853:8 2.85028e-05
18 *760:16 *853:8 0
19 *776:44 *3032:C2 0.000285002
20 *776:48 *3032:C2 0.000413211
21 *852:12 *2571:A1 2.9378e-06
*RES
1 *3130:Q *853:8 9.38 
2 *853:8 *2571:A1 11.128 
3 *853:8 *3032:C2 17.512 
*END

*D_NET *854 0.0040202
*CONN
*I *3041:C2 I *D gf180mcu_fd_sc_mcu7t5v0__aoi222_1
*I *2574:A1 I *D gf180mcu_fd_sc_mcu7t5v0__nor2_1
*I *3131:Q O *D gf180mcu_fd_sc_mcu7t5v0__dffq_1
*CAP
1 *3041:C2 0.000502777
2 *2574:A1 0.000171922
3 *3131:Q 0.000152994
4 *854:10 0.000827693
5 *2562:A2 *3041:C2 0.000182561
6 *2572:A2 *2574:A1 5.14116e-06
7 *2572:A3 *2574:A1 8.51705e-05
8 *2572:A3 *3041:C2 1.34985e-05
9 *2572:A3 *854:10 4.68265e-05
10 *2574:A2 *2574:A1 5.37328e-05
11 *2593:A3 *2574:A1 0.000372137
12 *2596:A2 *3041:C2 0.000287007
13 *2596:A2 *854:10 6.12154e-05
14 *3024:C2 *3041:C2 0.000704867
15 *3032:C2 *3041:C2 3.11588e-05
16 *3130:D *854:10 0.000116355
17 *760:20 *3041:C2 2.65777e-05
18 *760:24 *3041:C2 1.42281e-05
19 *795:50 *854:10 0
20 *852:12 *2574:A1 9.60518e-06
21 *852:12 *3041:C2 0.000354732
*RES
1 *3131:Q *854:10 10.672 
2 *854:10 *2574:A1 11.052 
3 *854:10 *3041:C2 16.068 
*END

*D_NET *855 0.0108789
*CONN
*I *2978:A1 I *D gf180mcu_fd_sc_mcu7t5v0__aoi222_1
*I *2577:A1 I *D gf180mcu_fd_sc_mcu7t5v0__nor2_1
*I *3132:Q O *D gf180mcu_fd_sc_mcu7t5v0__dffq_1
*CAP
1 *2978:A1 0.00173585
2 *2577:A1 0.000462692
3 *3132:Q 0
4 *855:4 0.00219854
5 *2577:A1 *2583:A1 9.88736e-06
6 *2978:A1 *2982:B2 0.000932805
7 *2535:A2 *2978:A1 0.000560041
8 *2536:A2 *2978:A1 0.000124318
9 *2538:A1 *2978:A1 0
10 *2538:A2 *2978:A1 0.000131402
11 *2538:A3 *2978:A1 0
12 *2584:A1 *2577:A1 0.000239596
13 *2584:A2 *2577:A1 0.000594335
14 *2584:B *2577:A1 0.000893675
15 *2982:A1 *2978:A1 0.000136871
16 *3118:CLK *2978:A1 0.000432315
17 *3132:D *2577:A1 0.000197186
18 *3132:CLK *2577:A1 0
19 *3300:I *2978:A1 0.000194842
20 *3323:I *2978:A1 0.000105632
21 *3360:I *2978:A1 0.000379274
22 *3379:I *2978:A1 6.79364e-05
23 *569:12 *2978:A1 0.000404441
24 *693:98 *2978:A1 0.000533146
25 *735:23 *2978:A1 0.000140493
26 *761:8 *2978:A1 0.000137785
27 *762:35 *2577:A1 7.02034e-05
28 *776:22 *2978:A1 2.64898e-05
29 *783:20 *2978:A1 0.000105162
30 *796:12 *2978:A1 0
31 *796:23 *2577:A1 6.39888e-05
*RES
1 *3132:Q *855:4 4.5 
2 *855:4 *2577:A1 18.972 
3 *855:4 *2978:A1 40.056 
*END

*D_NET *856 0.00356232
*CONN
*I *2992:A1 I *D gf180mcu_fd_sc_mcu7t5v0__aoi222_1
*I *2579:A1 I *D gf180mcu_fd_sc_mcu7t5v0__nor2_1
*I *3133:Q O *D gf180mcu_fd_sc_mcu7t5v0__dffq_1
*CAP
1 *2992:A1 0.000428202
2 *2579:A1 3.53837e-05
3 *3133:Q 0.000174344
4 *856:8 0.00063793
5 *2579:A1 *2992:C2 0.000239414
6 *2992:A1 *2992:C2 0.000585766
7 *856:8 *857:10 1.32943e-05
8 *2582:B *2579:A1 0.000285856
9 *3001:A2 *2992:A1 8.05328e-06
10 *227:18 *2992:A1 4.3486e-05
11 *736:22 *2992:A1 0.000389028
12 *760:78 *2579:A1 7.74188e-05
13 *760:78 *2992:A1 0.000644146
*RES
1 *3133:Q *856:8 9.836 
2 *856:8 *2579:A1 10.368 
3 *856:8 *2992:A1 14.852 
*END

*D_NET *857 0.00568957
*CONN
*I *3000:A1 I *D gf180mcu_fd_sc_mcu7t5v0__aoi222_1
*I *2581:A1 I *D gf180mcu_fd_sc_mcu7t5v0__nor2_1
*I *3134:Q O *D gf180mcu_fd_sc_mcu7t5v0__dffq_1
*CAP
1 *3000:A1 0.000227792
2 *2581:A1 0.000150845
3 *3134:Q 0.000651175
4 *857:10 0.00102981
5 *3000:A1 *3000:C2 0
6 *2566:A2 *857:10 0
7 *2579:A2 *2581:A1 0
8 *3304:I *857:10 3.36123e-05
9 *227:18 *2581:A1 0.000257029
10 *227:18 *3000:A1 0.000716788
11 *735:12 *2581:A1 0.000526238
12 *735:12 *3000:A1 0.00122272
13 *760:14 *857:10 4.40763e-05
14 *760:78 *857:10 0.000149409
15 *777:10 *3000:A1 0.00051482
16 *783:20 *3000:A1 0.000151957
17 *856:8 *857:10 1.32943e-05
*RES
1 *3134:Q *857:10 13.408 
2 *857:10 *2581:A1 11.128 
3 *857:10 *3000:A1 13.94 
*END

*D_NET *858 0.0058147
*CONN
*I *3008:A1 I *D gf180mcu_fd_sc_mcu7t5v0__aoi222_1
*I *2583:A1 I *D gf180mcu_fd_sc_mcu7t5v0__nor2_1
*I *3135:Q O *D gf180mcu_fd_sc_mcu7t5v0__dffq_1
*CAP
1 *3008:A1 0.000395271
2 *2583:A1 0.000469463
3 *3135:Q 0.000235326
4 *858:10 0.00110006
5 *2583:A1 *3032:A1 0.00013415
6 *3008:A1 *3008:B2 0.000267578
7 *3008:A1 *3032:A1 0.000365942
8 *2577:A1 *2583:A1 9.88736e-06
9 *3008:C1 *3008:A1 0.000242866
10 *3008:C2 *3008:A1 0.00067353
11 *3137:CLK *2583:A1 0
12 *3137:CLK *858:10 3.73627e-05
13 *680:171 *2583:A1 0.000125887
14 *760:14 *858:10 0.00010489
15 *786:34 *2583:A1 0.000721382
16 *786:34 *3008:A1 0.000931106
*RES
1 *3135:Q *858:10 10.672 
2 *858:10 *2583:A1 13.104 
3 *858:10 *3008:A1 15.308 
*END

*D_NET *859 0.00229464
*CONN
*I *2992:B2 I *D gf180mcu_fd_sc_mcu7t5v0__aoi222_1
*I *2534:A1 I *D gf180mcu_fd_sc_mcu7t5v0__nor2_1
*I *3117:Q O *D gf180mcu_fd_sc_mcu7t5v0__dffq_1
*CAP
1 *2992:B2 0.000165954
2 *2534:A1 0
3 *3117:Q 0.00021662
4 *859:8 0.000382574
5 *2992:B2 *3000:B2 0.000114204
6 *859:8 *3000:B2 1.72912e-05
7 *2535:A3 *2992:B2 5.76373e-06
8 *2535:A3 *859:8 0.000102644
9 *3016:B1 *2992:B2 0.000380965
10 *3016:B1 *859:8 0.000438681
11 *762:14 *859:8 6.21566e-05
12 *775:32 *2992:B2 0
13 *777:12 *2992:B2 3.08902e-05
14 *777:48 *859:8 0.000376901
*RES
1 *3117:Q *859:8 7.236 
2 *859:8 *2534:A1 4.5 
3 *859:8 *2992:B2 6.4 
*END

*D_NET *860 0.00308273
*CONN
*I *3016:A1 I *D gf180mcu_fd_sc_mcu7t5v0__aoi222_1
*I *2586:A1 I *D gf180mcu_fd_sc_mcu7t5v0__nor2_1
*I *3136:Q O *D gf180mcu_fd_sc_mcu7t5v0__dffq_1
*CAP
1 *3016:A1 0.000503706
2 *2586:A1 3.30452e-05
3 *3136:Q 0.000113236
4 *860:10 0.000649987
5 *3016:A1 *3000:B2 0
6 *3016:A1 *3016:B2 4.1487e-05
7 *2535:A3 *3016:A1 9.4764e-05
8 *2566:A2 *860:10 0.000434575
9 *3016:A2 *3016:A1 2.6126e-05
10 *3117:D *3016:A1 8.84331e-05
11 *3300:I *3016:A1 0
12 *760:14 *860:10 0.00013472
13 *762:14 *3016:A1 5.97031e-05
14 *762:25 *3016:A1 0.000514804
15 *762:27 *2586:A1 0.000151949
16 *762:27 *3016:A1 0.000115621
17 *776:42 *3016:A1 1.91917e-06
18 *783:56 *3016:A1 0.00011866
*RES
1 *3136:Q *860:10 10.52 
2 *860:10 *2586:A1 9.38 
3 *860:10 *3016:A1 13.256 
*END

*D_NET *861 0.00191034
*CONN
*I *3024:A1 I *D gf180mcu_fd_sc_mcu7t5v0__aoi222_1
*I *2589:A1 I *D gf180mcu_fd_sc_mcu7t5v0__nor2_1
*I *3137:Q O *D gf180mcu_fd_sc_mcu7t5v0__dffq_1
*CAP
1 *3024:A1 0.000322961
2 *2589:A1 6.70404e-05
3 *3137:Q 0.000106342
4 *861:8 0.000496343
5 *2589:A1 *869:10 5.40492e-05
6 *3024:A1 *3024:B2 0.000166035
7 *3024:A1 *869:10 4.97236e-05
8 *861:8 *3032:B2 0.000353805
9 *2590:A3 *861:8 0
10 *3008:C2 *861:8 1.84981e-05
11 *3025:A2 *3024:A1 4.07337e-05
12 *680:197 *2589:A1 0
13 *786:34 *2589:A1 8.29507e-05
14 *786:34 *3024:A1 0.000151862
*RES
1 *3137:Q *861:8 9.988 
2 *861:8 *2589:A1 9.836 
3 *861:8 *3024:A1 11.356 
*END

*D_NET *862 0.00567481
*CONN
*I *2592:A1 I *D gf180mcu_fd_sc_mcu7t5v0__nor2_1
*I *3032:A1 I *D gf180mcu_fd_sc_mcu7t5v0__aoi222_1
*I *3138:Q O *D gf180mcu_fd_sc_mcu7t5v0__dffq_1
*CAP
1 *2592:A1 0.000404676
2 *3032:A1 0.00117485
3 *3138:Q 0
4 *862:4 0.00157953
5 *3032:A1 *2982:B2 6.03838e-05
6 *3032:A1 *3008:B2 8.05328e-06
7 *3032:A1 *3032:B2 0.000156546
8 *2538:A1 *3032:A1 0
9 *2571:A1 *2592:A1 0
10 *2583:A1 *3032:A1 0.00013415
11 *2590:A2 *3032:A1 0.000381775
12 *2590:A3 *3032:A1 0.000184597
13 *2593:A3 *2592:A1 0.000599351
14 *2593:A3 *3032:A1 0
15 *3008:A1 *3032:A1 0.000365942
16 *3008:C1 *3032:A1 4.42752e-05
17 *3139:D *2592:A1 0
18 *3283:I *2592:A1 2.9537e-05
19 *3283:I *3032:A1 2.11054e-05
20 *680:171 *3032:A1 0.00019874
21 *681:6 *2592:A1 0
22 *688:77 *3032:A1 0
23 *776:42 *3032:A1 1.32333e-05
24 *777:48 *3032:A1 6.78843e-05
25 *783:65 *3032:A1 0.000203989
26 *786:34 *3032:A1 3.59404e-05
27 *796:12 *3032:A1 0
28 *852:12 *2592:A1 1.02578e-05
*RES
1 *3138:Q *862:4 4.5 
2 *862:4 *3032:A1 24.292 
3 *862:4 *2592:A1 7.616 
*END

*D_NET *863 0.00365128
*CONN
*I *2595:A1 I *D gf180mcu_fd_sc_mcu7t5v0__nor2_1
*I *3041:A1 I *D gf180mcu_fd_sc_mcu7t5v0__aoi222_1
*I *3139:Q O *D gf180mcu_fd_sc_mcu7t5v0__dffq_1
*CAP
1 *2595:A1 0
2 *3041:A1 0.000278388
3 *3139:Q 0.000168236
4 *863:8 0.000446625
5 *2551:C *3041:A1 8.84331e-05
6 *2566:A2 *3041:A1 0.000361006
7 *2566:A2 *863:8 0.0002221
8 *2590:A3 *863:8 2.57058e-06
9 *3008:C2 *3041:A1 0
10 *3008:C2 *863:8 0
11 *3024:C2 *3041:A1 0.00108652
12 *3032:C2 *3041:A1 0.000500492
13 *3137:CLK *3041:A1 0.000116003
14 *795:12 *3041:A1 0.000380904
*RES
1 *3139:Q *863:8 6.02 
2 *863:8 *3041:A1 18.516 
3 *863:8 *2595:A1 4.5 
*END

*D_NET *864 0.0036099
*CONN
*I *3000:B2 I *D gf180mcu_fd_sc_mcu7t5v0__aoi222_1
*I *2537:A1 I *D gf180mcu_fd_sc_mcu7t5v0__nor2_1
*I *3118:Q O *D gf180mcu_fd_sc_mcu7t5v0__dffq_1
*CAP
1 *3000:B2 0.000678536
2 *2537:A1 0
3 *3118:Q 0.000145677
4 *864:6 0.000824214
5 *2534:A2 *3000:B2 2.09451e-05
6 *2535:A3 *3000:B2 0.000130083
7 *2538:A3 *864:6 0.000169363
8 *2566:A2 *3000:B2 0.000101813
9 *2566:A2 *864:6 1.39031e-05
10 *2589:A2 *864:6 6.05951e-05
11 *2992:A2 *3000:B2 0.000181437
12 *2992:B2 *3000:B2 0.000114204
13 *3000:B1 *3000:B2 8.81341e-06
14 *3016:A1 *3000:B2 0
15 *3016:A2 *3000:B2 0.00019583
16 *3016:B1 *3000:B2 0
17 *736:22 *3000:B2 0
18 *762:14 *3000:B2 0.000365658
19 *762:14 *864:6 8.81341e-06
20 *776:42 *3000:B2 0
21 *777:12 *3000:B2 5.99275e-05
22 *783:39 *3000:B2 0.000512797
23 *859:8 *3000:B2 1.72912e-05
*RES
1 *3118:Q *864:6 5.792 
2 *864:6 *2537:A1 4.5 
3 *864:6 *3000:B2 20.112 
*END

*D_NET *865 0.00415021
*CONN
*I *2540:A1 I *D gf180mcu_fd_sc_mcu7t5v0__nor2_1
*I *3008:B2 I *D gf180mcu_fd_sc_mcu7t5v0__aoi222_1
*I *3119:Q O *D gf180mcu_fd_sc_mcu7t5v0__dffq_1
*CAP
1 *2540:A1 0.000301003
2 *3008:B2 0.000216872
3 *3119:Q 0.000223085
4 *865:8 0.00074096
5 *2540:A1 *3016:B2 9.75269e-05
6 *2540:A2 *2540:A1 2.22657e-05
7 *2671:A2 *2540:A1 0.000159942
8 *2671:A2 *865:8 0
9 *2999:B2 *865:8 0.0011583
10 *3008:A1 *3008:B2 0.000267578
11 *3025:A2 *2540:A1 0.000232753
12 *3032:A1 *3008:B2 8.05328e-06
13 *3033:A2 *2540:A1 0.000121
14 *3033:A2 *3008:B2 0.000140018
15 *680:197 *865:8 0.000161672
16 *786:34 *2540:A1 0.000145718
17 *786:34 *3008:B2 0.000153462
*RES
1 *3119:Q *865:8 12.116 
2 *865:8 *3008:B2 11.204 
3 *865:8 *2540:A1 12.8 
*END

*D_NET *866 0.0119289
*CONN
*I *3016:B2 I *D gf180mcu_fd_sc_mcu7t5v0__aoi222_1
*I *2543:A1 I *D gf180mcu_fd_sc_mcu7t5v0__nor2_1
*I *3120:Q O *D gf180mcu_fd_sc_mcu7t5v0__dffq_1
*CAP
1 *3016:B2 0.00134215
2 *2543:A1 0.000280913
3 *3120:Q 9.82307e-05
4 *866:8 0.00172129
5 *2543:A1 *2991:B2 1.47007e-05
6 *3016:B2 *2991:B2 0.000365205
7 *866:8 *2991:B2 0.000214781
8 *2533:A1 *3016:B2 0.000288923
9 *2535:A3 *3016:B2 0.00060226
10 *2540:A1 *3016:B2 9.75269e-05
11 *2540:A2 *3016:B2 8.55242e-05
12 *2541:A1 *3016:B2 2.22758e-05
13 *2541:A1 *866:8 0.000128363
14 *2541:A2 *2543:A1 0.000505657
15 *2541:A3 *3016:B2 0.00118613
16 *2667:A1 *3016:B2 0.000114063
17 *2668:A1 *3016:B2 0.000946289
18 *2668:A3 *3016:B2 0.000312825
19 *3011:C *3016:B2 0.00101921
20 *3016:A1 *3016:B2 4.1487e-05
21 *3025:A2 *3016:B2 0.000410417
22 *3117:D *3016:B2 0.000248979
23 *3300:I *3016:B2 0.000221781
24 *690:56 *2543:A1 0
25 *756:18 *3016:B2 3.22131e-05
26 *777:48 *3016:B2 0.000273397
27 *785:133 *2543:A1 8.59272e-06
28 *785:133 *3016:B2 0.00131143
29 *786:20 *3016:B2 0
30 *797:25 *2543:A1 0
31 *797:27 *2543:A1 0
32 *824:12 *3016:B2 2.85089e-05
33 *849:16 *2543:A1 0
34 *849:16 *866:8 5.76373e-06
*RES
1 *3120:Q *866:8 5.868 
2 *866:8 *2543:A1 15.552 
3 *866:8 *3016:B2 32.12 
*END

*D_NET *867 0.00690042
*CONN
*I *3024:B2 I *D gf180mcu_fd_sc_mcu7t5v0__aoi222_1
*I *2546:A1 I *D gf180mcu_fd_sc_mcu7t5v0__nor2_1
*I *3121:Q O *D gf180mcu_fd_sc_mcu7t5v0__dffq_1
*CAP
1 *3024:B2 0.00137842
2 *2546:A1 0.000168198
3 *3121:Q 0.0001864
4 *867:8 0.00173302
5 *3024:B2 *2550:A1 0.000134241
6 *3024:B2 *869:10 4.29636e-06
7 *867:8 *871:12 9.74134e-05
8 *2540:A2 *3024:B2 0.000231966
9 *2543:A2 *3024:B2 2.17248e-05
10 *2544:A1 *3024:B2 2.22758e-05
11 *2544:A1 *867:8 4.58601e-06
12 *2544:A2 *867:8 8.27561e-05
13 *2544:A3 *3024:B2 0.000794983
14 *2674:A1 *3024:B2 3.0928e-05
15 *3024:A1 *3024:B2 0.000166035
16 *3025:A2 *3024:B2 0.000289678
17 *3119:CLK *3024:B2 0.00011704
18 *3120:D *3024:B2 0.000110823
19 *341:25 *3024:B2 0.000649459
20 *341:25 *867:8 0
21 *680:197 *3024:B2 1.88812e-05
22 *690:52 *3024:B2 2.22657e-05
23 *756:64 *3024:B2 0
24 *761:39 *3024:B2 7.2627e-05
25 *785:133 *3024:B2 1.56302e-05
26 *786:34 *3024:B2 9.27717e-05
27 *797:10 *2546:A1 0.000396912
28 *797:25 *2546:A1 5.70962e-05
*RES
1 *3121:Q *867:8 6.02 
2 *867:8 *2546:A1 14.944 
3 *867:8 *3024:B2 26.876 
*END

*D_NET *868 0.00488172
*CONN
*I *3032:B2 I *D gf180mcu_fd_sc_mcu7t5v0__aoi222_1
*I *2548:A1 I *D gf180mcu_fd_sc_mcu7t5v0__nor2_1
*I *3122:Q O *D gf180mcu_fd_sc_mcu7t5v0__dffq_1
*CAP
1 *3032:B2 0.000727672
2 *2548:A1 5.10781e-05
3 *3122:Q 0.000186601
4 *868:8 0.000965352
5 *3032:B2 *869:10 2.6897e-05
6 *2548:A2 *2548:A1 1.02578e-05
7 *2548:A2 *868:8 0.000181916
8 *2562:A1 *868:8 1.5015e-05
9 *2590:A3 *3032:B2 0
10 *3008:C2 *3032:B2 0
11 *3008:C2 *868:8 0.000262008
12 *3024:C2 *3032:B2 6.80181e-05
13 *3032:A1 *3032:B2 0.000156546
14 *3032:C2 *3032:B2 0.00131189
15 *3041:C1 *3032:B2 2.96977e-05
16 *776:42 *3032:B2 5.1883e-05
17 *777:48 *3032:B2 0.000317381
18 *795:14 *2548:A1 3.88009e-05
19 *795:14 *3032:B2 0.000126898
20 *861:8 *3032:B2 0.000353805
*RES
1 *3122:Q *868:8 6.78 
2 *868:8 *2548:A1 5.184 
3 *868:8 *3032:B2 20.644 
*END

*D_NET *869 0.0026046
*CONN
*I *2550:A1 I *D gf180mcu_fd_sc_mcu7t5v0__nor2_1
*I *3041:B2 I *D gf180mcu_fd_sc_mcu7t5v0__aoi222_1
*I *3123:Q O *D gf180mcu_fd_sc_mcu7t5v0__dffq_1
*CAP
1 *2550:A1 0.000133291
2 *3041:B2 0.00012493
3 *3123:Q 0.000247293
4 *869:10 0.000505514
5 *2551:B *2550:A1 0.000193942
6 *2589:A1 *869:10 5.40492e-05
7 *3008:C2 *869:10 9.48587e-05
8 *3024:A1 *869:10 4.97236e-05
9 *3024:B2 *2550:A1 0.000134241
10 *3024:B2 *869:10 4.29636e-06
11 *3032:B2 *869:10 2.6897e-05
12 *3041:A2 *2550:A1 0
13 *3041:A2 *3041:B2 0.000203803
14 *3041:B1 *3041:B2 0.000223578
15 *3123:D *3041:B2 7.45328e-07
16 *680:197 *2550:A1 0.000275385
17 *680:197 *869:10 0.000327464
18 *795:8 *3041:B2 4.58601e-06
*RES
1 *3123:Q *869:10 11.432 
2 *869:10 *3041:B2 10.444 
3 *869:10 *2550:A1 10.976 
*END

*D_NET *870 0.0137329
*CONN
*I *2982:B2 I *D gf180mcu_fd_sc_mcu7t5v0__aoi222_1
*I *2553:A1 I *D gf180mcu_fd_sc_mcu7t5v0__nor2_1
*I *3124:Q O *D gf180mcu_fd_sc_mcu7t5v0__dffq_1
*CAP
1 *2982:B2 0.00153126
2 *2553:A1 0.000362997
3 *3124:Q 2.80421e-05
4 *870:8 0.0019223
5 *2536:A1 *2982:B2 8.22031e-06
6 *2549:A1 *2553:A1 0
7 *2549:A1 *870:8 1.15244e-05
8 *2551:A1 *2982:B2 0.00163254
9 *2551:A1 *870:8 2.22657e-05
10 *2551:B *2982:B2 0.000263652
11 *2554:A3 *2553:A1 0.00032464
12 *2560:A1 *2982:B2 3.17618e-05
13 *2560:A3 *2982:B2 0.000356305
14 *2978:A1 *2982:B2 0.000932805
15 *3008:A2 *2982:B2 8.71673e-05
16 *3009:A2 *2982:B2 0.000199393
17 *3025:A2 *2982:B2 3.13571e-05
18 *3032:A1 *2982:B2 6.03838e-05
19 *3041:A2 *2982:B2 9.60518e-06
20 *3123:D *2982:B2 0
21 *3126:CLK *2982:B2 2.17248e-05
22 *3360:I *2982:B2 2.74661e-05
23 *689:35 *2982:B2 0.000202431
24 *761:31 *2982:B2 6.95449e-05
25 *761:54 *2553:A1 9.45347e-06
26 *761:54 *2982:B2 1.86291e-05
27 *761:58 *2553:A1 6.27023e-05
28 *776:22 *2982:B2 3.08902e-05
29 *776:42 *2982:B2 0.00180515
30 *783:20 *2982:B2 0.000369763
31 *783:56 *2982:B2 0.0016388
32 *783:65 *2982:B2 0.000119999
33 *783:67 *2982:B2 2.08713e-05
34 *797:37 *2982:B2 0.000359408
35 *797:46 *2982:B2 0.00115978
*RES
1 *3124:Q *870:8 9.228 
2 *870:8 *2553:A1 11.888 
3 *870:8 *2982:B2 31.192 
*END

*D_NET *871 0.0172501
*CONN
*I *2991:B2 I *D gf180mcu_fd_sc_mcu7t5v0__aoi222_1
*I *2556:A1 I *D gf180mcu_fd_sc_mcu7t5v0__nor2_1
*I *3125:Q O *D gf180mcu_fd_sc_mcu7t5v0__dffq_1
*CAP
1 *2991:B2 0.00210224
2 *2556:A1 0
3 *3125:Q 0.000401053
4 *871:12 0.00250329
5 *2541:A1 *2991:B2 1.15275e-05
6 *2541:A2 *2991:B2 7.2647e-05
7 *2541:A3 *2991:B2 0.000147305
8 *2543:A1 *2991:B2 1.47007e-05
9 *2543:A2 *871:12 0.000135327
10 *2544:A2 *871:12 0.000493315
11 *2545:A2 *871:12 0
12 *2556:A2 *2991:B2 8.95196e-05
13 *2559:A2 *2991:B2 0
14 *2668:A1 *2991:B2 0.000996593
15 *2668:A3 *2991:B2 3.19194e-05
16 *2671:A3 *2991:B2 0.000649902
17 *2986:A2 *2991:B2 0.000108532
18 *2991:B1 *2991:B2 0.000285575
19 *2999:B2 *2991:B2 0
20 *3015:B2 *2991:B2 0.000431526
21 *3016:B2 *2991:B2 0.000365205
22 *3017:A1 *2991:B2 0
23 *3017:A2 *2991:B2 1.54542e-05
24 *3025:A2 *2991:B2 5.68863e-05
25 *3042:A2 *2991:B2 0
26 *3119:D *2991:B2 0.00065471
27 *3274:D *2991:B2 4.6818e-05
28 *3284:I *2991:B2 0
29 *3306:I *2991:B2 0.000307974
30 *3358:I *2991:B2 7.83779e-05
31 *3377:I *2991:B2 8.01821e-05
32 *227:18 *2991:B2 0.000227281
33 *227:26 *2991:B2 0
34 *336:6 *2991:B2 1.5015e-05
35 *336:12 *2991:B2 0.000775018
36 *339:8 *2991:B2 0.000400833
37 *341:25 *871:12 0
38 *735:64 *2991:B2 4.58601e-06
39 *756:8 *2991:B2 2.96621e-05
40 *756:64 *2991:B2 1.86703e-05
41 *765:10 *2991:B2 0.000913542
42 *765:54 *2991:B2 0.001553
43 *774:26 *2991:B2 4.24903e-05
44 *775:20 *2991:B2 0.000600054
45 *785:133 *2991:B2 0.00191915
46 *786:20 *2991:B2 0.000267495
47 *797:72 *2991:B2 1.45682e-05
48 *849:16 *2991:B2 7.60145e-05
49 *866:8 *2991:B2 0.000214781
50 *867:8 *871:12 9.74134e-05
*RES
1 *3125:Q *871:12 16.692 
2 *871:12 *2556:A1 4.5 
3 *871:12 *2991:B2 40.556 
*END

*D_NET *872 0.00596884
*CONN
*I *2929:B I *D gf180mcu_fd_sc_mcu7t5v0__aoi21_1
*I *2823:A1 I *D gf180mcu_fd_sc_mcu7t5v0__nor2_1
*I *2821:A1 I *D gf180mcu_fd_sc_mcu7t5v0__and2_1
*I *2518:B I *D gf180mcu_fd_sc_mcu7t5v0__oai21_1
*I *3229:Q O *D gf180mcu_fd_sc_mcu7t5v0__dffq_1
*CAP
1 *2929:B 8.49327e-05
2 *2823:A1 0.000178798
3 *2821:A1 0
4 *2518:B 1.68226e-05
5 *3229:Q 0.000270115
6 *872:30 0.000389938
7 *872:12 3.05148e-05
8 *872:10 0.000410014
9 *2823:A1 *3031:C2 0
10 *872:30 *3031:C2 0
11 *2498:I *872:10 0.000222333
12 *2518:A1 *2518:B 1.02578e-05
13 *2653:A1 *2823:A1 0.000435272
14 *2653:A1 *2929:B 0.00032464
15 *2823:A2 *2823:A1 2.47642e-05
16 *2823:A2 *872:30 5.43087e-05
17 *2929:A2 *2823:A1 2.77603e-05
18 *2931:A2 *872:30 7.83779e-05
19 *2935:C *872:30 3.84832e-06
20 *3106:A2 *2518:B 2.57058e-06
21 *3106:A2 *872:10 0
22 *3316:I *2929:B 8.55819e-05
23 *200:12 *872:10 0.000460436
24 *218:8 *872:10 0
25 *218:8 *872:30 8.78761e-05
26 *241:27 *2518:B 0.000448201
27 *241:27 *872:12 0.000355531
28 *241:27 *872:30 0.000348384
29 *243:26 *2518:B 0.000386421
30 *243:26 *872:12 0.000379274
31 *243:26 *872:30 0.000547958
32 *334:10 *872:30 0.000215472
33 *334:16 *2929:B 3.08902e-05
34 *334:16 *872:30 1.52691e-05
35 *452:8 *2823:A1 2.11364e-05
36 *469:22 *2823:A1 2.11447e-05
37 *805:49 *872:10 0
*RES
1 *3229:Q *872:10 15.856 
2 *872:10 *872:12 0.988 
3 *872:12 *2518:B 5.64 
4 *872:12 *2821:A1 4.5 
5 *872:10 *872:30 6.78 
6 *872:30 *2823:A1 10.672 
7 *872:30 *2929:B 10.064 
*END

*D_NET *873 0.00888389
*CONN
*I *2491:I I *D gf180mcu_fd_sc_mcu7t5v0__clkinv_1
*I *2825:A2 I *D gf180mcu_fd_sc_mcu7t5v0__oai211_1
*I *2853:A4 I *D gf180mcu_fd_sc_mcu7t5v0__and4_1
*I *2846:A2 I *D gf180mcu_fd_sc_mcu7t5v0__xor2_1
*I *2849:A3 I *D gf180mcu_fd_sc_mcu7t5v0__nand3_1
*I *2845:A2 I *D gf180mcu_fd_sc_mcu7t5v0__nand2_1
*I *3205:Q O *D gf180mcu_fd_sc_mcu7t5v0__dffq_1
*CAP
1 *2491:I 0.000570795
2 *2825:A2 0
3 *2853:A4 0.000186384
4 *2846:A2 0
5 *2849:A3 0
6 *2845:A2 0.000222693
7 *3205:Q 0
8 *873:46 0.000186384
9 *873:26 0.000469872
10 *873:20 0.000660692
11 *873:14 0.000582743
12 *873:6 0.000740024
13 *2845:A2 *2599:A1 0
14 *2845:A2 *2845:A1 0.000491697
15 *2845:A2 *884:32 0.000151957
16 *2845:A2 *889:10 0
17 *2845:A2 *889:19 0
18 *2853:A4 *2602:A1 1.97747e-05
19 *2853:A4 *2853:A2 0.000701541
20 *2853:A4 *2853:A3 5.59457e-05
21 *2853:A4 *889:34 0.000424388
22 *2853:A4 *890:21 4.27813e-05
23 *873:14 *2605:A1 8.84331e-05
24 *873:14 *2825:A1 6.57222e-06
25 *873:20 *2605:A1 0
26 *873:20 *2825:A1 0
27 *873:20 *889:32 8.84331e-05
28 *873:26 *2849:A1 3.95687e-05
29 *873:26 *884:32 0
30 *873:26 *889:19 0.000272143
31 *873:26 *889:32 0.000281037
32 *2599:A2 *873:26 0.000240488
33 *2843:A1 *2491:I 2.25107e-05
34 *2843:A2 *2491:I 0.000379274
35 *2844:A1 *2491:I 7.36325e-05
36 *2844:A2 *2491:I 0
37 *2850:A2 *2845:A2 4.58601e-06
38 *2850:A2 *873:26 0
39 *2855:B2 *2853:A4 0.000751411
40 *3140:CLK *2491:I 6.39906e-05
41 *3205:D *2491:I 4.1381e-05
42 *568:8 *2845:A2 0
43 *692:10 *2853:A4 0.00025232
44 *693:22 *2491:I 7.68666e-06
45 *750:18 *2491:I 0.00043262
46 *750:18 *873:14 0.000159388
47 *758:48 *873:14 2.97354e-06
48 *758:48 *873:20 0.000159116
49 *758:48 *873:26 8.64766e-06
*RES
1 *3205:Q *873:6 9 
2 *873:6 *873:14 6.4 
3 *873:14 *873:20 7.388 
4 *873:20 *873:26 6.932 
5 *873:26 *2845:A2 15.476 
6 *873:26 *2849:A3 4.5 
7 *873:20 *873:46 4.5 
8 *873:46 *2846:A2 4.5 
9 *873:46 *2853:A4 17.376 
10 *873:14 *2825:A2 4.5 
11 *873:6 *2491:I 14.32 
*END

*D_NET *874 0.00479722
*CONN
*I *2488:I I *D gf180mcu_fd_sc_mcu7t5v0__clkinv_1
*I *2883:A1 I *D gf180mcu_fd_sc_mcu7t5v0__and4_1
*I *2887:A2 I *D gf180mcu_fd_sc_mcu7t5v0__nand4_1
*I *2885:A1 I *D gf180mcu_fd_sc_mcu7t5v0__aoi21_1
*I *2828:B I *D gf180mcu_fd_sc_mcu7t5v0__oai211_1
*I *3215:Q O *D gf180mcu_fd_sc_mcu7t5v0__dffq_1
*CAP
1 *2488:I 0.000137005
2 *2883:A1 0
3 *2887:A2 9.07373e-05
4 *2885:A1 0
5 *2828:B 8.57109e-05
6 *3215:Q 0.000112029
7 *874:31 0.000280937
8 *874:25 0.000351042
9 *874:21 0.000373138
10 *874:10 0.000273029
11 *2488:I *896:59 2.19175e-05
12 *2828:B *2615:A1 0
13 *2887:A2 *2626:A1 0
14 *2887:A2 *2887:A1 3.92048e-05
15 *2887:A2 *896:14 1.5015e-05
16 *2887:A2 *896:20 3.2657e-05
17 *874:10 *2618:A1 5.07376e-05
18 *874:10 *894:40 0
19 *874:21 *2618:A1 3.94802e-05
20 *874:25 *896:59 0.000989164
21 *874:31 *2887:A4 0.000117634
22 *874:31 *895:44 0.000135941
23 *874:31 *896:20 2.90023e-05
24 *874:31 *896:26 1.28891e-05
25 *2832:A2 *2488:I 0.000116786
26 *2832:A2 *874:21 1.12495e-05
27 *2843:B *2828:B 0.000310443
28 *2843:B *874:10 2.15263e-05
29 *2843:B *874:25 0.000346834
30 *2884:A1 *2887:A2 6.73926e-05
31 *2886:A1 *2488:I 0.000189264
32 *2888:A1 *874:31 9.45347e-06
33 *3295:I *2887:A2 4.58601e-06
34 *502:8 *874:31 0.000267578
35 *694:47 *2488:I 9.94174e-05
36 *694:47 *874:10 3.93381e-05
37 *694:47 *874:21 6.48268e-05
38 *751:107 *2887:A2 6.12591e-05
39 *788:34 *874:10 0
*RES
1 *3215:Q *874:10 9.912 
2 *874:10 *2828:B 9.836 
3 *874:10 *874:21 0.684 
4 *874:21 *874:25 7.16 
5 *874:25 *874:31 10.9 
6 *874:31 *2885:A1 4.5 
7 *874:31 *2887:A2 5.336 
8 *874:25 *2883:A1 4.5 
9 *874:21 *2488:I 10.52 
*END

*D_NET *875 0.00924868
*CONN
*I *2824:A2 I *D gf180mcu_fd_sc_mcu7t5v0__nor2_1
*I *2891:A1 I *D gf180mcu_fd_sc_mcu7t5v0__oai21_1
*I *2890:A1 I *D gf180mcu_fd_sc_mcu7t5v0__aoi22_1
*I *2626:A1 I *D gf180mcu_fd_sc_mcu7t5v0__nor2_1
*I *2887:A1 I *D gf180mcu_fd_sc_mcu7t5v0__nand4_1
*I *2897:A3 I *D gf180mcu_fd_sc_mcu7t5v0__and4_1
*I *3216:Q O *D gf180mcu_fd_sc_mcu7t5v0__dffq_1
*CAP
1 *2824:A2 0.000401233
2 *2891:A1 0.000123372
3 *2890:A1 0
4 *2626:A1 0.000541921
5 *2887:A1 0.00015464
6 *2897:A3 4.95484e-05
7 *3216:Q 0.00015768
8 *875:51 0.000207894
9 *875:21 0.000907359
10 *875:19 0.000529499
11 *875:17 0.000635411
12 *875:8 0.000207228
13 *2626:A1 *2621:A1 1.69416e-05
14 *2824:A2 *2487:I 7.94034e-05
15 *2824:A2 *2894:A1 0.000346029
16 *2824:A2 *2897:A1 3.83879e-05
17 *2824:A2 *2899:A1 6.7497e-05
18 *2824:A2 *876:27 0
19 *2824:A2 *877:31 4.33001e-05
20 *2887:A1 *896:14 8.02751e-06
21 *2897:A3 *876:25 0.000196402
22 *2897:A3 *876:27 3.08902e-05
23 *875:8 *876:25 6.69311e-05
24 *875:19 *2897:A1 3.27593e-05
25 *2884:A1 *2626:A1 7.50749e-05
26 *2885:B *2626:A1 9.60894e-06
27 *2887:A2 *2626:A1 0
28 *2887:A2 *2887:A1 3.92048e-05
29 *2888:A1 *2887:A1 0.000177838
30 *2888:A1 *875:21 1.11891e-05
31 *2890:A2 *2891:A1 3.08902e-05
32 *2890:A2 *875:51 0.000194469
33 *2890:B1 *875:51 2.74753e-05
34 *2891:A2 *2891:A1 0.00012233
35 *2891:A2 *875:51 0.00035097
36 *2892:A1 *2891:A1 0
37 *2892:A1 *875:51 0.000548938
38 *2892:A2 *2891:A1 0.000238794
39 *2894:B1 *2824:A2 1.11891e-05
40 *2894:B2 *2824:A2 0.000146817
41 *2894:B2 *875:19 0.000199471
42 *2897:A4 *2824:A2 2.22758e-05
43 *2897:A4 *875:19 0.000139026
44 *2900:B *2824:A2 0.000261262
45 *3216:CLK *2626:A1 8.89956e-05
46 *3216:CLK *2887:A1 0
47 *502:8 *2887:A1 6.84221e-05
48 *502:8 *875:21 1.14482e-05
49 *502:17 *875:19 8.03759e-06
50 *502:17 *875:21 0.000137555
51 *694:39 *2626:A1 0.00030067
52 *694:89 *2626:A1 0.000706866
53 *694:95 *2626:A1 8.7332e-05
54 *751:101 *2824:A2 0.000161051
55 *751:101 *2897:A3 6.66825e-06
56 *751:101 *875:8 4.78015e-05
57 *752:10 *875:19 7.06588e-05
58 *752:10 *875:21 2.00064e-05
59 *752:12 *875:21 8.39858e-05
*RES
1 *3216:Q *875:8 5.564 
2 *875:8 *2897:A3 5.032 
3 *875:8 *875:17 4.5 
4 *875:17 *875:19 2.356 
5 *875:19 *875:21 1.9 
6 *875:21 *2887:A1 10.368 
7 *875:21 *2626:A1 13.864 
8 *875:19 *875:51 6.4 
9 *875:51 *2890:A1 4.5 
10 *875:51 *2891:A1 6.096 
11 *875:17 *2824:A2 13.028 
*END

*D_NET *876 0.00874299
*CONN
*I *2897:A2 I *D gf180mcu_fd_sc_mcu7t5v0__and4_1
*I *2894:A1 I *D gf180mcu_fd_sc_mcu7t5v0__aoi22_1
*I *2893:A1 I *D gf180mcu_fd_sc_mcu7t5v0__nand2_1
*I *2824:A1 I *D gf180mcu_fd_sc_mcu7t5v0__nor2_1
*I *2629:A1 I *D gf180mcu_fd_sc_mcu7t5v0__nor2_1
*I *2895:A1 I *D gf180mcu_fd_sc_mcu7t5v0__oai21_1
*I *3217:Q O *D gf180mcu_fd_sc_mcu7t5v0__dffq_1
*CAP
1 *2897:A2 0
2 *2894:A1 0.000235204
3 *2893:A1 0.00015261
4 *2824:A1 0.000167953
5 *2629:A1 0.000268734
6 *2895:A1 4.133e-05
7 *3217:Q 0.000316631
8 *876:31 0.000507461
9 *876:29 0.000373932
10 *876:27 0.000461995
11 *876:25 0.000756467
12 *876:10 0.00103819
13 *2629:A1 *2487:I 3.83835e-06
14 *2894:A1 *2899:A1 3.37485e-05
15 *2894:A1 *877:10 7.54503e-05
16 *876:27 *877:31 1.4689e-05
17 *876:29 *2487:I 2.80457e-05
18 *876:29 *877:31 3.95687e-05
19 *876:31 *2487:I 5.09383e-06
20 *2633:A1 *2629:A1 4.45507e-05
21 *2824:A2 *2894:A1 0.000346029
22 *2824:A2 *876:27 0
23 *2891:B *876:10 0
24 *2893:A2 *876:25 0
25 *2894:A2 *2894:A1 2.80879e-05
26 *2894:B2 *876:25 1.59321e-05
27 *2894:B2 *876:27 1.17762e-05
28 *2894:B2 *876:29 1.985e-05
29 *2895:A2 *2895:A1 1.76898e-05
30 *2895:A2 *876:10 1.42069e-05
31 *2895:A2 *876:25 0
32 *2895:B *2895:A1 2.22758e-05
33 *2895:B *876:25 7.83779e-05
34 *2896:A2 *2895:A1 2.6126e-05
35 *2896:A2 *876:25 6.47067e-05
36 *2897:A3 *876:25 0.000196402
37 *2897:A3 *876:27 3.08902e-05
38 *2897:A4 *2894:A1 0.000333388
39 *2900:A1 *2629:A1 0.000246299
40 *2900:A2 *2629:A1 2.98136e-05
41 *2900:A2 *876:29 1.26804e-05
42 *2900:A2 *876:31 0.000211959
43 *2900:B *2894:A1 8.55327e-05
44 *3153:CLK *2629:A1 0
45 *3218:D *876:29 2.01323e-05
46 *3218:D *876:31 3.61457e-05
47 *3218:CLK *2893:A1 0.000115731
48 *3297:I *876:25 7.71175e-06
49 *471:24 *2824:A1 0.000169698
50 *471:24 *2893:A1 0.000479093
51 *513:8 *2894:A1 6.31034e-05
52 *751:89 *2894:A1 0.000113199
53 *751:101 *2894:A1 2.59105e-05
54 *751:101 *876:25 0
55 *752:10 *876:25 1.33647e-05
56 *788:20 *2824:A1 0.000176172
57 *788:30 *2824:A1 0.000254666
58 *789:24 *876:25 8.15645e-05
59 *789:26 *876:10 0.000578344
60 *789:26 *876:25 0.00018371
61 *875:8 *876:25 6.69311e-05
*RES
1 *3217:Q *876:10 11.28 
2 *876:10 *2895:A1 9.38 
3 *876:10 *876:25 9.212 
4 *876:25 *876:27 0.532 
5 *876:27 *876:29 1.14 
6 *876:29 *876:31 0.684 
7 *876:31 *2629:A1 6.552 
8 *876:31 *2824:A1 15.248 
9 *876:29 *2893:A1 14.792 
10 *876:27 *2894:A1 16.312 
11 *876:25 *2897:A2 4.5 
*END

*D_NET *877 0.00485883
*CONN
*I *2831:A3 I *D gf180mcu_fd_sc_mcu7t5v0__nand4_1
*I *2899:A1 I *D gf180mcu_fd_sc_mcu7t5v0__aoi22_1
*I *2897:A1 I *D gf180mcu_fd_sc_mcu7t5v0__and4_1
*I *2487:I I *D gf180mcu_fd_sc_mcu7t5v0__clkinv_1
*I *3218:Q O *D gf180mcu_fd_sc_mcu7t5v0__dffq_1
*CAP
1 *2831:A3 0.000325067
2 *2899:A1 6.79652e-05
3 *2897:A1 3.54936e-05
4 *2487:I 0.000386853
5 *3218:Q 0
6 *877:31 0.00024587
7 *877:10 0.000871272
8 *877:6 0.000667075
9 *2831:A3 *2634:A1 9.88736e-06
10 *2831:A3 *2637:A1 0
11 *2831:A3 *2831:A1 5.77604e-05
12 *2831:A3 *878:48 0.000164057
13 *2629:A1 *2487:I 3.83835e-06
14 *2824:A2 *2487:I 7.94034e-05
15 *2824:A2 *2897:A1 3.83879e-05
16 *2824:A2 *2899:A1 6.7497e-05
17 *2824:A2 *877:31 4.33001e-05
18 *2832:A2 *2487:I 0
19 *2894:A1 *2899:A1 3.37485e-05
20 *2894:A1 *877:10 7.54503e-05
21 *2894:B1 *2899:A1 6.57222e-06
22 *2897:A4 *2897:A1 0.00033338
23 *2897:A4 *2899:A1 2.23783e-05
24 *2897:A4 *877:31 7.83779e-05
25 *2900:A1 *2487:I 6.46566e-05
26 *2900:B *2487:I 2.23843e-05
27 *2906:A2 *2831:A3 1.52691e-05
28 *3218:D *2487:I 0.000215428
29 *3275:I *2831:A3 0
30 *471:24 *2831:A3 4.23617e-05
31 *471:24 *877:10 0.000167195
32 *513:8 *2899:A1 0.00026757
33 *513:8 *877:10 5.62195e-05
34 *513:17 *2831:A3 4.08161e-05
35 *513:17 *877:10 1.78413e-05
36 *751:83 *2899:A1 1.12495e-05
37 *751:101 *2899:A1 0.000204046
38 *875:19 *2897:A1 3.27593e-05
39 *876:27 *877:31 1.4689e-05
40 *876:29 *2487:I 2.80457e-05
41 *876:29 *877:31 3.95687e-05
42 *876:31 *2487:I 5.09383e-06
*RES
1 *3218:Q *877:6 9 
2 *877:6 *877:10 7.312 
3 *877:10 *2487:I 7.54 
4 *877:10 *877:31 5.488 
5 *877:31 *2897:A1 9.836 
6 *877:31 *2899:A1 10.368 
7 *877:6 *2831:A3 11.432 
*END

*D_NET *878 0.00874031
*CONN
*I *2910:A3 I *D gf180mcu_fd_sc_mcu7t5v0__and4_1
*I *2901:A1 I *D gf180mcu_fd_sc_mcu7t5v0__and2_1
*I *2831:A2 I *D gf180mcu_fd_sc_mcu7t5v0__nand4_1
*I *2634:A1 I *D gf180mcu_fd_sc_mcu7t5v0__nor2_1
*I *2904:A1 I *D gf180mcu_fd_sc_mcu7t5v0__oai21_1
*I *2903:A1 I *D gf180mcu_fd_sc_mcu7t5v0__aoi22_1
*I *3219:Q O *D gf180mcu_fd_sc_mcu7t5v0__dffq_1
*CAP
1 *2910:A3 4.94098e-05
2 *2901:A1 0
3 *2831:A2 0
4 *2634:A1 0.000437287
5 *2904:A1 0.000224676
6 *2903:A1 0
7 *3219:Q 0.000136903
8 *878:48 0.000808738
9 *878:42 0.000618905
10 *878:14 0.000266177
11 *878:12 0.000357474
12 *878:10 0.000254833
13 *2634:A1 *2637:A1 0
14 *2634:A1 *2831:A1 3.5548e-05
15 *2910:A3 *2910:A2 9.26705e-05
16 *2910:A3 *879:27 3.2154e-05
17 *878:48 *2831:A1 5.43387e-05
18 *878:48 *879:37 0.00014967
19 *2636:A2 *2634:A1 7.50749e-05
20 *2831:A3 *2634:A1 9.88736e-06
21 *2831:A3 *878:48 0.000164057
22 *2904:A2 *2904:A1 0.00108498
23 *2906:A2 *878:48 1.71121e-05
24 *2907:A2 *2910:A3 3.2657e-05
25 *2907:A2 *878:10 7.82111e-05
26 *2907:A2 *878:12 6.22815e-05
27 *2908:A2 *2904:A1 0.000722851
28 *2909:A2 *878:10 1.02578e-05
29 *2910:A4 *878:12 9.98921e-06
30 *2910:A4 *878:48 0.000110145
31 *2913:B *878:10 5.71374e-05
32 *3221:CLK *2910:A3 0.000308746
33 *3221:CLK *878:10 0.000191702
34 *513:17 *878:48 0.000151957
35 *513:32 *878:48 0.000372003
36 *516:10 *2904:A1 0.000486169
37 *685:59 *2904:A1 0
38 *685:59 *878:14 0
39 *751:75 *878:12 4.76572e-05
40 *751:75 *878:14 0.000113147
41 *753:31 *878:10 0
42 *753:37 *878:10 0.000199473
43 *753:37 *878:12 0.000326528
44 *753:43 *2904:A1 3.83477e-05
45 *753:43 *878:12 0.000115684
46 *753:43 *878:14 0.000317544
47 *753:54 *2904:A1 4.77227e-05
48 *758:8 *2634:A1 7.02034e-05
*RES
1 *3219:Q *878:10 10.672 
2 *878:10 *878:12 1.14 
3 *878:12 *878:14 0.836 
4 *878:14 *2903:A1 9 
5 *878:14 *2904:A1 13.104 
6 *878:12 *878:42 10.14 
7 *878:42 *878:48 7.844 
8 *878:48 *2634:A1 7.388 
9 *878:48 *2831:A2 4.5 
10 *878:42 *2901:A1 9 
11 *878:10 *2910:A3 9.836 
*END

*D_NET *879 0.00730658
*CONN
*I *2907:A1 I *D gf180mcu_fd_sc_mcu7t5v0__aoi22_1
*I *2910:A2 I *D gf180mcu_fd_sc_mcu7t5v0__and4_1
*I *2906:A1 I *D gf180mcu_fd_sc_mcu7t5v0__nand2_1
*I *2637:A1 I *D gf180mcu_fd_sc_mcu7t5v0__nor2_1
*I *2831:A1 I *D gf180mcu_fd_sc_mcu7t5v0__nand4_1
*I *2908:A1 I *D gf180mcu_fd_sc_mcu7t5v0__oai21_1
*I *3220:Q O *D gf180mcu_fd_sc_mcu7t5v0__dffq_1
*CAP
1 *2907:A1 0
2 *2910:A2 4.28459e-05
3 *2906:A1 0
4 *2637:A1 0.000362709
5 *2831:A1 0.000263407
6 *2908:A1 0.000160443
7 *3220:Q 0.000150657
8 *879:52 0.000391493
9 *879:37 0.000613448
10 *879:27 0.000458269
11 *879:25 0.000393092
12 *879:10 0.000610026
13 *2910:A2 *2910:A1 3.07734e-05
14 *879:37 *2910:A1 8.55242e-05
15 *2634:A1 *2637:A1 0
16 *2634:A1 *2831:A1 3.5548e-05
17 *2831:A3 *2637:A1 0
18 *2831:A3 *2831:A1 5.77604e-05
19 *2832:A1 *2831:A1 0
20 *2904:A2 *879:10 5.97012e-05
21 *2904:B *2908:A1 2.33043e-05
22 *2905:A1 *879:10 0.000315078
23 *2907:A2 *879:27 8.69929e-05
24 *2907:B2 *879:27 1.07039e-05
25 *2908:A2 *2908:A1 1.12256e-05
26 *2908:B *2908:A1 2.68618e-05
27 *2909:A1 *879:25 0.000431543
28 *2910:A3 *2910:A2 9.26705e-05
29 *2910:A3 *879:27 3.2154e-05
30 *2910:A4 *879:37 0.000118153
31 *2913:A2 *879:37 4.72461e-05
32 *2913:A2 *879:52 9.50723e-06
33 *3221:CLK *879:27 2.9378e-06
34 *3221:CLK *879:37 5.09739e-06
35 *3275:I *2637:A1 0.000415258
36 *3275:I *879:27 1.76272e-05
37 *3275:I *879:37 9.48587e-05
38 *3297:I *879:10 7.11539e-05
39 *3297:I *879:25 4.02664e-05
40 *10:16 *2908:A1 5.97012e-05
41 *10:16 *879:10 0.000228407
42 *10:16 *879:25 3.23343e-05
43 *471:24 *2831:A1 0.000588402
44 *471:24 *879:52 0.000110826
45 *685:46 *879:25 3.9695e-05
46 *751:75 *879:25 1.97747e-05
47 *751:75 *879:27 9.88736e-06
48 *753:43 *879:27 4.94368e-05
49 *758:8 *2637:A1 6.44359e-05
50 *789:18 *2908:A1 9.935e-05
51 *789:18 *879:25 0.000207404
52 *789:22 *879:10 8.64281e-06
53 *789:22 *879:25 1.59363e-05
54 *878:48 *2831:A1 5.43387e-05
55 *878:48 *879:37 0.00014967
*RES
1 *3220:Q *879:10 10.976 
2 *879:10 *2908:A1 10.292 
3 *879:10 *879:25 7.236 
4 *879:25 *879:27 0.836 
5 *879:27 *879:37 7.388 
6 *879:37 *2831:A1 11.28 
7 *879:37 *879:52 4.88 
8 *879:52 *2637:A1 7.388 
9 *879:52 *2906:A1 4.5 
10 *879:27 *2910:A2 5.108 
11 *879:25 *2907:A1 4.5 
*END

*D_NET *880 0.00575413
*CONN
*I *2834:A2 I *D gf180mcu_fd_sc_mcu7t5v0__aoi21_1
*I *2912:A1 I *D gf180mcu_fd_sc_mcu7t5v0__aoi22_1
*I *2910:A1 I *D gf180mcu_fd_sc_mcu7t5v0__and4_1
*I *2486:I I *D gf180mcu_fd_sc_mcu7t5v0__clkinv_1
*I *2830:A2 I *D gf180mcu_fd_sc_mcu7t5v0__nor3_1
*I *3221:Q O *D gf180mcu_fd_sc_mcu7t5v0__dffq_1
*CAP
1 *2834:A2 0.000203538
2 *2912:A1 0.000159253
3 *2910:A1 0.000222598
4 *2486:I 0
5 *2830:A2 3.18352e-05
6 *3221:Q 0.000192067
7 *880:32 0.000751395
8 *880:21 0.000409844
9 *880:17 0.000243838
10 *880:8 0.000223902
11 *2834:A2 *881:49 8.33879e-05
12 *2834:A2 *882:25 5.60696e-05
13 *880:21 *2642:A1 0
14 *880:21 *882:25 3.74447e-05
15 *2831:A4 *880:21 0.000506345
16 *2836:C *2834:A2 0.000293456
17 *2836:C *880:21 0.000673596
18 *2907:A2 *2910:A1 5.89191e-05
19 *2910:A2 *2910:A1 3.07734e-05
20 *2910:A4 *2910:A1 0.000213194
21 *2912:A2 *2912:A1 8.04285e-05
22 *2912:B2 *2912:A1 2.9688e-05
23 *2913:A2 *2910:A1 2.97354e-06
24 *2913:B *2912:A1 1.03353e-05
25 *2913:B *880:32 4.13778e-05
26 *3221:CLK *2910:A1 2.72396e-05
27 *3365:I *2834:A2 0.000481175
28 *3374:I *2830:A2 1.55387e-05
29 *3374:I *880:8 0.000409789
30 *523:10 *880:32 1.11891e-05
31 *751:14 *2910:A1 1.31444e-05
32 *751:14 *2912:A1 1.43513e-05
33 *751:14 *880:32 2.45866e-05
34 *788:12 *2910:A1 2.77603e-05
35 *788:12 *880:32 8.75775e-05
36 *879:37 *2910:A1 8.55242e-05
*RES
1 *3221:Q *880:8 6.02 
2 *880:8 *2830:A2 4.728 
3 *880:8 *880:17 4.5 
4 *880:17 *880:21 6.248 
5 *880:21 *2486:I 4.5 
6 *880:21 *880:32 6.78 
7 *880:32 *2910:A1 10.9 
8 *880:32 *2912:A1 10.064 
9 *880:17 *2834:A2 11.128 
*END

*D_NET *881 0.00697396
*CONN
*I *2914:A1 I *D gf180mcu_fd_sc_mcu7t5v0__nand2_1
*I *2916:A1 I *D gf180mcu_fd_sc_mcu7t5v0__oai21_1
*I *2918:A2 I *D gf180mcu_fd_sc_mcu7t5v0__nand3_1
*I *2834:A1 I *D gf180mcu_fd_sc_mcu7t5v0__aoi21_1
*I *2829:A2 I *D gf180mcu_fd_sc_mcu7t5v0__nand2_1
*I *2642:A1 I *D gf180mcu_fd_sc_mcu7t5v0__nor2_1
*I *2915:A1 I *D gf180mcu_fd_sc_mcu7t5v0__aoi22_1
*I *3222:Q O *D gf180mcu_fd_sc_mcu7t5v0__dffq_1
*CAP
1 *2914:A1 0
2 *2916:A1 0
3 *2918:A2 3.28034e-05
4 *2834:A1 0
5 *2829:A2 0
6 *2642:A1 0.000375665
7 *2915:A1 0.000198589
8 *3222:Q 0.000433051
9 *881:53 0.000460902
10 *881:49 0.000406771
11 *881:45 0.000592887
12 *881:37 0.000287004
13 *881:16 0.000278773
14 *881:12 0.00046478
15 *2642:A1 *2645:A1 0.000141888
16 *2642:A1 *2648:A1 3.84832e-06
17 *2642:A1 *882:25 5.40492e-05
18 *2642:A1 *883:20 4.07337e-05
19 *2918:A2 *882:12 0
20 *881:45 *882:8 1.95729e-05
21 *881:49 *2834:B 0.000316796
22 *881:49 *882:8 0.00011528
23 *881:49 *882:12 0.000507921
24 *881:53 *882:25 6.50175e-05
25 *881:53 *883:20 0.000162918
26 *2648:A2 *2642:A1 3.81953e-05
27 *2831:A4 *2642:A1 0
28 *2834:A2 *881:49 8.33879e-05
29 *2835:I *881:49 1.72912e-05
30 *2912:B2 *881:12 0
31 *2914:A2 *881:12 3.08902e-05
32 *2915:B1 *2915:A1 1.97747e-05
33 *2915:B2 *2915:A1 3.75402e-05
34 *2915:B2 *881:37 2.22657e-05
35 *2915:B2 *881:45 1.93526e-05
36 *2916:A2 *881:16 0.00026757
37 *2917:A1 *2915:A1 7.83779e-05
38 *2917:A2 *881:12 0.000210538
39 *2917:A2 *881:16 0.000102192
40 *2917:A2 *881:37 4.78829e-05
41 *2922:A1 *881:12 0.000134988
42 *2922:A2 *881:12 4.73774e-05
43 *3154:CLK *2642:A1 0
44 *3365:I *881:45 5.77568e-05
45 *3365:I *881:49 9.79497e-05
46 *3374:I *2915:A1 0.000174379
47 *3374:I *881:12 4.2048e-05
48 *3374:I *881:37 9.17202e-06
49 *3374:I *881:45 1.93852e-05
50 *526:10 *881:37 5.26649e-05
51 *753:31 *881:12 0
52 *753:31 *881:16 3.50929e-06
53 *753:31 *881:37 3.50638e-06
54 *759:64 *2642:A1 2.0537e-05
55 *759:66 *2642:A1 4.03922e-06
56 *759:88 *2642:A1 0.000372137
57 *880:21 *2642:A1 0
*RES
1 *3222:Q *881:12 7.844 
2 *881:12 *881:16 5.184 
3 *881:16 *2915:A1 10.672 
4 *881:16 *881:37 5.108 
5 *881:37 *881:45 1.52 
6 *881:45 *881:49 3.496 
7 *881:49 *881:53 5.488 
8 *881:53 *2642:A1 12.192 
9 *881:53 *2829:A2 9 
10 *881:49 *2834:A1 4.5 
11 *881:45 *2918:A2 4.728 
12 *881:37 *2916:A1 4.5 
13 *881:12 *2914:A1 4.5 
*END

*D_NET *882 0.00894445
*CONN
*I *2921:A1 I *D gf180mcu_fd_sc_mcu7t5v0__oai21_1
*I *2918:A1 I *D gf180mcu_fd_sc_mcu7t5v0__nand3_1
*I *2923:A1 I *D gf180mcu_fd_sc_mcu7t5v0__aoi21_1
*I *2830:A1 I *D gf180mcu_fd_sc_mcu7t5v0__nor3_1
*I *2645:A1 I *D gf180mcu_fd_sc_mcu7t5v0__nor2_1
*I *2834:B I *D gf180mcu_fd_sc_mcu7t5v0__aoi21_1
*I *3223:Q O *D gf180mcu_fd_sc_mcu7t5v0__dffq_1
*CAP
1 *2921:A1 0.000372514
2 *2918:A1 0
3 *2923:A1 0.000226403
4 *2830:A1 0
5 *2645:A1 0.000226397
6 *2834:B 6.76321e-05
7 *3223:Q 0
8 *882:25 0.000464454
9 *882:12 0.000481325
10 *882:8 0.000510678
11 *882:6 0.00018159
12 *882:4 0.000445465
13 *2645:A1 *2648:A1 5.48085e-05
14 *882:25 *883:20 0
15 *2642:A1 *2645:A1 0.000141888
16 *2642:A1 *882:25 5.40492e-05
17 *2648:A2 *2645:A1 0
18 *2830:A3 *2645:A1 4.56408e-05
19 *2834:A2 *882:25 5.60696e-05
20 *2836:C *2923:A1 1.22507e-05
21 *2836:C *882:25 4.6268e-05
22 *2916:B *2921:A1 0.000213388
23 *2916:B *882:6 0.000424388
24 *2918:A2 *882:12 0
25 *2919:A2 *2921:A1 0.000847051
26 *2919:A2 *882:6 0.000645978
27 *2919:A2 *882:8 3.08902e-05
28 *2920:A2 *882:8 0.000194624
29 *2922:A2 *2921:A1 0.000741473
30 *2924:A2 *2921:A1 3.19219e-05
31 *3365:I *2921:A1 0.000261833
32 *3365:I *882:6 6.69004e-05
33 *3365:I *882:8 9.88736e-06
34 *3374:I *2645:A1 3.26639e-05
35 *471:20 *2923:A1 2.28332e-05
36 *471:24 *2923:A1 5.49957e-05
37 *753:21 *2834:B 3.96961e-05
38 *753:21 *882:8 2.11901e-05
39 *753:21 *882:12 5.94256e-05
40 *788:12 *2923:A1 0.000795849
41 *880:21 *882:25 3.74447e-05
42 *881:45 *882:8 1.95729e-05
43 *881:49 *2834:B 0.000316796
44 *881:49 *882:8 0.00011528
45 *881:49 *882:12 0.000507921
46 *881:53 *882:25 6.50175e-05
*RES
1 *3223:Q *882:4 4.5 
2 *882:4 *882:6 1.748 
3 *882:6 *882:8 1.444 
4 *882:8 *882:12 1.824 
5 *882:12 *2834:B 5.336 
6 *882:12 *882:25 10.9 
7 *882:25 *2645:A1 6.324 
8 *882:25 *2830:A1 4.5 
9 *882:8 *2923:A1 15.552 
10 *882:6 *2918:A1 4.5 
11 *882:4 *2921:A1 17.908 
*END

*D_NET *883 0.00681012
*CONN
*I *2924:A1 I *D gf180mcu_fd_sc_mcu7t5v0__aoi211_1
*I *2923:B I *D gf180mcu_fd_sc_mcu7t5v0__aoi21_1
*I *2836:A1 I *D gf180mcu_fd_sc_mcu7t5v0__aoi211_1
*I *2829:A1 I *D gf180mcu_fd_sc_mcu7t5v0__nand2_1
*I *2648:A1 I *D gf180mcu_fd_sc_mcu7t5v0__nor2_1
*I *3224:Q O *D gf180mcu_fd_sc_mcu7t5v0__dffq_1
*CAP
1 *2924:A1 0.000276328
2 *2923:B 7.39965e-05
3 *2836:A1 0
4 *2829:A1 0
5 *2648:A1 0.000140901
6 *3224:Q 0
7 *883:41 0.000571624
8 *883:20 0.000459609
9 *883:12 0.000571997
10 *883:4 0.000474589
11 *2642:A1 *2648:A1 3.84832e-06
12 *2642:A1 *883:20 4.07337e-05
13 *2645:A1 *2648:A1 5.48085e-05
14 *2647:A2 *2648:A1 0.000618391
15 *2920:A1 *883:12 7.88136e-05
16 *2921:A2 *883:12 1.56182e-05
17 *2923:A2 *883:12 7.64163e-06
18 *2924:B *2923:B 8.80064e-05
19 *2924:B *2924:A1 0
20 *2924:B *883:41 0
21 *2924:C *2924:A1 8.59103e-05
22 *3224:D *2924:A1 0.00011955
23 *3297:I *883:12 8.06718e-06
24 *3374:I *2648:A1 0.000460831
25 *469:32 *2923:B 0.000369754
26 *469:32 *2924:A1 1.01183e-05
27 *469:47 *2924:A1 0
28 *471:20 *883:12 0.000655294
29 *471:20 *883:20 0.000147313
30 *531:6 *883:12 2.22566e-05
31 *753:21 *883:12 0.000707085
32 *753:21 *883:20 0.000147313
33 *759:64 *883:20 0.000230101
34 *759:88 *2648:A1 3.6994e-05
35 *788:12 *2924:A1 5.72168e-05
36 *788:12 *883:41 0.000112488
37 *881:53 *883:20 0.000162918
38 *882:25 *883:20 0
*RES
1 *3224:Q *883:4 4.5 
2 *883:4 *883:12 3.648 
3 *883:12 *883:20 11.888 
4 *883:20 *2648:A1 7.16 
5 *883:20 *2829:A1 4.5 
6 *883:12 *2836:A1 4.5 
7 *883:4 *883:41 6.096 
8 *883:41 *2923:B 9.988 
9 *883:41 *2924:A1 11.28 
*END

*D_NET *884 0.00903338
*CONN
*I *2853:A3 I *D gf180mcu_fd_sc_mcu7t5v0__and4_1
*I *2847:A1 I *D gf180mcu_fd_sc_mcu7t5v0__aoi22_1
*I *2825:A1 I *D gf180mcu_fd_sc_mcu7t5v0__oai211_1
*I *2846:A1 I *D gf180mcu_fd_sc_mcu7t5v0__xor2_1
*I *2849:A2 I *D gf180mcu_fd_sc_mcu7t5v0__nand3_1
*I *2599:A1 I *D gf180mcu_fd_sc_mcu7t5v0__nor2_1
*I *2845:A1 I *D gf180mcu_fd_sc_mcu7t5v0__nand2_1
*I *3206:Q O *D gf180mcu_fd_sc_mcu7t5v0__dffq_1
*CAP
1 *2853:A3 0.000196351
2 *2847:A1 0.000146826
3 *2825:A1 0.000195933
4 *2846:A1 0
5 *2849:A2 0
6 *2599:A1 0.000101982
7 *2845:A1 0.000129848
8 *3206:Q 0.000133435
9 *884:77 0.000445796
10 *884:32 0.000295639
11 *884:28 0.000172517
12 *884:18 0.000128675
13 *884:14 0.000494631
14 *884:10 0.000514784
15 *2825:A1 *2605:A1 0.000127047
16 *2825:A1 *889:32 1.40284e-05
17 *2825:A1 *890:14 0.000623573
18 *2853:A3 *2853:A1 3.89656e-05
19 *884:10 *889:19 0
20 *884:14 *889:19 4.81095e-05
21 *884:14 *889:32 6.73203e-06
22 *884:14 *890:14 0.000142801
23 *884:28 *2849:A1 7.94759e-05
24 *2599:A2 *2599:A1 6.68164e-05
25 *2599:A2 *884:28 0.000410317
26 *2599:A2 *884:32 1.20889e-05
27 *2601:A2 *884:28 0
28 *2601:A2 *884:32 0
29 *2845:A2 *2599:A1 0
30 *2845:A2 *2845:A1 0.000491697
31 *2845:A2 *884:32 0.000151957
32 *2847:B2 *2847:A1 6.92047e-06
33 *2847:B2 *884:77 0.000368389
34 *2848:A2 *2847:A1 0.000358477
35 *2848:A2 *884:10 0.000244154
36 *2848:A2 *884:77 0.000770399
37 *2851:B1 *2847:A1 7.01965e-05
38 *2851:B2 *884:10 8.55242e-05
39 *2853:A4 *2853:A3 5.59457e-05
40 *2854:A2 *884:18 0.000346011
41 *2854:A2 *884:28 0.000300828
42 *2856:A2 *2853:A3 0.000134113
43 *568:8 *2845:A1 0
44 *568:8 *884:32 0
45 *692:10 *2853:A3 8.32749e-05
46 *692:10 *884:10 0
47 *692:10 *884:14 0
48 *692:10 *884:18 0.000372137
49 *692:10 *884:28 0.00035308
50 *750:24 *2853:A3 0
51 *750:26 *2847:A1 0
52 *750:26 *2853:A3 0
53 *788:60 *2847:A1 0.000135048
54 *788:60 *2853:A3 0.000172284
55 *873:14 *2825:A1 6.57222e-06
56 *873:20 *2825:A1 0
57 *873:26 *884:32 0
*RES
1 *3206:Q *884:10 10.064 
2 *884:10 *884:14 1.824 
3 *884:14 *884:18 5.488 
4 *884:18 *884:28 11.052 
5 *884:28 *884:32 5.184 
6 *884:32 *2845:A1 10.292 
7 *884:32 *2599:A1 9.684 
8 *884:28 *2849:A2 4.5 
9 *884:18 *2846:A1 4.5 
10 *884:14 *2825:A1 11.128 
11 *884:10 *884:77 11.204 
12 *884:77 *2847:A1 10.52 
13 *884:77 *2853:A3 11.052 
*END

*D_NET *885 0.00243719
*CONN
*I *2925:A1 I *D gf180mcu_fd_sc_mcu7t5v0__and3_1
*I *2833:A4 I *D gf180mcu_fd_sc_mcu7t5v0__or4_1
*I *2651:A1 I *D gf180mcu_fd_sc_mcu7t5v0__nor2_1
*I *3225:Q O *D gf180mcu_fd_sc_mcu7t5v0__dffq_1
*CAP
1 *2925:A1 3.90924e-05
2 *2833:A4 0.00013761
3 *2651:A1 0.000148956
4 *3225:Q 3.92803e-05
5 *885:8 0.000286567
6 *885:6 7.83727e-05
7 *2833:A4 *2657:A1 6.48311e-06
8 *2653:A2 *2651:A1 6.73926e-05
9 *2836:B *2651:A1 0.000119798
10 *2836:B *2833:A4 0.00022677
11 *2928:A3 *2833:A4 0.000103763
12 *3160:CLK *2651:A1 3.02847e-05
13 *3160:CLK *2925:A1 0.000110192
14 *3160:CLK *885:6 0.000186882
15 *3225:D *2833:A4 0.000377041
16 *3316:I *2925:A1 5.98028e-05
17 *3316:I *885:6 7.46669e-05
18 *3317:I *2833:A4 2.49387e-05
19 *469:22 *2651:A1 5.27846e-05
20 *469:69 *2651:A1 1.20889e-05
21 *469:69 *2833:A4 2.93981e-05
22 *685:10 *2651:A1 9.09842e-05
23 *685:19 *2925:A1 7.83779e-05
24 *759:58 *2833:A4 4.57747e-05
25 *759:64 *2651:A1 9.88736e-06
*RES
1 *3225:Q *885:6 5.032 
2 *885:6 *885:8 4.5 
3 *885:8 *2651:A1 10.52 
4 *885:8 *2833:A4 11.128 
5 *885:6 *2925:A1 5.032 
*END

*D_NET *886 0.00571281
*CONN
*I *2833:A3 I *D gf180mcu_fd_sc_mcu7t5v0__or4_1
*I *2654:A1 I *D gf180mcu_fd_sc_mcu7t5v0__nor2_1
*I *2926:A1 I *D gf180mcu_fd_sc_mcu7t5v0__and3_1
*I *3226:Q O *D gf180mcu_fd_sc_mcu7t5v0__dffq_1
*CAP
1 *2833:A3 0
2 *2654:A1 0.000356414
3 *2926:A1 0.000221699
4 *3226:Q 0.000390891
5 *886:29 0.00106909
6 *886:10 0.00132526
7 *2654:A1 *2833:A1 0.000254666
8 *886:29 *887:25 0.000351183
9 *2927:A3 *2926:A1 0
10 *3225:D *2654:A1 0.000314229
11 *3226:D *2926:A1 0.00064872
12 *3317:I *886:29 0.000443667
13 *687:25 *2654:A1 9.88736e-06
14 *687:40 *2654:A1 9.98921e-06
15 *759:58 *2654:A1 0
16 *791:30 *2654:A1 0.0002976
17 *791:52 *886:29 1.95122e-05
*RES
1 *3226:Q *886:10 11.812 
2 *886:10 *2926:A1 10.976 
3 *886:10 *886:29 10.352 
4 *886:29 *2654:A1 16.844 
5 *886:29 *2833:A3 4.5 
*END

*D_NET *887 0.00533573
*CONN
*I *2833:A2 I *D gf180mcu_fd_sc_mcu7t5v0__or4_1
*I *2657:A1 I *D gf180mcu_fd_sc_mcu7t5v0__nor2_1
*I *2927:A1 I *D gf180mcu_fd_sc_mcu7t5v0__and3_1
*I *3227:Q O *D gf180mcu_fd_sc_mcu7t5v0__dffq_1
*CAP
1 *2833:A2 0
2 *2657:A1 0.000372194
3 *2927:A1 0.00040127
4 *3227:Q 0
5 *887:25 0.00150645
6 *887:4 0.00153553
7 *2657:A2 *2657:A1 0.000539563
8 *2833:A4 *2657:A1 6.48311e-06
9 *2927:A2 *2927:A1 0
10 *3225:D *2657:A1 6.61564e-05
11 *3225:D *887:25 4.58601e-06
12 *3228:D *887:25 0.000255722
13 *3317:I *2657:A1 3.40627e-05
14 *3317:I *887:25 1.31916e-06
15 *759:54 *2657:A1 1.61066e-05
16 *759:58 *2657:A1 0.000245115
17 *886:29 *887:25 0.000351183
*RES
1 *3227:Q *887:4 4.5 
2 *887:4 *2927:A1 16.084 
3 *887:4 *887:25 7.6 
4 *887:25 *2657:A1 17.756 
5 *887:25 *2833:A2 4.5 
*END

*D_NET *888 0.00421368
*CONN
*I *2928:A1 I *D gf180mcu_fd_sc_mcu7t5v0__and3_1
*I *2833:A1 I *D gf180mcu_fd_sc_mcu7t5v0__or4_1
*I *2660:A1 I *D gf180mcu_fd_sc_mcu7t5v0__nor2_1
*I *3228:Q O *D gf180mcu_fd_sc_mcu7t5v0__dffq_1
*CAP
1 *2928:A1 0
2 *2833:A1 7.11821e-05
3 *2660:A1 0.000238081
4 *3228:Q 0.000186406
5 *888:12 0.000448782
6 *888:10 0.000325924
7 *2654:A1 *2833:A1 0.000254666
8 *2836:B *2660:A1 3.7437e-05
9 *2925:A2 *2833:A1 8.36287e-05
10 *2928:A3 *2660:A1 2.96621e-05
11 *2928:A3 *2833:A1 0.000137466
12 *2928:A3 *888:12 1.97747e-05
13 *3225:D *2833:A1 0.000153677
14 *3226:CLK *888:10 9.26705e-05
15 *3316:I *2660:A1 0.000202268
16 *3316:I *888:12 0.000144734
17 *3317:I *2660:A1 6.37653e-05
18 *685:19 *888:10 5.76373e-06
19 *685:19 *888:12 3.31249e-05
20 *685:30 *888:10 8.74908e-05
21 *791:30 *2833:A1 0.000684149
22 *791:45 *888:10 3.00299e-05
23 *791:45 *888:12 0.000787164
24 *791:52 *888:10 9.58397e-05
*RES
1 *3228:Q *888:10 6.4 
2 *888:10 *888:12 2.204 
3 *888:12 *2660:A1 6.4 
4 *888:12 *2833:A1 15.552 
5 *888:10 *2928:A1 4.5 
*END

*D_NET *889 0.00669849
*CONN
*I *2851:A1 I *D gf180mcu_fd_sc_mcu7t5v0__aoi22_1
*I *2602:A1 I *D gf180mcu_fd_sc_mcu7t5v0__nor2_1
*I *2825:C I *D gf180mcu_fd_sc_mcu7t5v0__oai211_1
*I *2853:A2 I *D gf180mcu_fd_sc_mcu7t5v0__and4_1
*I *2849:A1 I *D gf180mcu_fd_sc_mcu7t5v0__nand3_1
*I *2850:A1 I *D gf180mcu_fd_sc_mcu7t5v0__xnor2_1
*I *3207:Q O *D gf180mcu_fd_sc_mcu7t5v0__dffq_1
*CAP
1 *2851:A1 0.000147167
2 *2602:A1 0.000200583
3 *2825:C 6.01396e-05
4 *2853:A2 0.00017375
5 *2849:A1 0.000117116
6 *2850:A1 0
7 *3207:Q 0
8 *889:34 0.000325788
9 *889:32 0.000407284
10 *889:19 0.000426906
11 *889:10 0.000520856
12 *889:4 0.000473036
13 *2853:A2 *890:8 0
14 *2599:A2 *2849:A1 1.20079e-05
15 *2604:A2 *2602:A1 0
16 *2825:A1 *889:32 1.40284e-05
17 *2826:A2 *2853:A2 0
18 *2845:A2 *889:10 0
19 *2845:A2 *889:19 0
20 *2848:A1 *2851:A1 2.22533e-05
21 *2848:A1 *889:10 2.07594e-05
22 *2848:A2 *889:10 6.25877e-05
23 *2851:B2 *2851:A1 0.000376901
24 *2851:B2 *889:10 0.000787074
25 *2853:A4 *2602:A1 1.97747e-05
26 *2853:A4 *2853:A2 0.000701541
27 *2853:A4 *889:34 0.000424388
28 *2854:A2 *2849:A1 0.000300828
29 *2855:B2 *2853:A2 2.74753e-05
30 *692:10 *2602:A1 7.87222e-05
31 *692:10 *2849:A1 3.81953e-05
32 *758:48 *2602:A1 4.18499e-05
33 *758:48 *2853:A2 4.71484e-05
34 *758:48 *889:34 5.48282e-05
35 *873:20 *889:32 8.84331e-05
36 *873:26 *2849:A1 3.95687e-05
37 *873:26 *889:19 0.000272143
38 *873:26 *889:32 0.000281037
39 *884:10 *889:19 0
40 *884:14 *889:19 4.81095e-05
41 *884:14 *889:32 6.73203e-06
42 *884:28 *2849:A1 7.94759e-05
*RES
1 *3207:Q *889:4 4.5 
2 *889:4 *889:10 7.236 
3 *889:10 *2850:A1 9 
4 *889:10 *889:19 1.748 
5 *889:19 *2849:A1 10.292 
6 *889:19 *889:32 5.488 
7 *889:32 *889:34 1.14 
8 *889:34 *2853:A2 6.552 
9 *889:34 *2825:C 5.032 
10 *889:32 *2602:A1 6.02 
11 *889:4 *2851:A1 5.868 
*END

*D_NET *890 0.0053539
*CONN
*I *2825:B I *D gf180mcu_fd_sc_mcu7t5v0__oai211_1
*I *2605:A1 I *D gf180mcu_fd_sc_mcu7t5v0__nor2_1
*I *2855:A1 I *D gf180mcu_fd_sc_mcu7t5v0__aoi22_1
*I *2853:A1 I *D gf180mcu_fd_sc_mcu7t5v0__and4_1
*I *2854:A1 I *D gf180mcu_fd_sc_mcu7t5v0__xnor2_1
*I *3208:Q O *D gf180mcu_fd_sc_mcu7t5v0__dffq_1
*CAP
1 *2825:B 0
2 *2605:A1 0.000180783
3 *2855:A1 2.29293e-05
4 *2853:A1 0.000235044
5 *2854:A1 0
6 *3208:Q 0.000148046
7 *890:21 0.000557554
8 *890:14 0.000524277
9 *890:10 0.000405478
10 *890:8 0.000148046
11 *2611:C *2853:A1 0
12 *2825:A1 *2605:A1 0.000127047
13 *2825:A1 *890:14 0.000623573
14 *2826:A2 *2605:A1 0.000376901
15 *2826:A2 *2853:A1 0
16 *2826:A2 *890:8 0.000139333
17 *2847:B2 *890:21 3.78408e-05
18 *2853:A2 *890:8 0
19 *2853:A3 *2853:A1 3.89656e-05
20 *2853:A4 *890:21 4.27813e-05
21 *2854:A2 *890:21 8.55327e-05
22 *2855:B2 *2853:A1 7.88344e-05
23 *2855:B2 *2855:A1 8.02751e-06
24 *2855:B2 *890:21 3.9584e-05
25 *2856:A2 *2853:A1 1.81333e-05
26 *2856:A2 *2855:A1 8.55327e-05
27 *2856:A2 *890:21 0.000186796
28 *3208:D *890:21 4.46661e-05
29 *479:20 *2855:A1 5.23685e-05
30 *479:20 *890:21 0.000193942
31 *692:10 *890:14 0
32 *692:10 *890:21 0.000138621
33 *750:18 *2605:A1 0.000201034
34 *750:22 *2853:A1 0.000206029
35 *758:48 *2605:A1 6.03845e-05
36 *758:48 *890:8 7.88344e-05
37 *758:48 *890:14 1.46159e-05
38 *788:56 *890:21 2.11333e-05
39 *873:14 *2605:A1 8.84331e-05
40 *873:20 *2605:A1 0
41 *884:14 *890:14 0.000142801
*RES
1 *3208:Q *890:8 5.868 
2 *890:8 *890:10 4.5 
3 *890:10 *890:14 6.4 
4 *890:14 *2854:A1 4.5 
5 *890:14 *890:21 2.964 
6 *890:21 *2853:A1 15.476 
7 *890:21 *2855:A1 4.88 
8 *890:10 *2605:A1 10.976 
9 *890:8 *2825:B 4.5 
*END

*D_NET *891 0.00615321
*CONN
*I *2858:A1 I *D gf180mcu_fd_sc_mcu7t5v0__xor2_1
*I *2861:A2 I *D gf180mcu_fd_sc_mcu7t5v0__nand3_1
*I *2490:I I *D gf180mcu_fd_sc_mcu7t5v0__clkinv_1
*I *2865:A3 I *D gf180mcu_fd_sc_mcu7t5v0__and4_1
*I *2857:A1 I *D gf180mcu_fd_sc_mcu7t5v0__nand2_1
*I *2859:A1 I *D gf180mcu_fd_sc_mcu7t5v0__aoi22_1
*I *3209:Q O *D gf180mcu_fd_sc_mcu7t5v0__dffq_1
*CAP
1 *2858:A1 5.74683e-06
2 *2861:A2 0
3 *2490:I 0.000243654
4 *2865:A3 0
5 *2857:A1 0
6 *2859:A1 7.85488e-05
7 *3209:Q 0.000242827
8 *891:57 0.000439835
9 *891:44 0.000297169
10 *891:35 0.000335065
11 *891:31 0.000472108
12 *891:12 0.00055366
13 *2490:I *2861:A1 0.000171927
14 *891:35 *2867:A1 2.59226e-05
15 *891:44 *892:8 0
16 *891:57 *892:19 0
17 *891:57 *892:32 0
18 *2859:A2 *2859:A1 4.14866e-05
19 *2859:B1 *2859:A1 0.000147313
20 *2859:B2 *2859:A1 8.69862e-05
21 *2859:B2 *891:12 1.02655e-05
22 *2859:B2 *891:31 3.4212e-05
23 *2860:A2 *2859:A1 7.3084e-05
24 *2860:A2 *891:12 0.00037568
25 *2861:A3 *891:57 0.000483042
26 *2867:A2 *2859:A1 2.05156e-05
27 *3145:CLK *2490:I 3.84145e-06
28 *3145:CLK *891:57 5.76063e-06
29 *3210:D *891:12 4.55053e-05
30 *209:6 *2490:I 0.00026286
31 *479:40 *891:35 8.84331e-05
32 *479:40 *891:44 0.000467288
33 *479:40 *891:57 0.00014967
34 *692:72 *2858:A1 2.05156e-05
35 *692:72 *891:12 0.000189499
36 *692:72 *891:31 0.000122961
37 *752:38 *2858:A1 8.55327e-05
38 *752:38 *2859:A1 7.59097e-06
39 *752:38 *891:31 0.000552373
40 *788:54 *891:31 1.23313e-05
*RES
1 *3209:Q *891:12 11.204 
2 *891:12 *2859:A1 9.988 
3 *891:12 *891:31 6.628 
4 *891:31 *891:35 5.64 
5 *891:35 *2857:A1 9 
6 *891:35 *891:44 1.14 
7 *891:44 *2865:A3 9 
8 *891:44 *891:57 6.324 
9 *891:57 *2490:I 6.628 
10 *891:57 *2861:A2 4.5 
11 *891:31 *2858:A1 4.728 
*END

*D_NET *892 0.00178338
*CONN
*I *2861:A1 I *D gf180mcu_fd_sc_mcu7t5v0__nand3_1
*I *2489:I I *D gf180mcu_fd_sc_mcu7t5v0__clkinv_1
*I *2863:A1 I *D gf180mcu_fd_sc_mcu7t5v0__aoi22_1
*I *2865:A2 I *D gf180mcu_fd_sc_mcu7t5v0__and4_1
*I *3210:Q O *D gf180mcu_fd_sc_mcu7t5v0__dffq_1
*CAP
1 *2861:A1 7.1658e-05
2 *2489:I 0
3 *2863:A1 1.00625e-05
4 *2865:A2 9.97829e-05
5 *3210:Q 6.78623e-05
6 *892:32 0.000215751
7 *892:19 0.000269918
8 *892:8 0.000283407
9 *2490:I *2861:A1 0.000171927
10 *2862:A1 *892:8 2.08148e-05
11 *2862:A1 *892:19 1.80934e-05
12 *2862:A1 *892:32 1.99784e-05
13 *2862:A2 *2865:A2 8.22324e-05
14 *2863:B1 *2865:A2 0.000111858
15 *2863:B2 *2863:A1 1.76898e-05
16 *2863:B2 *2865:A2 8.55327e-05
17 *2864:A2 *2863:A1 2.6126e-05
18 *3145:CLK *2861:A1 0.000107858
19 *750:78 *2863:A1 8.55327e-05
20 *750:95 *2865:A2 1.72912e-05
21 *891:44 *892:8 0
22 *891:57 *892:19 0
23 *891:57 *892:32 0
*RES
1 *3210:Q *892:8 9.532 
2 *892:8 *2865:A2 10.14 
3 *892:8 *892:19 0.684 
4 *892:19 *2863:A1 9.228 
5 *892:19 *892:32 5.336 
6 *892:32 *2489:I 4.5 
7 *892:32 *2861:A1 5.488 
*END

*D_NET *893 0.00508871
*CONN
*I *2827:A3 I *D gf180mcu_fd_sc_mcu7t5v0__or3_1
*I *2612:A1 I *D gf180mcu_fd_sc_mcu7t5v0__nor2_1
*I *2866:A1 I *D gf180mcu_fd_sc_mcu7t5v0__xnor2_1
*I *2865:A1 I *D gf180mcu_fd_sc_mcu7t5v0__and4_1
*I *2867:A1 I *D gf180mcu_fd_sc_mcu7t5v0__aoi22_1
*I *3211:Q O *D gf180mcu_fd_sc_mcu7t5v0__dffq_1
*CAP
1 *2827:A3 0
2 *2612:A1 0.000108287
3 *2866:A1 5.39223e-05
4 *2865:A1 0.00013186
5 *2867:A1 0.000357867
6 *3211:Q 0.000269633
7 *893:45 0.00062651
8 *893:23 0.000185782
9 *893:10 0.000523046
10 *893:8 0.000953036
11 *2612:A1 *2615:A1 0.000128363
12 *893:45 *2615:A1 8.18772e-05
13 *893:45 *2618:A1 9.50296e-06
14 *893:45 *894:40 0.000193236
15 *893:45 *895:20 0.000309659
16 *2861:A3 *893:10 9.81155e-05
17 *2861:A3 *893:45 2.62889e-05
18 *2863:B1 *2865:A1 7.81744e-05
19 *2863:B1 *2866:A1 3.77898e-05
20 *2866:A2 *893:8 1.3758e-05
21 *2866:A2 *893:10 0.00047022
22 *2872:A2 *893:8 2.9378e-06
23 *3146:CLK *2612:A1 7.01996e-05
24 *479:40 *2865:A1 7.45328e-07
25 *479:40 *2867:A1 7.52312e-05
26 *479:40 *893:10 4.40785e-05
27 *488:6 *893:8 8.63231e-05
28 *692:72 *2867:A1 6.31678e-05
29 *752:38 *2867:A1 6.31748e-05
30 *891:35 *2867:A1 2.59226e-05
*RES
1 *3211:Q *893:8 10.596 
2 *893:8 *893:10 1.9 
3 *893:10 *2867:A1 11.432 
4 *893:10 *893:23 4.5 
5 *893:23 *2865:A1 5.336 
6 *893:23 *2866:A1 4.88 
7 *893:8 *893:45 8.376 
8 *893:45 *2612:A1 5.64 
9 *893:45 *2827:A3 4.5 
*END

*D_NET *894 0.00601601
*CONN
*I *2872:A1 I *D gf180mcu_fd_sc_mcu7t5v0__oai21_1
*I *2615:A1 I *D gf180mcu_fd_sc_mcu7t5v0__nor2_1
*I *2827:A2 I *D gf180mcu_fd_sc_mcu7t5v0__or3_1
*I *2871:A1 I *D gf180mcu_fd_sc_mcu7t5v0__aoi22_1
*I *2869:A1 I *D gf180mcu_fd_sc_mcu7t5v0__and2_1
*I *3212:Q O *D gf180mcu_fd_sc_mcu7t5v0__dffq_1
*CAP
1 *2872:A1 0
2 *2615:A1 0.00026527
3 *2827:A2 0
4 *2871:A1 0
5 *2869:A1 0.000195089
6 *3212:Q 0.000265944
7 *894:40 0.000734349
8 *894:27 0.000505978
9 *894:16 0.000329073
10 *894:12 0.00036303
11 *894:40 *895:14 0.000192419
12 *894:40 *895:20 0.000384095
13 *2612:A1 *2615:A1 0.000128363
14 *2625:A1 *2615:A1 3.64096e-05
15 *2828:A1 *2615:A1 0
16 *2828:B *2615:A1 0
17 *2843:B *2615:A1 0
18 *2871:B2 *894:40 0.000269857
19 *2872:A2 *2869:A1 0
20 *2872:B *894:12 0.000199473
21 *2872:B *894:16 6.60872e-05
22 *2872:B *894:27 9.17565e-06
23 *2872:B *894:40 1.05191e-05
24 *2873:A2 *894:12 0.000362608
25 *3146:CLK *2869:A1 0
26 *3146:CLK *894:40 4.16955e-05
27 *3213:CLK *894:12 0.000161663
28 *491:10 *2869:A1 3.36949e-05
29 *491:10 *894:40 8.30464e-05
30 *491:19 *894:40 1.46914e-05
31 *750:95 *2869:A1 8.55327e-05
32 *750:106 *2869:A1 0.000106886
33 *752:24 *894:12 0
34 *752:24 *894:16 0.000660137
35 *752:24 *894:27 0.000115621
36 *752:24 *894:40 0.000120187
37 *752:34 *894:12 0
38 *874:10 *894:40 0
39 *893:45 *2615:A1 8.18772e-05
40 *893:45 *894:40 0.000193236
*RES
1 *3212:Q *894:12 16.084 
2 *894:12 *894:16 6.096 
3 *894:16 *2869:A1 10.292 
4 *894:16 *894:27 0.38 
5 *894:27 *2871:A1 9 
6 *894:27 *894:40 9.06 
7 *894:40 *2827:A2 4.5 
8 *894:40 *2615:A1 6.78 
9 *894:12 *2872:A1 4.5 
*END

*D_NET *895 0.00999428
*CONN
*I *2874:A1 I *D gf180mcu_fd_sc_mcu7t5v0__and2_1
*I *2876:A1 I *D gf180mcu_fd_sc_mcu7t5v0__aoi22_1
*I *2877:A1 I *D gf180mcu_fd_sc_mcu7t5v0__oai21_1
*I *2887:A4 I *D gf180mcu_fd_sc_mcu7t5v0__nand4_1
*I *2883:A3 I *D gf180mcu_fd_sc_mcu7t5v0__and4_1
*I *2827:A1 I *D gf180mcu_fd_sc_mcu7t5v0__or3_1
*I *2618:A1 I *D gf180mcu_fd_sc_mcu7t5v0__nor2_1
*I *3213:Q O *D gf180mcu_fd_sc_mcu7t5v0__dffq_1
*CAP
1 *2874:A1 2.73362e-05
2 *2876:A1 6.16704e-05
3 *2877:A1 0
4 *2887:A4 0.000129452
5 *2883:A3 0
6 *2827:A1 0
7 *2618:A1 0.00060811
8 *3213:Q 0.00019054
9 *895:44 0.000544413
10 *895:20 0.000790341
11 *895:14 0.000732242
12 *895:10 0.000340109
13 *895:6 0.000484607
14 *2618:A1 *2621:A1 0.000272143
15 *2618:A1 *2828:C 0.000145096
16 *2618:A1 *896:59 8.81341e-06
17 *2887:A4 *896:20 0.000372325
18 *2887:A4 *896:55 0.000177283
19 *895:44 *896:26 3.72633e-05
20 *895:44 *896:55 2.6126e-05
21 *895:44 *896:59 7.83779e-05
22 *2625:A1 *2618:A1 0.000117265
23 *2828:A2 *2618:A1 0.000143649
24 *2832:A2 *2618:A1 0.00033338
25 *2843:B *2618:A1 0
26 *2871:B2 *895:14 1.1971e-05
27 *2871:B2 *895:20 8.78761e-05
28 *2871:B2 *895:44 0.000200343
29 *2874:A2 *895:10 7.2087e-05
30 *2876:A2 *2876:A1 9.26705e-05
31 *2876:B2 *2876:A1 9.50338e-05
32 *2876:B2 *895:6 6.68265e-05
33 *2877:B *895:10 2.96621e-05
34 *2878:A1 *2876:A1 8.55327e-05
35 *2878:A1 *895:6 2.22533e-05
36 *2878:A2 *2876:A1 6.13775e-05
37 *2878:A2 *895:6 6.95885e-05
38 *2878:A2 *895:10 0.000113695
39 *2880:A2 *2876:A1 0.000451288
40 *2883:A4 *2887:A4 8.50198e-05
41 *2883:A4 *895:44 3.33979e-05
42 *2886:A1 *2618:A1 4.21132e-05
43 *2886:A2 *2887:A4 3.66303e-05
44 *2886:A2 *895:44 9.17202e-06
45 *3146:CLK *895:10 1.53727e-05
46 *3146:CLK *895:14 2.29412e-05
47 *3146:CLK *895:20 0.00118757
48 *3214:CLK *895:6 0
49 *3295:I *2618:A1 4.05218e-05
50 *491:30 *895:44 5.94709e-06
51 *495:8 *895:6 1.19403e-05
52 *495:21 *895:6 2.9378e-06
53 *694:47 *895:14 0
54 *751:107 *2887:A4 0.000180501
55 *752:20 *895:10 0
56 *758:30 *2618:A1 0
57 *874:10 *2618:A1 5.07376e-05
58 *874:21 *2618:A1 3.94802e-05
59 *874:31 *2887:A4 0.000117634
60 *874:31 *895:44 0.000135941
61 *893:45 *2618:A1 9.50296e-06
62 *893:45 *895:20 0.000309659
63 *894:40 *895:14 0.000192419
64 *894:40 *895:20 0.000384095
*RES
1 *3213:Q *895:6 5.944 
2 *895:6 *895:10 1.52 
3 *895:10 *895:14 5.488 
4 *895:14 *895:20 8.148 
5 *895:20 *2618:A1 18.364 
6 *895:20 *2827:A1 4.5 
7 *895:14 *895:44 7.54 
8 *895:44 *2883:A3 4.5 
9 *895:44 *2887:A4 15.552 
10 *895:10 *2877:A1 4.5 
11 *895:6 *2876:A1 14.868 
12 *895:6 *2874:A1 4.728 
*END

*D_NET *896 0.0101679
*CONN
*I *2887:A3 I *D gf180mcu_fd_sc_mcu7t5v0__nand4_1
*I *2883:A2 I *D gf180mcu_fd_sc_mcu7t5v0__and4_1
*I *2621:A1 I *D gf180mcu_fd_sc_mcu7t5v0__nor2_1
*I *2828:C I *D gf180mcu_fd_sc_mcu7t5v0__oai211_1
*I *2879:A1 I *D gf180mcu_fd_sc_mcu7t5v0__nand2_1
*I *2881:A1 I *D gf180mcu_fd_sc_mcu7t5v0__oai21_1
*I *2880:A1 I *D gf180mcu_fd_sc_mcu7t5v0__aoi22_1
*I *3214:Q O *D gf180mcu_fd_sc_mcu7t5v0__dffq_1
*CAP
1 *2887:A3 0
2 *2883:A2 0
3 *2621:A1 0.000478655
4 *2828:C 3.29608e-05
5 *2879:A1 0.000171057
6 *2881:A1 0
7 *2880:A1 0
8 *3214:Q 0.000272335
9 *896:59 0.000836966
10 *896:55 0.00036764
11 *896:37 0.000357788
12 *896:26 0.00028815
13 *896:20 0.000232514
14 *896:14 0.000361139
15 *2488:I *896:59 2.19175e-05
16 *2618:A1 *2621:A1 0.000272143
17 *2618:A1 *2828:C 0.000145096
18 *2618:A1 *896:59 8.81341e-06
19 *2625:A1 *2621:A1 9.46793e-05
20 *2625:A1 *2828:C 4.32383e-05
21 *2626:A1 *2621:A1 1.69416e-05
22 *2832:A2 *2621:A1 0.000835055
23 *2843:B *2828:C 3.73535e-05
24 *2843:B *896:26 1.08266e-05
25 *2843:B *896:37 2.11901e-05
26 *2843:B *896:55 9.99279e-05
27 *2843:B *896:59 3.96676e-05
28 *2876:B2 *896:37 0
29 *2879:A2 *2879:A1 7.24052e-05
30 *2880:A2 *896:37 0.000298446
31 *2880:B1 *896:37 2.74661e-05
32 *2881:A2 *2879:A1 4.90368e-05
33 *2882:A1 *896:37 0.000369754
34 *2883:A4 *896:20 0.000202899
35 *2883:A4 *896:26 0.000317948
36 *2883:A4 *896:55 6.96334e-06
37 *2886:A1 *896:59 2.57756e-05
38 *2886:A2 *896:59 7.28389e-05
39 *2887:A1 *896:14 8.02751e-06
40 *2887:A2 *896:14 1.5015e-05
41 *2887:A2 *896:20 3.2657e-05
42 *2887:A4 *896:20 0.000372325
43 *2887:A4 *896:55 0.000177283
44 *2888:A1 *896:14 0
45 *2888:A1 *896:20 0.00014693
46 *2889:I *896:14 4.58601e-06
47 *3153:CLK *2621:A1 0
48 *3214:CLK *896:37 5.75052e-05
49 *3295:I *896:59 0
50 *10:16 *896:14 0
51 *495:8 *2879:A1 0
52 *495:8 *896:37 1.62408e-05
53 *499:6 *2879:A1 0.000234192
54 *499:6 *896:14 0
55 *506:10 *896:14 0.000159942
56 *694:47 *896:26 3.15134e-05
57 *694:47 *896:37 2.96621e-05
58 *751:107 *896:14 0.000957783
59 *751:107 *896:20 8.04285e-05
60 *758:20 *2621:A1 4.52283e-05
61 *758:24 *2621:A1 0
62 *789:102 *2879:A1 3.08902e-05
63 *789:102 *896:37 0.000105278
64 *874:25 *896:59 0.000989164
65 *874:31 *896:20 2.90023e-05
66 *874:31 *896:26 1.28891e-05
67 *895:44 *896:26 3.72633e-05
68 *895:44 *896:55 2.6126e-05
69 *895:44 *896:59 7.83779e-05
*RES
1 *3214:Q *896:14 16.464 
2 *896:14 *896:20 6.172 
3 *896:20 *896:26 5.564 
4 *896:26 *2880:A1 4.5 
5 *896:26 *896:37 2.508 
6 *896:37 *2881:A1 4.5 
7 *896:37 *2879:A1 6.324 
8 *896:20 *896:55 5.184 
9 *896:55 *896:59 7.92 
10 *896:59 *2828:C 9.608 
11 *896:59 *2621:A1 14.016 
12 *896:55 *2883:A2 4.5 
13 *896:14 *2887:A3 4.5 
*END

*D_NET *897 0.00276391
*CONN
*I *2597:A1 I *D gf180mcu_fd_sc_mcu7t5v0__nor2_1
*I *2982:C1 I *D gf180mcu_fd_sc_mcu7t5v0__aoi222_1
*I *3140:Q O *D gf180mcu_fd_sc_mcu7t5v0__dffq_1
*CAP
1 *2597:A1 0.000188907
2 *2982:C1 0.000204407
3 *3140:Q 0
4 *897:4 0.000393313
5 *2597:A1 *2978:B2 4.26303e-05
6 *2976:A1 *2982:C1 4.58601e-06
7 *2979:A1 *2982:C1 0.000103141
8 *3015:B2 *2597:A1 3.26605e-05
9 *3378:I *2597:A1 0.000372137
10 *3379:I *2597:A1 0.000179657
11 *559:14 *2982:C1 2.96621e-05
12 *569:12 *2597:A1 8.55327e-05
13 *569:12 *2982:C1 0.000190317
14 *574:16 *2982:C1 0.000467548
15 *735:23 *2597:A1 0.000213975
16 *775:26 *2982:C1 0.000193933
17 *776:22 *2982:C1 3.65291e-05
18 *851:6 *2982:C1 2.4971e-05
*RES
1 *3140:Q *897:4 4.5 
2 *897:4 *2982:C1 15.856 
3 *897:4 *2597:A1 15.78 
*END

*D_NET *898 0.0047671
*CONN
*I *2624:A1 I *D gf180mcu_fd_sc_mcu7t5v0__nor2_1
*I *2999:A1 I *D gf180mcu_fd_sc_mcu7t5v0__aoi222_1
*I *3150:Q O *D gf180mcu_fd_sc_mcu7t5v0__dffq_1
*CAP
1 *2624:A1 0.000203445
2 *2999:A1 0.000246284
3 *3150:Q 0
4 *898:4 0.000449729
5 *2624:A1 *3007:A1 7.24161e-06
6 *2624:A1 *3007:B2 0
7 *3007:A2 *2624:A1 0
8 *3007:B1 *2624:A1 1.11891e-05
9 *3307:I *2999:A1 9.57657e-05
10 *3362:I *2999:A1 0.000204046
11 *565:31 *2999:A1 0.000387765
12 *764:31 *2999:A1 7.22665e-05
13 *764:44 *2624:A1 0.000787685
14 *778:8 *2624:A1 7.83779e-05
15 *778:8 *2999:A1 0.00124074
16 *781:6 *2624:A1 1.97747e-05
17 *781:6 *2999:A1 0.000736102
18 *799:95 *2624:A1 0.000226687
*RES
1 *3150:Q *898:4 4.5 
2 *898:4 *2999:A1 18.82 
3 *898:4 *2624:A1 16.312 
*END

*D_NET *899 0.00352893
*CONN
*I *2627:A1 I *D gf180mcu_fd_sc_mcu7t5v0__nor2_1
*I *3007:A1 I *D gf180mcu_fd_sc_mcu7t5v0__aoi222_1
*I *3151:Q O *D gf180mcu_fd_sc_mcu7t5v0__dffq_1
*CAP
1 *2627:A1 1.63857e-05
2 *3007:A1 0.000620471
3 *3151:Q 8.19956e-05
4 *899:8 0.000718852
5 *3007:A1 *3007:B2 7.24161e-06
6 *3007:A1 *3031:B2 0.000142809
7 *899:8 *3031:B2 0.000372003
8 *2623:A2 *2627:A1 0.000379283
9 *2624:A1 *3007:A1 7.24161e-06
10 *2625:B *3007:A1 0
11 *2628:A2 *3007:A1 0.000172872
12 *2628:A3 *2627:A1 0.000379283
13 *2628:A3 *3007:A1 0.000360997
14 *694:39 *3007:A1 4.55832e-05
15 *764:52 *3007:A1 0
16 *781:21 *3007:A1 0.000223912
*RES
1 *3151:Q *899:8 9.988 
2 *899:8 *3007:A1 14.168 
3 *899:8 *2627:A1 9.988 
*END

*D_NET *900 0.00356569
*CONN
*I *2630:A1 I *D gf180mcu_fd_sc_mcu7t5v0__nor2_1
*I *3015:A1 I *D gf180mcu_fd_sc_mcu7t5v0__aoi222_1
*I *3152:Q O *D gf180mcu_fd_sc_mcu7t5v0__dffq_1
*CAP
1 *2630:A1 0
2 *3015:A1 0.00032961
3 *3152:Q 0.000124591
4 *900:12 0.000454202
5 *3015:A1 *2978:C1 0.0001372
6 *3015:A1 *2991:A1 0.000261936
7 *3015:A1 *2991:C2 0
8 *900:12 *2991:C2 5.37083e-05
9 *2630:A2 *3015:A1 0.000432987
10 *2977:I *3015:A1 7.83779e-05
11 *2991:A2 *3015:A1 0.000116627
12 *3017:A1 *3015:A1 0.000147313
13 *3025:A1 *3015:A1 0
14 *3025:A1 *900:12 0.000191702
15 *3033:A1 *3015:A1 0.000159941
16 *3033:A1 *900:12 0.00018402
17 *3042:A1 *3015:A1 2.91799e-05
18 *3149:CLK *3015:A1 0.00015172
19 *3149:CLK *900:12 0.000260701
20 *765:54 *3015:A1 0.000447872
21 *765:62 *3015:A1 4.00328e-06
*RES
1 *3152:Q *900:12 15.324 
2 *900:12 *3015:A1 17.832 
3 *900:12 *2630:A1 4.5 
*END

*D_NET *901 0.00169894
*CONN
*I *3023:A1 I *D gf180mcu_fd_sc_mcu7t5v0__aoi222_1
*I *2632:A1 I *D gf180mcu_fd_sc_mcu7t5v0__nor2_1
*I *3153:Q O *D gf180mcu_fd_sc_mcu7t5v0__dffq_1
*CAP
1 *3023:A1 0.000401424
2 *2632:A1 5.46724e-05
3 *3153:Q 0.000241827
4 *901:8 0.000697924
5 *3023:A1 *3031:B2 0
6 *2632:A2 *3023:A1 0.000105817
7 *2633:A1 *3023:A1 6.63508e-06
8 *2636:A2 *901:8 0
9 *765:62 *3023:A1 0.00019064
*RES
1 *3153:Q *901:8 6.476 
2 *901:8 *2632:A1 4.88 
3 *901:8 *3023:A1 7.616 
*END

*D_NET *902 0.00229391
*CONN
*I *2635:A1 I *D gf180mcu_fd_sc_mcu7t5v0__nor2_1
*I *3031:A1 I *D gf180mcu_fd_sc_mcu7t5v0__aoi222_1
*I *3154:Q O *D gf180mcu_fd_sc_mcu7t5v0__dffq_1
*CAP
1 *2635:A1 0.000122395
2 *3031:A1 5.97494e-05
3 *3154:Q 0.000376928
4 *902:10 0.000559072
5 *2635:A1 *3023:C2 1.12495e-05
6 *2635:A1 *3040:A1 7.59108e-05
7 *2635:A1 *903:8 1.65795e-06
8 *3031:A1 *3023:C2 0.000113344
9 *902:10 *903:8 6.926e-05
10 *2636:A2 *902:10 2.17248e-05
11 *2636:A3 *2635:A1 0.000467845
12 *2636:A3 *902:10 3.16675e-05
13 *2638:A2 *2635:A1 8.8425e-05
14 *2639:A2 *902:10 0
15 *2639:A3 *2635:A1 0.000151949
16 *799:38 *2635:A1 3.71997e-05
17 *799:38 *3031:A1 0.000105536
*RES
1 *3154:Q *902:10 11.432 
2 *902:10 *3031:A1 9.836 
3 *902:10 *2635:A1 10.824 
*END

*D_NET *903 0.00113021
*CONN
*I *2638:A1 I *D gf180mcu_fd_sc_mcu7t5v0__nor2_1
*I *3040:A1 I *D gf180mcu_fd_sc_mcu7t5v0__aoi222_1
*I *3155:Q O *D gf180mcu_fd_sc_mcu7t5v0__dffq_1
*CAP
1 *2638:A1 0
2 *3040:A1 0.000281986
3 *3155:Q 0.000184787
4 *903:8 0.000466773
5 *903:8 *3031:B2 0
6 *2635:A1 *3040:A1 7.59108e-05
7 *2635:A1 *903:8 1.65795e-06
8 *2636:A1 *903:8 0
9 *2636:A3 *3040:A1 9.60518e-06
10 *3033:A1 *3040:A1 5.64514e-06
11 *3040:A2 *3040:A1 0
12 *3040:A2 *903:8 1.91917e-06
13 *3042:A1 *3040:A1 3.26639e-05
14 *902:10 *903:8 6.926e-05
*RES
1 *3155:Q *903:8 5.868 
2 *903:8 *3040:A1 6.476 
3 *903:8 *2638:A1 4.5 
*END

*D_NET *904 0.00764194
*CONN
*I *2640:A1 I *D gf180mcu_fd_sc_mcu7t5v0__nor2_1
*I *2978:C1 I *D gf180mcu_fd_sc_mcu7t5v0__aoi222_1
*I *3156:Q O *D gf180mcu_fd_sc_mcu7t5v0__dffq_1
*CAP
1 *2640:A1 0.000164579
2 *2978:C1 0.00116149
3 *3156:Q 5.38507e-05
4 *904:8 0.00137991
5 *2978:C1 *2619:A1 0
6 *2978:C1 *2622:A1 6.05336e-05
7 *2978:C1 *2978:B2 0.000103655
8 *2978:C1 *2991:A1 0.000205793
9 *2620:A2 *2978:C1 0
10 *2630:A2 *2978:C1 0.000464897
11 *2641:B *2640:A1 0.000542427
12 *2976:A3 *2978:C1 0.000522895
13 *2978:C2 *2978:C1 0
14 *2979:A1 *2978:C1 1.15275e-05
15 *3015:A1 *2978:C1 0.0001372
16 *3042:A1 *904:8 0.000196417
17 *3149:CLK *2640:A1 0.0001009
18 *3149:CLK *2978:C1 5.8048e-05
19 *3275:I *2640:A1 0.000239276
20 *3275:I *904:8 1.21002e-05
21 *3378:I *2978:C1 0.000623857
22 *574:16 *2978:C1 1.2339e-05
23 *680:35 *2640:A1 0.000169591
24 *680:35 *2978:C1 0.00107443
25 *680:47 *2978:C1 1.72918e-05
26 *765:62 *2978:C1 0.000328929
*RES
1 *3156:Q *904:8 9.532 
2 *904:8 *2978:C1 21.616 
3 *904:8 *2640:A1 11.736 
*END

*D_NET *905 0.0033736
*CONN
*I *2643:A1 I *D gf180mcu_fd_sc_mcu7t5v0__nor2_1
*I *2991:C2 I *D gf180mcu_fd_sc_mcu7t5v0__aoi222_1
*I *3157:Q O *D gf180mcu_fd_sc_mcu7t5v0__dffq_1
*CAP
1 *2643:A1 0
2 *2991:C2 0.000512801
3 *3157:Q 0.000149874
4 *905:8 0.000662675
5 *2991:C2 *2991:A1 5.43116e-05
6 *2631:A3 *2991:C2 0.000348603
7 *2991:B1 *2991:C2 9.88736e-06
8 *3015:A1 *2991:C2 0
9 *3042:A1 *905:8 9.79618e-05
10 *3149:CLK *2991:C2 9.66562e-05
11 *3275:I *905:8 5.14849e-05
12 *765:54 *2991:C2 1.19024e-05
13 *765:62 *2991:C2 0.000487638
14 *766:22 *905:8 0.00011955
15 *774:26 *2991:C2 0.000716545
16 *900:12 *2991:C2 5.37083e-05
*RES
1 *3157:Q *905:8 6.02 
2 *905:8 *2991:C2 19.428 
3 *905:8 *2643:A1 4.5 
*END

*D_NET *906 0.0072344
*CONN
*I *2646:A1 I *D gf180mcu_fd_sc_mcu7t5v0__nor2_1
*I *2999:C2 I *D gf180mcu_fd_sc_mcu7t5v0__aoi222_1
*I *3158:Q O *D gf180mcu_fd_sc_mcu7t5v0__dffq_1
*CAP
1 *2646:A1 0.000246529
2 *2999:C2 0.000978071
3 *3158:Q 0.00015599
4 *906:8 0.00138059
5 *2999:C2 *3015:C2 0.000377621
6 *2641:A1 *2999:C2 3.1458e-05
7 *2641:A1 *906:8 0.000441055
8 *2641:A2 *2999:C2 9.06224e-05
9 *2641:A2 *906:8 0
10 *2644:A3 *2646:A1 0
11 *2644:A3 *906:8 2.9378e-06
12 *2977:I *2999:C2 7.08938e-05
13 *2999:C1 *2999:C2 0.000484567
14 *3149:CLK *2646:A1 0.000660146
15 *3156:D *2999:C2 0.000131642
16 *680:35 *2999:C2 0.00127268
17 *684:51 *2646:A1 0.000269848
18 *684:69 *2646:A1 0.000406051
19 *774:26 *2999:C2 0.000118482
20 *780:28 *2999:C2 5.07443e-05
21 *780:37 *2999:C2 2.71172e-05
22 *799:12 *2999:C2 3.73535e-05
*RES
1 *3158:Q *906:8 6.02 
2 *906:8 *2999:C2 23.76 
3 *906:8 *2646:A1 16.616 
*END

*D_NET *907 0.00604363
*CONN
*I *2649:A1 I *D gf180mcu_fd_sc_mcu7t5v0__nor2_1
*I *3007:C2 I *D gf180mcu_fd_sc_mcu7t5v0__aoi222_1
*I *3159:Q O *D gf180mcu_fd_sc_mcu7t5v0__dffq_1
*CAP
1 *2649:A1 0.000222986
2 *3007:C2 0.00168673
3 *3159:Q 3.28034e-05
4 *907:6 0.00194252
5 *3007:C2 *3040:B2 0
6 *3007:C2 *3040:C2 0
7 *2623:A2 *3007:C2 0.000153137
8 *2641:A1 *3007:C2 0.000126143
9 *2644:A2 *2649:A1 1.02823e-05
10 *2644:A2 *3007:C2 4.07251e-05
11 *2644:A3 *3007:C2 2.22758e-05
12 *2650:A1 *3007:C2 0
13 *2650:A2 *3007:C2 0
14 *2650:A3 *2649:A1 0.000246974
15 *2650:A3 *3007:C2 2.67943e-05
16 *3009:A1 *3007:C2 0.000153056
17 *3025:A1 *3007:C2 5.96894e-05
18 *3149:D *3007:C2 0
19 *3154:CLK *2649:A1 3.86019e-05
20 *3155:D *2649:A1 0
21 *3157:D *3007:C2 9.88736e-06
22 *3275:I *3007:C2 3.05262e-05
23 *684:25 *2649:A1 9.99427e-05
24 *774:49 *3007:C2 0.00101387
25 *778:8 *3007:C2 1.02578e-05
26 *778:16 *3007:C2 3.64762e-05
27 *778:24 *3007:C2 2.23783e-05
28 *781:21 *3007:C2 2.22533e-05
29 *799:85 *3007:C2 3.53241e-05
30 *803:58 *3007:C2 0
*RES
1 *3159:Q *907:6 4.728 
2 *907:6 *3007:C2 26.344 
3 *907:6 *2649:A1 6.552 
*END

*D_NET *908 0.00446031
*CONN
*I *2600:A1 I *D gf180mcu_fd_sc_mcu7t5v0__nor2_1
*I *2992:C2 I *D gf180mcu_fd_sc_mcu7t5v0__aoi222_1
*I *3141:Q O *D gf180mcu_fd_sc_mcu7t5v0__dffq_1
*CAP
1 *2600:A1 1.83866e-05
2 *2992:C2 0.000569453
3 *3141:Q 0.000121096
4 *908:10 0.000708936
5 *2579:A1 *2992:C2 0.000239414
6 *2580:B *2992:C2 1.42281e-05
7 *2580:C *2992:C2 0.000256789
8 *2580:C *908:10 0.000497477
9 *2582:B *2992:C2 0.000208488
10 *2601:A3 *908:10 0.000185185
11 *2992:A1 *2992:C2 0.000585766
12 *3133:D *2992:C2 3.08902e-05
13 *227:18 *2992:C2 0.000977698
14 *680:171 *908:10 4.65023e-05
*RES
1 *3141:Q *908:10 6.4 
2 *908:10 *2992:C2 22.62 
3 *908:10 *2600:A1 4.728 
*END

*D_NET *909 0.0135552
*CONN
*I *2652:A1 I *D gf180mcu_fd_sc_mcu7t5v0__nor2_1
*I *3015:C2 I *D gf180mcu_fd_sc_mcu7t5v0__aoi222_1
*I *3160:Q O *D gf180mcu_fd_sc_mcu7t5v0__dffq_1
*CAP
1 *2652:A1 0.000318103
2 *3015:C2 0.00197669
3 *3160:Q 0.000213194
4 *909:14 0.00250799
5 *2662:A1 *2652:A1 7.86358e-05
6 *2841:A3 *3015:C2 0.000189138
7 *2841:A4 *3015:C2 0.000536039
8 *2934:A2 *3015:C2 2.17248e-05
9 *2934:B1 *3015:C2 0.000369754
10 *2934:C *3015:C2 9.88736e-06
11 *2975:I *3015:C2 0.000453575
12 *2977:I *3015:C2 0.0003377
13 *2999:C2 *3015:C2 0.000377621
14 *3048:A2 *3015:C2 4.724e-05
15 *3049:A1 *3015:C2 0
16 *3163:D *2652:A1 0.000256004
17 *3229:CLK *3015:C2 6.07288e-05
18 *3279:I *2652:A1 3.40956e-05
19 *3279:I *3015:C2 1.43468e-05
20 *3279:I *909:14 5.60606e-05
21 *3326:I *3015:C2 0.000877328
22 *3365:I *909:14 0
23 *230:28 *3015:C2 0.000145137
24 *230:30 *3015:C2 0.000171881
25 *242:16 *3015:C2 0
26 *465:12 *3015:C2 8.42896e-05
27 *467:36 *3015:C2 2.57058e-06
28 *470:14 *3015:C2 7.30524e-05
29 *471:20 *3015:C2 0.000813856
30 *471:20 *909:14 5.18896e-05
31 *536:12 *3015:C2 0.000296227
32 *680:35 *3015:C2 0
33 *680:228 *2652:A1 0.000230449
34 *680:240 *2652:A1 0.000330692
35 *707:10 *3015:C2 0
36 *707:16 *3015:C2 0.000318943
37 *707:58 *3015:C2 0.000173764
38 *753:8 *3015:C2 3.14479e-05
39 *753:21 *3015:C2 0.000386476
40 *753:21 *909:14 0.000677484
41 *759:64 *909:14 1.58383e-05
42 *766:78 *2652:A1 0
43 *766:78 *3015:C2 4.724e-05
44 *780:28 *3015:C2 9.52854e-05
45 *780:37 *3015:C2 0.000117908
46 *782:34 *3015:C2 0.000494231
47 *782:43 *3015:C2 0.000260709
48 *803:27 *3015:C2 0
*RES
1 *3160:Q *909:14 15.704 
2 *909:14 *3015:C2 45.604 
3 *909:14 *2652:A1 17.68 
*END

*D_NET *910 0.0136141
*CONN
*I *2655:A1 I *D gf180mcu_fd_sc_mcu7t5v0__nor2_1
*I *3023:C2 I *D gf180mcu_fd_sc_mcu7t5v0__aoi222_1
*I *3161:Q O *D gf180mcu_fd_sc_mcu7t5v0__dffq_1
*CAP
1 *2655:A1 0.000171517
2 *3023:C2 0.00107826
3 *3161:Q 0
4 *910:4 0.00124978
5 *3023:C2 *2658:A1 4.58601e-06
6 *3023:C2 *3023:B2 0.000312799
7 *3023:C2 *3031:C2 0.00606032
8 *3023:C2 *3040:B2 5.45725e-05
9 *3023:C2 *912:12 0.00034326
10 *2631:A2 *3023:C2 0.000257276
11 *2635:A1 *3023:C2 1.12495e-05
12 *2638:A2 *3023:C2 6.17482e-06
13 *2639:A3 *3023:C2 0.00012457
14 *2655:A2 *2655:A1 0.000125867
15 *2655:A2 *3023:C2 2.40654e-06
16 *2656:A3 *2655:A1 0.000187647
17 *2659:A3 *2655:A1 9.50423e-05
18 *2662:A1 *2655:A1 4.66861e-05
19 *2662:A1 *3023:C2 0
20 *3031:A1 *3023:C2 0.000113344
21 *3294:I *2655:A1 0.000490201
22 *3294:I *3023:C2 0.000493324
23 *3317:I *2655:A1 9.75219e-05
24 *3317:I *3023:C2 0.000264222
25 *243:26 *3023:C2 9.70366e-05
26 *766:10 *3023:C2 0.000128875
27 *766:12 *3023:C2 0.000458514
28 *766:78 *3023:C2 0.000610671
29 *766:89 *3023:C2 0.000106376
30 *781:21 *3023:C2 9.57657e-05
31 *781:32 *3023:C2 0.0004559
32 *792:34 *3023:C2 5.95656e-05
33 *799:38 *3023:C2 1.08028e-05
*RES
1 *3161:Q *910:4 4.5 
2 *910:4 *3023:C2 34.628 
3 *910:4 *2655:A1 15.932 
*END

*D_NET *911 0.0101751
*CONN
*I *2658:A1 I *D gf180mcu_fd_sc_mcu7t5v0__nor2_1
*I *3031:C2 I *D gf180mcu_fd_sc_mcu7t5v0__aoi222_1
*I *3162:Q O *D gf180mcu_fd_sc_mcu7t5v0__dffq_1
*CAP
1 *2658:A1 4.40693e-05
2 *3031:C2 0.00103084
3 *3162:Q 0.000222897
4 *911:10 0.00129781
5 *3031:C2 *3040:C2 0.000950198
6 *2655:A2 *3031:C2 1.86241e-05
7 *2655:A2 *911:10 3.84833e-05
8 *2662:A1 *2658:A1 1.29518e-05
9 *2662:A1 *911:10 0.000122747
10 *2823:A1 *3031:C2 0
11 *2929:A2 *3031:C2 0.000113193
12 *3023:C2 *2658:A1 4.58601e-06
13 *3023:C2 *3031:C2 0.00606032
14 *3025:A1 *3031:C2 7.59255e-06
15 *3031:C1 *3031:C2 7.3227e-05
16 *3159:D *3031:C2 0.000164302
17 *334:10 *3031:C2 0
18 *334:10 *911:10 0
19 *766:89 *3031:C2 1.32333e-05
20 *792:14 *911:10 0
21 *872:30 *3031:C2 0
*RES
1 *3162:Q *911:10 10.672 
2 *911:10 *3031:C2 25.416 
3 *911:10 *2658:A1 9.228 
*END

*D_NET *912 0.00755298
*CONN
*I *2661:A1 I *D gf180mcu_fd_sc_mcu7t5v0__nor2_1
*I *3040:C2 I *D gf180mcu_fd_sc_mcu7t5v0__aoi222_1
*I *3163:Q O *D gf180mcu_fd_sc_mcu7t5v0__dffq_1
*CAP
1 *2661:A1 0
2 *3040:C2 0.00155187
3 *3163:Q 0.000136972
4 *912:12 0.00168884
5 *3040:C2 *3040:B2 0.000324233
6 *2644:A2 *3040:C2 6.21409e-05
7 *2653:A1 *3040:C2 0
8 *2653:A1 *912:12 9.65141e-05
9 *2929:A2 *3040:C2 0.000442141
10 *3007:C2 *3040:C2 0
11 *3023:C2 *912:12 0.00034326
12 *3031:C2 *3040:C2 0.000950198
13 *3159:D *3040:C2 0.000566901
14 *3297:I *3040:C2 0.00016061
15 *469:22 *3040:C2 0
16 *469:22 *912:12 9.65141e-05
17 *470:14 *3040:C2 3.73627e-05
18 *471:8 *3040:C2 0.000387757
19 *766:78 *912:12 0.00070767
20 *803:71 *3040:C2 0
*RES
1 *3163:Q *912:12 16.236 
2 *912:12 *3040:C2 26.876 
3 *912:12 *2661:A1 4.5 
*END

*D_NET *913 0.00608917
*CONN
*I *2603:A1 I *D gf180mcu_fd_sc_mcu7t5v0__nor2_1
*I *3000:C2 I *D gf180mcu_fd_sc_mcu7t5v0__aoi222_1
*I *3142:Q O *D gf180mcu_fd_sc_mcu7t5v0__dffq_1
*CAP
1 *2603:A1 0.000112029
2 *3000:C2 0.000743138
3 *3142:Q 0.000159829
4 *913:6 0.001015
5 *3000:C2 *2608:A1 0.000651006
6 *3000:C2 *3016:C2 0.00147605
7 *2603:A2 *2603:A1 5.52776e-05
8 *2609:A1 *3000:C2 9.88736e-06
9 *2609:A1 *913:6 0.000163868
10 *2609:B *3000:C2 3.77075e-05
11 *2609:C *3000:C2 1.3758e-05
12 *2609:C *913:6 4.58601e-06
13 *3000:A1 *3000:C2 0
14 *3128:CLK *3000:C2 0.000189146
15 *3144:D *3000:C2 9.58397e-05
16 *567:20 *2603:A1 1.10806e-05
17 *567:20 *3000:C2 6.33531e-06
18 *680:171 *3000:C2 3.8951e-06
19 *691:6 *3000:C2 0
20 *691:8 *3000:C2 0
21 *724:16 *3000:C2 9.77249e-05
22 *735:12 *3000:C2 0
23 *763:20 *2603:A1 3.89716e-05
24 *763:68 *913:6 0
25 *763:76 *3000:C2 0.000335667
26 *775:32 *3000:C2 8.16881e-05
27 *775:34 *3000:C2 9.88736e-06
28 *798:78 *2603:A1 0.000644146
29 *798:80 *2603:A1 8.8425e-05
30 *851:6 *3000:C2 4.42356e-05
*RES
1 *3142:Q *913:6 5.64 
2 *913:6 *3000:C2 22.088 
3 *913:6 *2603:A1 15.248 
*END

*D_NET *914 0.00638752
*CONN
*I *3007:B2 I *D gf180mcu_fd_sc_mcu7t5v0__aoi222_1
*I *2606:A1 I *D gf180mcu_fd_sc_mcu7t5v0__nor2_1
*I *3143:Q O *D gf180mcu_fd_sc_mcu7t5v0__dffq_1
*CAP
1 *3007:B2 0.000261865
2 *2606:A1 0.000157953
3 *3143:Q 0
4 *914:6 0.000419818
5 *2620:A3 *3007:B2 1.14422e-05
6 *2624:A1 *3007:B2 0
7 *3007:A1 *3007:B2 7.24161e-06
8 *3007:A2 *3007:B2 2.6126e-05
9 *3009:A1 *3007:B2 6.04444e-06
10 *3143:D *2606:A1 0.000255714
11 *3143:CLK *2606:A1 0.00113177
12 *3143:CLK *3007:B2 0.00115643
13 *693:14 *3007:B2 2.97354e-06
14 *750:10 *2606:A1 0.000451288
15 *750:10 *3007:B2 0.000165416
16 *750:18 *2606:A1 0.000184989
17 *758:36 *2606:A1 0.000346173
18 *763:50 *2606:A1 4.98138e-05
19 *764:52 *3007:B2 0
20 *781:21 *3007:B2 8.55327e-05
21 *799:95 *3007:B2 0.00166693
*RES
1 *3143:Q *914:6 9 
2 *914:6 *2606:A1 12.8 
3 *914:6 *3007:B2 14.168 
*END

*D_NET *915 0.0056805
*CONN
*I *3016:C2 I *D gf180mcu_fd_sc_mcu7t5v0__aoi222_1
*I *2608:A1 I *D gf180mcu_fd_sc_mcu7t5v0__nor2_1
*I *3144:Q O *D gf180mcu_fd_sc_mcu7t5v0__dffq_1
*CAP
1 *3016:C2 0.000541512
2 *2608:A1 0.000108861
3 *3144:Q 0.000120001
4 *915:8 0.000770374
5 *2566:A2 *3016:C2 0
6 *2566:A2 *915:8 1.53727e-05
7 *2609:B *2608:A1 7.98484e-05
8 *3000:C2 *2608:A1 0.000651006
9 *3000:C2 *3016:C2 0.00147605
10 *3016:C1 *3016:C2 0.000755435
11 *3128:D *915:8 0.000134636
12 *724:16 *2608:A1 0.000168613
13 *724:16 *3016:C2 0.000244676
14 *735:12 *3016:C2 0.000542792
15 *763:76 *2608:A1 1.08231e-05
16 *763:76 *915:8 0
17 *775:34 *3016:C2 5.83289e-05
18 *851:6 *3016:C2 2.17707e-06
*RES
1 *3144:Q *915:8 9.836 
2 *915:8 *2608:A1 10.824 
3 *915:8 *3016:C2 15.84 
*END

*D_NET *916 0.00544828
*CONN
*I *3023:B2 I *D gf180mcu_fd_sc_mcu7t5v0__aoi222_1
*I *2610:A1 I *D gf180mcu_fd_sc_mcu7t5v0__nor2_1
*I *3145:Q O *D gf180mcu_fd_sc_mcu7t5v0__dffq_1
*CAP
1 *3023:B2 0.00114927
2 *2610:A1 0.000357426
3 *3145:Q 4.67829e-05
4 *916:8 0.00155348
5 *3023:B2 *2616:A1 0
6 *3023:B2 *3031:B2 7.861e-05
7 *3023:B2 *3040:B2 0
8 *2609:A1 *2610:A1 0
9 *2610:A2 *2610:A1 0.000116355
10 *2611:A2 *2610:A1 0
11 *2611:A2 *3023:B2 0
12 *2614:A2 *2610:A1 2.59409e-05
13 *2614:A2 *3023:B2 0.000165235
14 *2614:A3 *3023:B2 0.000186318
15 *2617:A1 *916:8 5.14116e-06
16 *2625:B *3023:B2 0
17 *2628:A1 *3023:B2 7.11472e-05
18 *3023:C2 *3023:B2 0.000312799
19 *3146:CLK *2610:A1 1.02578e-05
20 *758:36 *2610:A1 7.59671e-05
21 *758:36 *916:8 2.976e-05
22 *781:21 *3023:B2 0.0012588
23 *798:34 *916:8 4.97712e-06
*RES
1 *3145:Q *916:8 9.38 
2 *916:8 *2610:A1 11.736 
3 *916:8 *3023:B2 18.652 
*END

*D_NET *917 0.00575351
*CONN
*I *2613:A1 I *D gf180mcu_fd_sc_mcu7t5v0__nor2_1
*I *3031:B2 I *D gf180mcu_fd_sc_mcu7t5v0__aoi222_1
*I *3146:Q O *D gf180mcu_fd_sc_mcu7t5v0__dffq_1
*CAP
1 *2613:A1 5.46531e-05
2 *3031:B2 0.0009828
3 *3146:Q 0
4 *917:4 0.00103745
5 *2611:A2 *3031:B2 3.80391e-05
6 *2614:A3 *2613:A1 0.000376901
7 *2614:A3 *3031:B2 0.000123846
8 *2627:A2 *3031:B2 0
9 *2628:A1 *3031:B2 0.000577482
10 *2636:A1 *3031:B2 7.3227e-05
11 *3007:A1 *3031:B2 0.000142809
12 *3023:A1 *3031:B2 0
13 *3023:B2 *3031:B2 7.861e-05
14 *3031:B1 *3031:B2 4.58601e-06
15 *3040:A2 *3031:B2 4.58601e-06
16 *3147:D *2613:A1 9.4764e-05
17 *3147:D *3031:B2 3.07734e-05
18 *3151:D *3031:B2 0.00045128
19 *764:89 *3031:B2 7.34664e-05
20 *799:40 *3031:B2 0.00103962
21 *799:42 *3031:B2 0.000196614
22 *899:8 *3031:B2 0.000372003
23 *903:8 *3031:B2 0
*RES
1 *3146:Q *917:4 4.5 
2 *917:4 *3031:B2 23.608 
3 *917:4 *2613:A1 5.488 
*END

*D_NET *918 0.00347869
*CONN
*I *3040:B2 I *D gf180mcu_fd_sc_mcu7t5v0__aoi222_1
*I *2616:A1 I *D gf180mcu_fd_sc_mcu7t5v0__nor2_1
*I *3147:Q O *D gf180mcu_fd_sc_mcu7t5v0__dffq_1
*CAP
1 *3040:B2 0.000811916
2 *2616:A1 0.000217183
3 *3147:Q 0
4 *918:6 0.0010291
5 *2623:A2 *3040:B2 0.000190068
6 *2625:B *2616:A1 3.93381e-05
7 *2631:A2 *3040:B2 4.724e-05
8 *2844:A2 *2616:A1 0.000386421
9 *3007:C2 *3040:B2 0
10 *3023:B2 *2616:A1 0
11 *3023:B2 *3040:B2 0
12 *3023:C2 *3040:B2 5.45725e-05
13 *3025:A1 *3040:B2 0.000142834
14 *3031:B1 *3040:B2 4.58601e-06
15 *3033:A1 *3040:B2 5.87561e-06
16 *3040:A2 *3040:B2 4.58601e-06
17 *3040:C2 *3040:B2 0.000324233
18 *694:39 *2616:A1 0.000107858
19 *774:49 *3040:B2 1.3758e-05
20 *778:24 *3040:B2 9.91253e-05
*RES
1 *3147:Q *918:6 9 
2 *918:6 *2616:A1 11.128 
3 *918:6 *3040:B2 15.84 
*END

*D_NET *919 0.00421478
*CONN
*I *2978:B2 I *D gf180mcu_fd_sc_mcu7t5v0__aoi222_1
*I *2619:A1 I *D gf180mcu_fd_sc_mcu7t5v0__nor2_1
*I *3148:Q O *D gf180mcu_fd_sc_mcu7t5v0__dffq_1
*CAP
1 *2978:B2 0.000472229
2 *2619:A1 0.000349471
3 *3148:Q 0
4 *919:4 0.0008217
5 *2597:A1 *2978:B2 4.26303e-05
6 *2597:A2 *2978:B2 1.08231e-05
7 *2844:A2 *2619:A1 9.02111e-05
8 *2978:C1 *2619:A1 0
9 *2978:C1 *2978:B2 0.000103655
10 *3378:I *2978:B2 8.51934e-05
11 *3379:I *2978:B2 0.000142194
12 *680:47 *2619:A1 0
13 *693:8 *2619:A1 0.000156903
14 *693:8 *2978:B2 0.000315892
15 *693:10 *2619:A1 0.000443057
16 *693:12 *2619:A1 0.000118153
17 *693:14 *2619:A1 0.000197957
18 *693:98 *2978:B2 0.000364779
19 *799:105 *2619:A1 0.000499934
*RES
1 *3148:Q *919:4 4.5 
2 *919:4 *2619:A1 18.364 
3 *919:4 *2978:B2 9.06 
*END

*D_NET *920 0.00247542
*CONN
*I *2991:A1 I *D gf180mcu_fd_sc_mcu7t5v0__aoi222_1
*I *2622:A1 I *D gf180mcu_fd_sc_mcu7t5v0__nor2_1
*I *3149:Q O *D gf180mcu_fd_sc_mcu7t5v0__dffq_1
*CAP
1 *2991:A1 0.000490996
2 *2622:A1 0.000155847
3 *3149:Q 0
4 *920:6 0.000646842
5 *2630:A2 *2991:A1 2.23783e-05
6 *2978:C1 *2622:A1 6.05336e-05
7 *2978:C1 *2991:A1 0.000205793
8 *2991:C2 *2991:A1 5.43116e-05
9 *3009:A1 *2622:A1 0.000386421
10 *3015:A1 *2991:A1 0.000261936
11 *3025:A1 *2991:A1 4.19725e-05
12 *3152:CLK *2622:A1 0
13 *3152:CLK *2991:A1 0
14 *765:62 *2991:A1 0.00014839
*RES
1 *3149:Q *920:6 9 
2 *920:6 *2622:A1 10.52 
3 *920:6 *2991:A1 13.256 
*END

*D_NET *921 0.00286862
*CONN
*I *2936:A2 I *D gf180mcu_fd_sc_mcu7t5v0__nor2_1
*I *2945:S I *D gf180mcu_fd_sc_mcu7t5v0__mux2_2
*I *2938:A2 I *D gf180mcu_fd_sc_mcu7t5v0__nor3_1
*I *2947:A2 I *D gf180mcu_fd_sc_mcu7t5v0__and2_1
*I *3232:Q O *D gf180mcu_fd_sc_mcu7t5v0__dffq_1
*CAP
1 *2936:A2 0
2 *2945:S 0
3 *2938:A2 7.71907e-05
4 *2947:A2 2.61514e-05
5 *3232:Q 0.000240508
6 *921:21 0.000180043
7 *921:10 0.000323313
8 *921:8 0.000434818
9 *921:8 *2936:A1 1.15275e-05
10 *921:10 *2938:A1 2.48868e-05
11 *921:10 *922:25 5.76063e-06
12 *2938:A3 *2938:A2 0.000142809
13 *2948:A1 *921:10 0.000601733
14 *2953:A1 *2938:A2 0.000197178
15 *2953:B2 *2938:A2 5.18792e-05
16 *3231:D *2947:A2 2.57058e-06
17 *3231:D *921:10 6.2265e-05
18 *3231:D *921:21 0.000146657
19 *3231:CLK *2938:A2 3.19219e-05
20 *3231:CLK *921:8 0
21 *155:10 *921:21 9.26705e-05
22 *203:10 *2938:A2 1.31444e-05
23 *548:12 *921:10 9.88736e-06
24 *548:12 *921:21 0.000191702
*RES
1 *3232:Q *921:8 6.02 
2 *921:8 *921:10 2.052 
3 *921:10 *2947:A2 4.728 
4 *921:10 *921:21 1.368 
5 *921:21 *2938:A2 14.488 
6 *921:21 *2945:S 4.5 
7 *921:8 *2936:A2 4.5 
*END

*D_NET *922 0.00333903
*CONN
*I *2936:A1 I *D gf180mcu_fd_sc_mcu7t5v0__nor2_1
*I *2946:A1 I *D gf180mcu_fd_sc_mcu7t5v0__nand2_1
*I *2947:A1 I *D gf180mcu_fd_sc_mcu7t5v0__and2_1
*I *2938:A1 I *D gf180mcu_fd_sc_mcu7t5v0__nor3_1
*I *3233:Q O *D gf180mcu_fd_sc_mcu7t5v0__dffq_1
*CAP
1 *2936:A1 1.71324e-05
2 *2946:A1 0.00017257
3 *2947:A1 5.88629e-05
4 *2938:A1 0.000368998
5 *3233:Q 0
6 *922:34 0.000240587
7 *922:25 0.000360275
8 *922:4 0.000619525
9 *2938:A1 *2937:A2 0.000285874
10 *2946:A2 *2936:A1 3.82054e-05
11 *2946:A2 *2947:A1 0.000105022
12 *2946:A2 *922:34 7.70742e-05
13 *2948:A1 *2946:A1 0
14 *2948:A1 *922:25 1.58383e-05
15 *2948:A3 *922:25 0
16 *2953:B2 *922:25 0
17 *3231:D *2936:A1 8.55327e-05
18 *3231:D *2947:A1 0.000369754
19 *3231:D *922:25 3.32161e-05
20 *3231:D *922:34 0.000310356
21 *3231:CLK *2938:A1 0.000135624
22 *3231:CLK *922:25 0
23 *548:12 *2938:A1 2.40328e-06
24 *921:8 *2936:A1 1.15275e-05
25 *921:10 *2938:A1 2.48868e-05
26 *921:10 *922:25 5.76063e-06
*RES
1 *3233:Q *922:4 4.5 
2 *922:4 *2938:A1 7.388 
3 *922:4 *922:25 10.52 
4 *922:25 *2947:A1 5.488 
5 *922:25 *922:34 0.836 
6 *922:34 *2946:A1 14.488 
7 *922:34 *2936:A1 4.88 
*END

*D_NET *923 0.00673996
*CONN
*I *2954:A2 I *D gf180mcu_fd_sc_mcu7t5v0__nand4_1
*I *2955:A3 I *D gf180mcu_fd_sc_mcu7t5v0__nand4_1
*I *2950:A1 I *D gf180mcu_fd_sc_mcu7t5v0__aoi21_1
*I *2484:I I *D gf180mcu_fd_sc_mcu7t5v0__clkinv_1
*I *2937:A2 I *D gf180mcu_fd_sc_mcu7t5v0__nand2_1
*I *3234:Q O *D gf180mcu_fd_sc_mcu7t5v0__dffq_1
*CAP
1 *2954:A2 8.8686e-05
2 *2955:A3 8.73523e-05
3 *2950:A1 4.01378e-05
4 *2484:I 0.000826531
5 *2937:A2 0.000417834
6 *3234:Q 0
7 *923:34 0.000237383
8 *923:21 0.000936423
9 *923:19 0.000161011
10 *923:4 0.000490159
11 *2955:A3 *2954:A1 7.90644e-05
12 *2955:A3 *924:17 5.97012e-05
13 *923:34 *2954:A1 7.02696e-05
14 *2938:A1 *2937:A2 0.000285874
15 *2939:A4 *2937:A2 4.11708e-05
16 *2939:A4 *2950:A1 0.000310828
17 *2939:A4 *2954:A2 1.31249e-05
18 *2942:A1 *2484:I 0
19 *2944:A1 *2484:I 3.81447e-05
20 *2949:A2 *2484:I 0
21 *2949:A2 *2954:A2 1.20079e-05
22 *2950:A2 *2937:A2 1.55463e-05
23 *2950:A2 *2954:A2 0.000147305
24 *2950:A2 *923:19 9.1236e-05
25 *2950:B *2950:A1 0.000134625
26 *2950:B *2955:A3 0.000140167
27 *2951:A2 *2484:I 8.59214e-05
28 *2951:A2 *923:34 5.18232e-05
29 *2954:A3 *2954:A2 3.08902e-05
30 *2955:A4 *923:34 4.4998e-05
31 *2957:A2 *2954:A2 4.57884e-05
32 *540:8 *2937:A2 0.000235608
33 *546:10 *2484:I 0.000452674
34 *548:12 *2937:A2 0.000355832
35 *548:12 *2954:A2 3.40562e-05
36 *548:12 *923:19 5.0199e-05
37 *548:34 *2484:I 4.84492e-05
38 *548:34 *923:34 3.45972e-05
39 *551:12 *2484:I 0
40 *687:40 *2484:I 0.000351554
41 *687:49 *2484:I 0.000144734
42 *791:30 *2484:I 4.82579e-05
*RES
1 *3234:Q *923:4 4.5 
2 *923:4 *2937:A2 8.452 
3 *923:4 *923:19 0.684 
4 *923:19 *923:21 4.5 
5 *923:21 *2484:I 14.928 
6 *923:21 *923:34 0.988 
7 *923:34 *2950:A1 9.836 
8 *923:34 *2955:A3 9.912 
9 *923:19 *2954:A2 5.64 
*END

*D_NET *924 0.00229454
*CONN
*I *2955:A2 I *D gf180mcu_fd_sc_mcu7t5v0__nand4_1
*I *2954:A1 I *D gf180mcu_fd_sc_mcu7t5v0__nand4_1
*I *2483:I I *D gf180mcu_fd_sc_mcu7t5v0__clkinv_1
*I *3235:Q O *D gf180mcu_fd_sc_mcu7t5v0__dffq_1
*CAP
1 *2955:A2 0
2 *2954:A1 9.06576e-05
3 *2483:I 7.65413e-05
4 *3235:Q 0.000230893
5 *924:17 0.000554991
6 *924:8 0.000771767
7 *924:17 *2955:A1 7.45328e-07
8 *2939:A4 *924:17 4.04255e-05
9 *2950:B *924:17 7.42181e-05
10 *2955:A3 *2954:A1 7.90644e-05
11 *2955:A3 *924:17 5.97012e-05
12 *2955:A4 *2954:A1 0.000213194
13 *3231:CLK *924:17 1.15312e-05
14 *202:16 *2954:A1 2.0537e-05
15 *923:34 *2954:A1 7.02696e-05
*RES
1 *3235:Q *924:8 6.324 
2 *924:8 *2483:I 5.032 
3 *924:8 *924:17 3.116 
4 *924:17 *2954:A1 14.64 
5 *924:17 *2955:A2 4.5 
*END

*D_NET *925 0.00196825
*CONN
*I *2955:A1 I *D gf180mcu_fd_sc_mcu7t5v0__nand4_1
*I *2482:I I *D gf180mcu_fd_sc_mcu7t5v0__clkinv_1
*I *3236:Q O *D gf180mcu_fd_sc_mcu7t5v0__dffq_1
*CAP
1 *2955:A1 0.00011576
2 *2482:I 0
3 *3236:Q 0.000446401
4 *925:12 0.000562162
5 *925:12 *926:10 0
6 *2950:B *2955:A1 0
7 *2950:B *925:12 0
8 *2960:A2 *925:12 0.000159942
9 *2962:A2 *925:12 0.000200659
10 *202:16 *925:12 0.000255722
11 *553:12 *2955:A1 4.50449e-05
12 *553:12 *925:12 0.000181814
13 *924:17 *2955:A1 7.45328e-07
*RES
1 *3236:Q *925:12 17.604 
2 *925:12 *2482:I 4.5 
3 *925:12 *2955:A1 5.412 
*END

*D_NET *926 0.00393109
*CONN
*I *2960:A1 I *D gf180mcu_fd_sc_mcu7t5v0__nand2_1
*I *2958:A1 I *D gf180mcu_fd_sc_mcu7t5v0__xnor2_1
*I *2939:A2 I *D gf180mcu_fd_sc_mcu7t5v0__nand4_1
*I *3237:Q O *D gf180mcu_fd_sc_mcu7t5v0__dffq_1
*CAP
1 *2960:A1 0
2 *2958:A1 0.000170736
3 *2939:A2 0.000318529
4 *3237:Q 7.98965e-05
5 *926:10 0.000636503
6 *926:6 0.000227134
7 *2939:A2 *927:8 0.00026286
8 *2956:A2 *926:6 0.00026286
9 *2957:B *2958:A1 0.000136559
10 *2960:A2 *2939:A2 0
11 *2960:A2 *926:6 3.73535e-05
12 *2960:A2 *926:10 0
13 *2961:A1 *926:10 4.07251e-05
14 *2962:A2 *926:10 8.8425e-05
15 *2963:A1 *2939:A2 0
16 *2963:A1 *926:10 0
17 *2963:A2 *926:6 0.000202397
18 *3236:CLK *2939:A2 0
19 *3319:I *2958:A1 0.000901106
20 *3319:I *926:6 0
21 *535:10 *2939:A2 8.8425e-05
22 *535:32 *2939:A2 0.000255722
23 *545:32 *2939:A2 0
24 *553:12 *926:6 5.76749e-06
25 *553:12 *926:10 0.000136499
26 *792:10 *2939:A2 7.95952e-05
27 *925:12 *926:10 0
*RES
1 *3237:Q *926:6 5.64 
2 *926:6 *926:10 5.792 
3 *926:10 *2939:A2 11.888 
4 *926:10 *2958:A1 11.356 
5 *926:6 *2960:A1 4.5 
*END

*D_NET *927 0.00447039
*CONN
*I *2962:A1 I *D gf180mcu_fd_sc_mcu7t5v0__xor2_1
*I *2939:A1 I *D gf180mcu_fd_sc_mcu7t5v0__nand4_1
*I *3238:Q O *D gf180mcu_fd_sc_mcu7t5v0__dffq_1
*CAP
1 *2962:A1 0.00028508
2 *2939:A1 3.28034e-05
3 *3238:Q 0.000497431
4 *927:8 0.000815314
5 *2939:A2 *927:8 0.00026286
6 *2941:A1 *2962:A1 2.57058e-06
7 *2941:A1 *927:8 4.2318e-06
8 *2941:A2 *2962:A1 9.36884e-05
9 *2942:A1 *2962:A1 7.71326e-05
10 *2943:A2 *2962:A1 1.44832e-05
11 *2949:A2 *2962:A1 8.84331e-05
12 *2955:A4 *2962:A1 5.66926e-06
13 *2959:A1 *927:8 8.95196e-05
14 *2960:A2 *2962:A1 7.20635e-05
15 *3237:D *927:8 0
16 *3318:I *927:8 0.000199573
17 *202:16 *2962:A1 0.000630433
18 *219:14 *927:8 0.000323208
19 *535:12 *927:8 0.000226501
20 *535:32 *2962:A1 0.000169363
21 *535:32 *927:8 4.24903e-05
22 *535:44 *2962:A1 0.000355538
23 *545:32 *2962:A1 1.94858e-05
24 *548:34 *2962:A1 1.37763e-05
25 *686:36 *927:8 4.88227e-05
26 *686:42 *927:8 3.98546e-05
27 *703:56 *927:8 6.00599e-05
*RES
1 *3238:Q *927:8 9.668 
2 *927:8 *2939:A1 4.728 
3 *927:8 *2962:A1 17.452 
*END
