*SPEF "ieee 1481-1999"
*DESIGN "frequency_counter"
*DATE "14:44:43 Monday August 31, 2026"
*VENDOR "The OpenROAD Project"
*PROGRAM "OpenROAD"
*VERSION "26Q1-1024-gdcf36133a"
*DESIGN_FLOW "NAME_SCOPE LOCAL" "PIN_CAP NONE"
*DIVIDER /
*DELIMITER :
*BUS_DELIMITER []
*T_UNIT 1 NS
*C_UNIT 1 PF
*R_UNIT 1 OHM
*L_UNIT 1 HENRY

*NAME_MAP
*1 ACK_O
*2 ADDR_I[0]
*3 ADDR_I[1]
*4 ADDR_I[2]
*5 ADDR_I[3]
*6 ADDR_I[4]
*7 ADDR_I[5]
*8 ADDR_I[6]
*9 ADDR_I[7]
*10 CLK_I
*11 CYC_I
*12 DAT_I[0]
*13 DAT_I[1]
*14 DAT_I[2]
*15 DAT_I[3]
*16 DAT_I[4]
*17 DAT_I[5]
*18 DAT_I[6]
*19 DAT_I[7]
*20 DAT_O[0]
*21 DAT_O[1]
*22 DAT_O[2]
*23 DAT_O[3]
*24 DAT_O[4]
*25 DAT_O[5]
*26 DAT_O[6]
*27 DAT_O[7]
*28 ERR_O
*29 RST_I
*30 net
*31 STB_I
*34 WE_I
*35 bypass_pin_control[0]
*36 bypass_pin_control[1]
*37 bypass_pin_control[2]
*38 ext_rst_i
*39 pga_gain_control[0]
*40 pga_gain_control[1]
*41 pga_gain_control[2]
*42 signal_input
*43 trigger_signal_out
*44 _0000_
*45 _0001_
*46 _0002_
*47 _0003_
*48 _0004_
*49 _0005_
*50 _0006_
*51 _0007_
*52 _0008_
*53 _0009_
*54 _0010_
*55 _0011_
*56 _0012_
*57 _0013_
*58 _0014_
*59 _0015_
*60 _0016_
*61 _0017_
*62 _0018_
*63 _0019_
*64 _0020_
*65 _0021_
*66 _0022_
*67 _0023_
*68 _0024_
*69 _0025_
*70 _0026_
*71 _0027_
*72 _0028_
*73 _0029_
*74 _0030_
*75 _0031_
*76 _0032_
*77 _0033_
*78 _0034_
*79 _0035_
*80 _0036_
*81 _0037_
*82 _0038_
*83 _0039_
*84 _0040_
*85 _0041_
*86 _0042_
*87 _0043_
*88 _0044_
*89 _0045_
*90 _0046_
*91 _0047_
*92 _0048_
*93 _0049_
*94 _0050_
*95 _0051_
*96 _0052_
*97 _0053_
*98 _0054_
*99 _0055_
*100 _0056_
*101 _0057_
*102 _0058_
*103 _0059_
*104 _0060_
*105 _0061_
*106 _0062_
*107 _0063_
*108 _0064_
*109 _0065_
*110 _0066_
*111 _0067_
*112 _0068_
*113 _0069_
*114 _0070_
*115 _0071_
*116 _0072_
*117 _0073_
*118 _0074_
*119 _0075_
*120 _0076_
*121 _0077_
*122 _0078_
*123 _0079_
*124 _0080_
*125 _0081_
*126 _0082_
*127 _0083_
*128 _0084_
*129 _0085_
*130 _0086_
*131 _0087_
*132 _0088_
*133 _0089_
*134 _0090_
*135 _0091_
*136 _0092_
*137 _0093_
*138 _0094_
*139 _0095_
*140 _0096_
*141 _0097_
*142 _0098_
*143 _0099_
*144 _0100_
*145 _0101_
*146 _0102_
*147 _0103_
*148 _0104_
*149 _0105_
*150 _0106_
*151 _0107_
*152 _0108_
*153 _0109_
*154 _0110_
*155 _0111_
*156 _0112_
*157 _0113_
*158 _0114_
*159 _0115_
*160 _0116_
*161 _0117_
*162 _0118_
*163 _0119_
*164 _0120_
*165 _0121_
*166 _0122_
*167 _0123_
*168 _0124_
*169 _0125_
*170 _0126_
*171 _0127_
*172 _0128_
*173 _0129_
*174 _0130_
*175 _0131_
*176 _0132_
*177 _0133_
*178 _0134_
*179 _0135_
*180 _0136_
*181 _0137_
*182 _0138_
*183 _0139_
*184 _0140_
*185 _0141_
*186 _0142_
*187 _0143_
*188 _0144_
*189 _0145_
*190 _0146_
*191 _0147_
*192 _0148_
*193 _0149_
*194 _0150_
*195 _0151_
*196 _0152_
*197 _0153_
*198 _0154_
*199 _0155_
*200 _0156_
*201 _0157_
*202 _0158_
*203 _0159_
*204 _0160_
*205 _0161_
*206 _0162_
*207 _0163_
*208 _0164_
*209 _0165_
*210 _0166_
*211 _0167_
*212 _0168_
*213 _0169_
*214 _0170_
*215 _0171_
*216 _0172_
*217 _0173_
*218 _0174_
*219 _0175_
*220 _0176_
*221 _0177_
*222 _0178_
*223 _0179_
*224 _0180_
*225 _0181_
*226 _0182_
*227 _0183_
*228 _0184_
*229 _0185_
*230 _0186_
*231 _0187_
*232 _0188_
*233 _0189_
*234 _0190_
*235 _0191_
*236 _0192_
*237 _0193_
*238 _0194_
*239 _0195_
*240 _0196_
*241 _0197_
*242 _0198_
*243 _0199_
*244 _0200_
*245 _0202_
*246 _0203_
*247 _0204_
*248 _0205_
*249 _0206_
*250 _0207_
*251 _0208_
*252 _0209_
*253 _0210_
*254 _0211_
*255 _0212_
*256 _0213_
*257 _0214_
*258 _0215_
*259 _0216_
*260 _0217_
*261 _0218_
*262 _0219_
*263 _0220_
*264 _0221_
*265 _0222_
*266 _0223_
*267 _0224_
*268 _0225_
*269 _0226_
*270 _0227_
*271 _0228_
*272 _0229_
*273 _0230_
*274 _0231_
*275 _0232_
*276 _0233_
*277 _0234_
*278 _0235_
*279 _0236_
*280 _0237_
*281 _0238_
*282 _0239_
*283 _0240_
*284 _0241_
*285 _0242_
*286 _0243_
*287 _0244_
*288 _0245_
*289 _0246_
*290 _0247_
*291 _0248_
*292 _0249_
*293 _0250_
*294 _0251_
*295 _0252_
*296 _0253_
*297 _0254_
*298 _0255_
*299 _0256_
*300 _0257_
*301 _0258_
*302 _0259_
*303 _0260_
*304 _0261_
*305 _0262_
*306 _0263_
*307 _0264_
*308 _0265_
*309 _0266_
*310 _0267_
*311 _0268_
*312 _0269_
*313 _0270_
*314 _0271_
*315 _0272_
*316 _0273_
*317 _0274_
*318 _0275_
*319 _0276_
*320 _0277_
*321 _0278_
*322 _0279_
*323 _0280_
*324 _0281_
*325 _0282_
*326 _0283_
*327 _0284_
*328 _0285_
*329 _0286_
*330 _0287_
*331 _0288_
*332 _0289_
*333 _0290_
*334 _0291_
*335 _0292_
*336 _0293_
*337 _0294_
*338 _0295_
*339 _0296_
*340 _0297_
*341 _0298_
*342 _0299_
*343 _0300_
*344 _0301_
*345 _0302_
*346 _0303_
*347 _0304_
*348 _0305_
*349 _0306_
*350 _0307_
*351 _0308_
*352 _0309_
*353 _0310_
*354 _0311_
*355 _0312_
*356 _0313_
*357 _0314_
*358 _0315_
*359 _0316_
*360 _0317_
*361 _0318_
*362 _0319_
*363 _0320_
*364 _0321_
*365 _0322_
*366 _0323_
*367 _0324_
*368 _0325_
*369 _0326_
*370 _0327_
*371 _0328_
*372 _0329_
*373 _0330_
*374 _0331_
*375 _0332_
*376 _0333_
*377 _0334_
*378 _0335_
*379 _0336_
*380 _0337_
*381 _0338_
*382 _0339_
*383 _0340_
*384 _0341_
*385 _0342_
*386 _0343_
*387 _0344_
*388 _0345_
*389 _0346_
*390 _0347_
*391 _0348_
*392 _0349_
*393 _0350_
*394 _0351_
*395 _0352_
*396 _0353_
*397 _0354_
*398 _0355_
*399 _0356_
*400 _0357_
*401 _0358_
*402 _0359_
*403 _0360_
*404 _0361_
*405 _0362_
*406 _0363_
*407 _0364_
*408 _0365_
*409 _0366_
*410 _0367_
*411 _0368_
*412 _0369_
*413 _0370_
*414 _0371_
*415 _0372_
*416 _0373_
*417 _0374_
*418 _0375_
*419 _0376_
*420 _0377_
*421 _0378_
*422 _0379_
*423 _0380_
*424 _0381_
*425 _0382_
*426 _0383_
*427 _0384_
*428 _0385_
*429 _0386_
*430 _0387_
*431 _0388_
*432 _0389_
*433 _0390_
*434 _0391_
*435 _0392_
*436 _0393_
*437 _0394_
*438 _0395_
*439 _0396_
*440 _0397_
*441 _0398_
*442 _0399_
*443 _0400_
*444 _0401_
*445 _0402_
*446 _0403_
*447 _0404_
*448 _0405_
*449 _0406_
*450 _0407_
*451 _0408_
*452 _0409_
*453 _0410_
*454 _0411_
*455 _0412_
*456 _0413_
*457 _0414_
*458 _0415_
*459 _0416_
*460 _0417_
*461 _0418_
*462 _0419_
*463 _0420_
*464 _0421_
*465 _0422_
*466 _0423_
*467 _0424_
*468 _0425_
*469 _0426_
*470 _0427_
*471 _0428_
*472 _0429_
*473 _0430_
*474 _0431_
*475 _0432_
*476 _0433_
*477 _0434_
*478 _0435_
*479 _0436_
*480 _0437_
*481 _0438_
*482 _0439_
*483 _0440_
*484 _0441_
*485 _0442_
*486 _0443_
*487 _0444_
*488 _0445_
*489 _0446_
*490 _0447_
*491 _0448_
*492 _0449_
*493 _0450_
*494 _0451_
*495 _0452_
*496 _0453_
*497 _0454_
*498 _0455_
*499 _0456_
*500 _0457_
*501 _0458_
*502 _0459_
*503 _0461_
*504 _0462_
*505 _0463_
*506 _0464_
*507 _0465_
*508 _0466_
*509 _0467_
*510 _0468_
*511 _0469_
*512 _0470_
*513 _0471_
*514 _0472_
*515 _0473_
*516 _0474_
*517 _0475_
*518 _0476_
*519 _0477_
*520 _0478_
*521 _0479_
*522 _0480_
*523 _0481_
*524 _0482_
*525 _0483_
*526 _0484_
*527 _0485_
*528 _0486_
*529 _0487_
*530 _0488_
*531 _0489_
*532 _0490_
*533 _0491_
*534 _0492_
*535 _0493_
*536 _0494_
*537 _0495_
*538 _0496_
*539 _0497_
*540 _0498_
*541 _0499_
*542 _0500_
*543 _0501_
*544 _0502_
*545 _0503_
*546 _0504_
*547 _0505_
*548 _0506_
*549 _0507_
*550 _0508_
*551 _0509_
*552 _0510_
*553 _0511_
*554 _0512_
*555 _0513_
*556 _0514_
*557 _0515_
*558 _0516_
*559 _0517_
*560 _0518_
*561 _0519_
*562 _0520_
*563 _0521_
*564 _0522_
*565 _0523_
*566 _0524_
*567 _0525_
*568 _0526_
*569 _0527_
*570 _0528_
*571 _0529_
*572 _0530_
*573 _0531_
*574 _0532_
*575 _0533_
*576 _0534_
*577 _0535_
*578 _0536_
*579 _0537_
*580 _0538_
*581 _0539_
*582 _0540_
*583 _0541_
*584 _0542_
*585 _0543_
*586 _0544_
*587 _0545_
*588 _0546_
*589 _0547_
*590 _0548_
*591 _0549_
*592 _0550_
*593 _0551_
*594 _0552_
*595 _0553_
*596 _0554_
*597 _0555_
*598 _0556_
*599 _0557_
*600 _0558_
*601 _0559_
*602 _0560_
*603 _0561_
*604 _0562_
*605 _0563_
*606 _0564_
*607 _0565_
*608 _0566_
*609 _0567_
*610 _0568_
*611 _0569_
*612 _0570_
*613 _0571_
*614 _0572_
*615 _0573_
*616 _0574_
*617 _0575_
*618 _0576_
*619 _0577_
*620 _0578_
*621 _0579_
*622 _0580_
*623 _0581_
*624 _0582_
*625 _0583_
*626 _0584_
*627 _0585_
*628 _0586_
*629 _0587_
*630 _0588_
*631 _0589_
*632 _0590_
*633 _0591_
*634 _0592_
*635 _0593_
*636 _0594_
*637 _0595_
*638 _0596_
*639 _0597_
*640 _0598_
*641 _0599_
*642 _0600_
*643 _0601_
*644 _0602_
*645 _0603_
*646 _0604_
*647 _0605_
*648 _0606_
*649 _0607_
*650 _0608_
*651 _0609_
*652 _0610_
*653 _0611_
*654 _0612_
*655 _0613_
*656 _0614_
*657 _0615_
*658 _0616_
*659 _0617_
*660 _0618_
*661 _0619_
*662 _0620_
*663 _0621_
*664 _0622_
*665 _0623_
*666 _0624_
*667 _0625_
*668 _0626_
*669 _0627_
*670 _0628_
*671 _0629_
*672 _0630_
*673 _0631_
*674 _0632_
*675 _0633_
*676 _0634_
*677 _0635_
*678 _0636_
*679 _0637_
*680 _0638_
*681 _0639_
*682 _0640_
*683 _0641_
*684 _0642_
*685 _0643_
*686 afe_config_bypass_control_register\[0\]
*687 afe_config_bypass_control_register\[1\]
*688 afe_config_bypass_control_register\[2\]
*689 afe_config_bypass_control_register\[3\]
*690 afe_config_bypass_control_register\[4\]
*691 afe_config_bypass_control_register\[5\]
*692 afe_config_bypass_control_register\[6\]
*693 afe_config_bypass_control_register\[7\]
*694 clknet_0_CLK_I
*695 clknet_0_signal_input
*696 clknet_0_signal_input_regs
*697 clknet_1_0__leaf_signal_input
*698 clknet_1_0__leaf_signal_input_regs
*699 clknet_1_1__leaf_signal_input_regs
*700 clknet_4_0_0_CLK_I
*701 clknet_4_10_0_CLK_I
*702 clknet_4_11_0_CLK_I
*703 clknet_4_12_0_CLK_I
*704 clknet_4_13_0_CLK_I
*705 clknet_4_14_0_CLK_I
*706 clknet_4_15_0_CLK_I
*707 clknet_4_1_0_CLK_I
*708 clknet_4_2_0_CLK_I
*709 clknet_4_3_0_CLK_I
*710 clknet_4_4_0_CLK_I
*711 clknet_4_5_0_CLK_I
*712 clknet_4_6_0_CLK_I
*713 clknet_4_7_0_CLK_I
*714 clknet_4_8_0_CLK_I
*715 clknet_4_9_0_CLK_I
*716 counter_control_status_register\[0\]
*717 counter_control_status_register\[1\]
*718 counter_control_status_register\[2\]
*719 counter_control_status_register\[3\]
*720 counter_control_status_register\[4\]
*721 counter_control_status_register\[5\]
*722 counter_control_status_register\[6\]
*723 counter_control_status_register\[7\]
*724 input_previous_state
*725 measurement_pulse_done_internal_flag
*726 measurement_pulse_start_internal_flag
*727 measurement_state_machine\[0\]
*728 measurement_state_machine\[10\]
*729 measurement_state_machine\[11\]
*730 measurement_state_machine\[12\]
*731 measurement_state_machine\[13\]
*732 measurement_state_machine\[14\]
*733 measurement_state_machine\[15\]
*734 measurement_state_machine\[1\]
*735 measurement_state_machine\[2\]
*736 measurement_state_machine\[3\]
*737 measurement_state_machine\[4\]
*738 measurement_state_machine\[5\]
*739 measurement_state_machine\[6\]
*740 measurement_state_machine\[7\]
*741 measurement_state_machine\[8\]
*742 measurement_state_machine\[9\]
*743 net1
*744 net10
*745 net100
*746 net101
*747 net102
*748 net103
*749 net11
*750 net12
*751 net13
*752 net14
*753 net15
*754 net16
*755 net17
*756 net18
*757 net19
*758 net2
*759 net20
*760 net21
*761 net22
*762 net23
*763 net24
*764 net25
*765 net26
*766 net27
*767 net28
*768 net29
*769 net3
*770 net30
*771 net31
*772 net32
*773 net33
*774 net34
*775 net35
*776 net36
*777 net37
*778 net38
*779 net39
*780 net4
*781 net40
*782 net41
*783 net42
*784 net43
*785 net44
*786 net45
*787 net46
*788 net47
*789 net48
*790 net49
*791 net5
*792 net50
*793 net51
*794 net52
*795 net53
*796 net54
*797 net55
*798 net56
*799 net57
*800 net58
*801 net59
*802 net6
*803 net60
*804 net61
*805 net62
*806 net63
*807 net64
*808 net65
*809 net66
*810 net67
*811 net68
*812 net69
*813 net7
*814 net70
*815 net71
*816 net72
*817 net73
*818 net74
*819 net75
*820 net76
*821 net77
*822 net78
*823 net79
*824 net8
*825 net80
*826 net81
*827 net82
*828 net83
*829 net84
*830 net85
*831 net86
*832 net87
*833 net88
*834 net89
*835 net9
*836 net90
*837 net91
*838 net92
*839 net93
*840 net94
*841 net95
*842 net96
*843 net97
*844 net98
*845 net99
*846 pulse_count_threshold_register\[0\]
*847 pulse_count_threshold_register\[10\]
*848 pulse_count_threshold_register\[11\]
*849 pulse_count_threshold_register\[12\]
*850 pulse_count_threshold_register\[13\]
*851 pulse_count_threshold_register\[14\]
*852 pulse_count_threshold_register\[15\]
*853 pulse_count_threshold_register\[1\]
*854 pulse_count_threshold_register\[2\]
*855 pulse_count_threshold_register\[3\]
*856 pulse_count_threshold_register\[4\]
*857 pulse_count_threshold_register\[5\]
*858 pulse_count_threshold_register\[6\]
*859 pulse_count_threshold_register\[7\]
*860 pulse_count_threshold_register\[8\]
*861 pulse_count_threshold_register\[9\]
*862 pulse_timing_internal\[0\]
*863 pulse_timing_internal\[10\]
*864 pulse_timing_internal\[11\]
*865 pulse_timing_internal\[12\]
*866 pulse_timing_internal\[13\]
*867 pulse_timing_internal\[14\]
*868 pulse_timing_internal\[15\]
*869 pulse_timing_internal\[16\]
*870 pulse_timing_internal\[17\]
*871 pulse_timing_internal\[18\]
*872 pulse_timing_internal\[19\]
*873 pulse_timing_internal\[1\]
*874 pulse_timing_internal\[20\]
*875 pulse_timing_internal\[21\]
*876 pulse_timing_internal\[22\]
*877 pulse_timing_internal\[23\]
*878 pulse_timing_internal\[2\]
*879 pulse_timing_internal\[3\]
*880 pulse_timing_internal\[4\]
*881 pulse_timing_internal\[5\]
*882 pulse_timing_internal\[6\]
*883 pulse_timing_internal\[7\]
*884 pulse_timing_internal\[8\]
*885 pulse_timing_internal\[9\]
*886 pulse_timing_register\[0\]
*887 pulse_timing_register\[10\]
*888 pulse_timing_register\[11\]
*889 pulse_timing_register\[12\]
*890 pulse_timing_register\[13\]
*891 pulse_timing_register\[14\]
*892 pulse_timing_register\[15\]
*893 pulse_timing_register\[16\]
*894 pulse_timing_register\[17\]
*895 pulse_timing_register\[18\]
*896 pulse_timing_register\[19\]
*897 pulse_timing_register\[1\]
*898 pulse_timing_register\[20\]
*899 pulse_timing_register\[21\]
*900 pulse_timing_register\[22\]
*901 pulse_timing_register\[23\]
*902 pulse_timing_register\[2\]
*903 pulse_timing_register\[3\]
*904 pulse_timing_register\[4\]
*905 pulse_timing_register\[5\]
*906 pulse_timing_register\[6\]
*907 pulse_timing_register\[7\]
*908 pulse_timing_register\[8\]
*909 pulse_timing_register\[9\]
*910 range_finished_internal_flag
*911 range_timing_internal\[0\]
*912 range_timing_internal\[10\]
*913 range_timing_internal\[11\]
*914 range_timing_internal\[12\]
*915 range_timing_internal\[13\]
*916 range_timing_internal\[14\]
*917 range_timing_internal\[15\]
*918 range_timing_internal\[16\]
*919 range_timing_internal\[17\]
*920 range_timing_internal\[18\]
*921 range_timing_internal\[19\]
*922 range_timing_internal\[1\]
*923 range_timing_internal\[20\]
*924 range_timing_internal\[21\]
*925 range_timing_internal\[22\]
*926 range_timing_internal\[23\]
*927 range_timing_internal\[2\]
*928 range_timing_internal\[3\]
*929 range_timing_internal\[4\]
*930 range_timing_internal\[5\]
*931 range_timing_internal\[6\]
*932 range_timing_internal\[7\]
*933 range_timing_internal\[8\]
*934 range_timing_internal\[9\]
*935 range_timing_register\[0\]
*936 range_timing_register\[10\]
*937 range_timing_register\[11\]
*938 range_timing_register\[12\]
*939 range_timing_register\[13\]
*940 range_timing_register\[14\]
*941 range_timing_register\[15\]
*942 range_timing_register\[16\]
*943 range_timing_register\[17\]
*944 range_timing_register\[18\]
*945 range_timing_register\[19\]
*946 range_timing_register\[1\]
*947 range_timing_register\[20\]
*948 range_timing_register\[21\]
*949 range_timing_register\[22\]
*950 range_timing_register\[23\]
*951 range_timing_register\[2\]
*952 range_timing_register\[3\]
*953 range_timing_register\[4\]
*954 range_timing_register\[5\]
*955 range_timing_register\[6\]
*956 range_timing_register\[7\]
*957 range_timing_register\[8\]
*958 range_timing_register\[9\]
*959 signal_input_regs
*960 trigger_timer_internal\[0\]
*961 trigger_timer_internal\[1\]
*962 trigger_timer_internal\[2\]
*963 trigger_timer_internal\[3\]
*964 trigger_timer_internal\[4\]
*965 trigger_timer_internal\[5\]
*966 trigger_timer_internal\[6\]
*967 FILLER_0_104
*968 FILLER_0_108
*969 FILLER_0_110
*970 FILLER_0_124
*971 FILLER_0_132
*972 FILLER_0_138
*973 FILLER_0_140
*974 FILLER_0_180
*975 FILLER_0_189
*976 FILLER_0_197
*977 FILLER_0_2
*978 FILLER_0_201
*979 FILLER_0_203
*980 FILLER_0_206
*981 FILLER_0_240
*982 FILLER_0_248
*983 FILLER_0_252
*984 FILLER_0_269
*985 FILLER_0_271
*986 FILLER_0_288
*987 FILLER_0_350
*988 FILLER_0_36
*989 FILLER_0_61
*990 FILLER_0_65
*991 FILLER_0_67
*992 FILLER_0_70
*993 FILLER_10_10
*994 FILLER_10_100
*995 FILLER_10_104
*996 FILLER_10_115
*997 FILLER_10_117
*998 FILLER_10_161
*999 FILLER_10_177
*1000 FILLER_10_2
*1001 FILLER_10_208
*1002 FILLER_10_236
*1003 FILLER_10_244
*1004 FILLER_10_259
*1005 FILLER_10_263
*1006 FILLER_10_277
*1007 FILLER_10_285
*1008 FILLER_10_30
*1009 FILLER_10_34
*1010 FILLER_10_45
*1011 FILLER_10_47
*1012 FILLER_10_55
*1013 FILLER_10_69
*1014 FILLER_11_10
*1015 FILLER_11_116
*1016 FILLER_11_120
*1017 FILLER_11_14
*1018 FILLER_11_153
*1019 FILLER_11_190
*1020 FILLER_11_2
*1021 FILLER_11_206
*1022 FILLER_11_212
*1023 FILLER_11_216
*1024 FILLER_11_218
*1025 FILLER_11_227
*1026 FILLER_11_243
*1027 FILLER_11_253
*1028 FILLER_11_269
*1029 FILLER_11_277
*1030 FILLER_11_279
*1031 FILLER_11_282
*1032 FILLER_11_286
*1033 FILLER_11_288
*1034 FILLER_11_29
*1035 FILLER_11_323
*1036 FILLER_11_72
*1037 FILLER_12_107
*1038 FILLER_12_115
*1039 FILLER_12_117
*1040 FILLER_12_167
*1041 FILLER_12_181
*1042 FILLER_12_190
*1043 FILLER_12_206
*1044 FILLER_12_239
*1045 FILLER_12_243
*1046 FILLER_12_255
*1047 FILLER_12_263
*1048 FILLER_12_265
*1049 FILLER_12_295
*1050 FILLER_12_312
*1051 FILLER_12_314
*1052 FILLER_12_317
*1053 FILLER_12_34
*1054 FILLER_12_43
*1055 FILLER_13_106
*1056 FILLER_13_167
*1057 FILLER_13_171
*1058 FILLER_13_173
*1059 FILLER_13_182
*1060 FILLER_13_198
*1061 FILLER_13_2
*1062 FILLER_13_206
*1063 FILLER_13_270
*1064 FILLER_13_279
*1065 FILLER_13_288
*1066 FILLER_13_296
*1067 FILLER_13_300
*1068 FILLER_13_302
*1069 FILLER_13_319
*1070 FILLER_13_6
*1071 FILLER_13_8
*1072 FILLER_13_80
*1073 FILLER_13_88
*1074 FILLER_13_98
*1075 FILLER_14_107
*1076 FILLER_14_122
*1077 FILLER_14_158
*1078 FILLER_14_174
*1079 FILLER_14_2
*1080 FILLER_14_206
*1081 FILLER_14_214
*1082 FILLER_14_237
*1083 FILLER_14_259
*1084 FILLER_14_267
*1085 FILLER_14_282
*1086 FILLER_14_298
*1087 FILLER_14_306
*1088 FILLER_14_323
*1089 FILLER_14_37
*1090 FILLER_14_39
*1091 FILLER_14_83
*1092 FILLER_15_119
*1093 FILLER_15_150
*1094 FILLER_15_152
*1095 FILLER_15_161
*1096 FILLER_15_165
*1097 FILLER_15_167
*1098 FILLER_15_2
*1099 FILLER_15_203
*1100 FILLER_15_207
*1101 FILLER_15_209
*1102 FILLER_15_212
*1103 FILLER_15_220
*1104 FILLER_15_230
*1105 FILLER_15_262
*1106 FILLER_15_266
*1107 FILLER_15_282
*1108 FILLER_15_298
*1109 FILLER_15_302
*1110 FILLER_15_304
*1111 FILLER_15_311
*1112 FILLER_15_313
*1113 FILLER_15_36
*1114 FILLER_15_40
*1115 FILLER_15_6
*1116 FILLER_15_88
*1117 FILLER_16_107
*1118 FILLER_16_109
*1119 FILLER_16_135
*1120 FILLER_16_171
*1121 FILLER_16_177
*1122 FILLER_16_2
*1123 FILLER_16_201
*1124 FILLER_16_217
*1125 FILLER_16_259
*1126 FILLER_16_292
*1127 FILLER_16_294
*1128 FILLER_16_305
*1129 FILLER_16_317
*1130 FILLER_16_33
*1131 FILLER_16_332
*1132 FILLER_16_334
*1133 FILLER_16_37
*1134 FILLER_16_6
*1135 FILLER_17_10
*1136 FILLER_17_100
*1137 FILLER_17_102
*1138 FILLER_17_14
*1139 FILLER_17_150
*1140 FILLER_17_157
*1141 FILLER_17_173
*1142 FILLER_17_2
*1143 FILLER_17_212
*1144 FILLER_17_214
*1145 FILLER_17_279
*1146 FILLER_17_282
*1147 FILLER_17_29
*1148 FILLER_17_33
*1149 FILLER_17_347
*1150 FILLER_17_65
*1151 FILLER_17_69
*1152 FILLER_17_86
*1153 FILLER_17_90
*1154 FILLER_18_107
*1155 FILLER_18_115
*1156 FILLER_18_119
*1157 FILLER_18_121
*1158 FILLER_18_151
*1159 FILLER_18_167
*1160 FILLER_18_177
*1161 FILLER_18_185
*1162 FILLER_18_2
*1163 FILLER_18_241
*1164 FILLER_18_252
*1165 FILLER_18_26
*1166 FILLER_18_265
*1167 FILLER_18_267
*1168 FILLER_18_28
*1169 FILLER_18_285
*1170 FILLER_18_289
*1171 FILLER_18_37
*1172 FILLER_18_39
*1173 FILLER_18_81
*1174 FILLER_18_89
*1175 FILLER_18_97
*1176 FILLER_19_121
*1177 FILLER_19_129
*1178 FILLER_19_133
*1179 FILLER_19_142
*1180 FILLER_19_180
*1181 FILLER_19_248
*1182 FILLER_19_258
*1183 FILLER_19_266
*1184 FILLER_19_275
*1185 FILLER_19_279
*1186 FILLER_19_318
*1187 FILLER_19_35
*1188 FILLER_19_88
*1189 FILLER_1_134
*1190 FILLER_1_138
*1191 FILLER_1_142
*1192 FILLER_1_150
*1193 FILLER_1_154
*1194 FILLER_1_18
*1195 FILLER_1_192
*1196 FILLER_1_2
*1197 FILLER_1_200
*1198 FILLER_1_209
*1199 FILLER_1_212
*1200 FILLER_1_245
*1201 FILLER_1_249
*1202 FILLER_1_290
*1203 FILLER_1_294
*1204 FILLER_1_313
*1205 FILLER_1_346
*1206 FILLER_1_348
*1207 FILLER_1_64
*1208 FILLER_1_82
*1209 FILLER_1_90
*1210 FILLER_1_94
*1211 FILLER_1_96
*1212 FILLER_20_107
*1213 FILLER_20_111
*1214 FILLER_20_120
*1215 FILLER_20_128
*1216 FILLER_20_159
*1217 FILLER_20_163
*1218 FILLER_20_172
*1219 FILLER_20_174
*1220 FILLER_20_177
*1221 FILLER_20_185
*1222 FILLER_20_187
*1223 FILLER_20_2
*1224 FILLER_20_209
*1225 FILLER_20_213
*1226 FILLER_20_215
*1227 FILLER_20_256
*1228 FILLER_20_264
*1229 FILLER_20_268
*1230 FILLER_20_308
*1231 FILLER_20_349
*1232 FILLER_20_37
*1233 FILLER_20_39
*1234 FILLER_21_128
*1235 FILLER_21_142
*1236 FILLER_21_146
*1237 FILLER_21_148
*1238 FILLER_21_178
*1239 FILLER_21_180
*1240 FILLER_21_2
*1241 FILLER_21_212
*1242 FILLER_21_242
*1243 FILLER_21_318
*1244 FILLER_21_40
*1245 FILLER_21_44
*1246 FILLER_21_72
*1247 FILLER_22_161
*1248 FILLER_22_174
*1249 FILLER_22_194
*1250 FILLER_22_210
*1251 FILLER_22_226
*1252 FILLER_22_228
*1253 FILLER_22_242
*1254 FILLER_22_244
*1255 FILLER_22_255
*1256 FILLER_22_268
*1257 FILLER_22_31
*1258 FILLER_22_314
*1259 FILLER_22_333
*1260 FILLER_22_37
*1261 FILLER_22_45
*1262 FILLER_22_97
*1263 FILLER_23_124
*1264 FILLER_23_139
*1265 FILLER_23_150
*1266 FILLER_23_165
*1267 FILLER_23_174
*1268 FILLER_23_176
*1269 FILLER_23_185
*1270 FILLER_23_19
*1271 FILLER_23_2
*1272 FILLER_23_200
*1273 FILLER_23_208
*1274 FILLER_23_241
*1275 FILLER_23_243
*1276 FILLER_23_252
*1277 FILLER_23_254
*1278 FILLER_23_265
*1279 FILLER_23_273
*1280 FILLER_23_290
*1281 FILLER_23_316
*1282 FILLER_23_37
*1283 FILLER_23_6
*1284 FILLER_23_8
*1285 FILLER_23_80
*1286 FILLER_23_84
*1287 FILLER_24_107
*1288 FILLER_24_111
*1289 FILLER_24_153
*1290 FILLER_24_18
*1291 FILLER_24_20
*1292 FILLER_24_241
*1293 FILLER_24_247
*1294 FILLER_24_263
*1295 FILLER_24_271
*1296 FILLER_24_29
*1297 FILLER_24_33
*1298 FILLER_24_37
*1299 FILLER_24_45
*1300 FILLER_25_10
*1301 FILLER_25_128
*1302 FILLER_25_136
*1303 FILLER_25_142
*1304 FILLER_25_150
*1305 FILLER_25_171
*1306 FILLER_25_195
*1307 FILLER_25_2
*1308 FILLER_25_203
*1309 FILLER_25_207
*1310 FILLER_25_209
*1311 FILLER_25_212
*1312 FILLER_25_214
*1313 FILLER_25_221
*1314 FILLER_25_223
*1315 FILLER_25_253
*1316 FILLER_25_255
*1317 FILLER_25_264
*1318 FILLER_25_306
*1319 FILLER_25_308
*1320 FILLER_25_315
*1321 FILLER_25_317
*1322 FILLER_25_43
*1323 FILLER_25_97
*1324 FILLER_26_146
*1325 FILLER_26_150
*1326 FILLER_26_158
*1327 FILLER_26_162
*1328 FILLER_26_164
*1329 FILLER_26_177
*1330 FILLER_26_2
*1331 FILLER_26_202
*1332 FILLER_26_212
*1333 FILLER_26_216
*1334 FILLER_26_226
*1335 FILLER_26_242
*1336 FILLER_26_244
*1337 FILLER_26_265
*1338 FILLER_26_297
*1339 FILLER_26_301
*1340 FILLER_26_303
*1341 FILLER_26_323
*1342 FILLER_26_325
*1343 FILLER_26_43
*1344 FILLER_26_45
*1345 FILLER_26_6
*1346 FILLER_26_81
*1347 FILLER_26_89
*1348 FILLER_27_128
*1349 FILLER_27_136
*1350 FILLER_27_142
*1351 FILLER_27_144
*1352 FILLER_27_2
*1353 FILLER_27_208
*1354 FILLER_27_212
*1355 FILLER_27_214
*1356 FILLER_27_265
*1357 FILLER_27_273
*1358 FILLER_27_277
*1359 FILLER_27_279
*1360 FILLER_27_290
*1361 FILLER_27_306
*1362 FILLER_27_310
*1363 FILLER_27_42
*1364 FILLER_27_46
*1365 FILLER_27_54
*1366 FILLER_27_6
*1367 FILLER_27_80
*1368 FILLER_27_96
*1369 FILLER_27_98
*1370 FILLER_28_103
*1371 FILLER_28_107
*1372 FILLER_28_116
*1373 FILLER_28_118
*1374 FILLER_28_144
*1375 FILLER_28_161
*1376 FILLER_28_169
*1377 FILLER_28_173
*1378 FILLER_28_177
*1379 FILLER_28_181
*1380 FILLER_28_2
*1381 FILLER_28_272
*1382 FILLER_28_280
*1383 FILLER_28_300
*1384 FILLER_28_304
*1385 FILLER_28_317
*1386 FILLER_28_321
*1387 FILLER_28_37
*1388 FILLER_28_45
*1389 FILLER_28_52
*1390 FILLER_28_83
*1391 FILLER_28_99
*1392 FILLER_29_10
*1393 FILLER_29_110
*1394 FILLER_29_114
*1395 FILLER_29_130
*1396 FILLER_29_138
*1397 FILLER_29_142
*1398 FILLER_29_160
*1399 FILLER_29_168
*1400 FILLER_29_178
*1401 FILLER_29_186
*1402 FILLER_29_190
*1403 FILLER_29_192
*1404 FILLER_29_198
*1405 FILLER_29_2
*1406 FILLER_29_226
*1407 FILLER_29_273
*1408 FILLER_29_36
*1409 FILLER_29_44
*1410 FILLER_29_72
*1411 FILLER_29_76
*1412 FILLER_29_78
*1413 FILLER_2_136
*1414 FILLER_2_144
*1415 FILLER_2_185
*1416 FILLER_2_189
*1417 FILLER_2_2
*1418 FILLER_2_220
*1419 FILLER_2_222
*1420 FILLER_2_231
*1421 FILLER_2_247
*1422 FILLER_2_313
*1423 FILLER_2_34
*1424 FILLER_2_350
*1425 FILLER_2_37
*1426 FILLER_2_93
*1427 FILLER_30_10
*1428 FILLER_30_107
*1429 FILLER_30_12
*1430 FILLER_30_123
*1431 FILLER_30_154
*1432 FILLER_30_158
*1433 FILLER_30_160
*1434 FILLER_30_177
*1435 FILLER_30_19
*1436 FILLER_30_193
*1437 FILLER_30_197
*1438 FILLER_30_2
*1439 FILLER_30_215
*1440 FILLER_30_223
*1441 FILLER_30_225
*1442 FILLER_30_241
*1443 FILLER_30_247
*1444 FILLER_30_273
*1445 FILLER_30_29
*1446 FILLER_30_33
*1447 FILLER_30_37
*1448 FILLER_31_126
*1449 FILLER_31_137
*1450 FILLER_31_139
*1451 FILLER_31_156
*1452 FILLER_31_2
*1453 FILLER_31_205
*1454 FILLER_31_209
*1455 FILLER_31_212
*1456 FILLER_31_216
*1457 FILLER_31_297
*1458 FILLER_31_299
*1459 FILLER_31_331
*1460 FILLER_31_41
*1461 FILLER_31_49
*1462 FILLER_31_51
*1463 FILLER_31_72
*1464 FILLER_31_82
*1465 FILLER_32_103
*1466 FILLER_32_107
*1467 FILLER_32_111
*1468 FILLER_32_138
*1469 FILLER_32_167
*1470 FILLER_32_18
*1471 FILLER_32_181
*1472 FILLER_32_211
*1473 FILLER_32_22
*1474 FILLER_32_24
*1475 FILLER_32_243
*1476 FILLER_32_305
*1477 FILLER_32_31
*1478 FILLER_32_317
*1479 FILLER_32_321
*1480 FILLER_32_44
*1481 FILLER_32_59
*1482 FILLER_32_89
*1483 FILLER_33_2
*1484 FILLER_33_206
*1485 FILLER_33_221
*1486 FILLER_33_253
*1487 FILLER_33_255
*1488 FILLER_33_262
*1489 FILLER_33_290
*1490 FILLER_33_31
*1491 FILLER_33_33
*1492 FILLER_33_330
*1493 FILLER_33_332
*1494 FILLER_33_4
*1495 FILLER_33_72
*1496 FILLER_34_107
*1497 FILLER_34_109
*1498 FILLER_34_145
*1499 FILLER_34_161
*1500 FILLER_34_177
*1501 FILLER_34_195
*1502 FILLER_34_199
*1503 FILLER_34_2
*1504 FILLER_34_229
*1505 FILLER_34_247
*1506 FILLER_34_267
*1507 FILLER_34_271
*1508 FILLER_34_297
*1509 FILLER_34_34
*1510 FILLER_34_4
*1511 FILLER_34_51
*1512 FILLER_34_55
*1513 FILLER_34_93
*1514 FILLER_35_102
*1515 FILLER_35_106
*1516 FILLER_35_137
*1517 FILLER_35_139
*1518 FILLER_35_148
*1519 FILLER_35_156
*1520 FILLER_35_160
*1521 FILLER_35_182
*1522 FILLER_35_190
*1523 FILLER_35_194
*1524 FILLER_35_2
*1525 FILLER_35_238
*1526 FILLER_35_246
*1527 FILLER_35_250
*1528 FILLER_35_282
*1529 FILLER_35_58
*1530 FILLER_35_6
*1531 FILLER_35_62
*1532 FILLER_35_68
*1533 FILLER_35_72
*1534 FILLER_35_8
*1535 FILLER_36_158
*1536 FILLER_36_162
*1537 FILLER_36_164
*1538 FILLER_36_185
*1539 FILLER_36_189
*1540 FILLER_36_2
*1541 FILLER_36_239
*1542 FILLER_36_243
*1543 FILLER_36_247
*1544 FILLER_36_298
*1545 FILLER_36_95
*1546 FILLER_37_105
*1547 FILLER_37_109
*1548 FILLER_37_148
*1549 FILLER_37_156
*1550 FILLER_37_191
*1551 FILLER_37_226
*1552 FILLER_37_256
*1553 FILLER_37_308
*1554 FILLER_37_310
*1555 FILLER_37_345
*1556 FILLER_37_37
*1557 FILLER_37_41
*1558 FILLER_37_43
*1559 FILLER_37_52
*1560 FILLER_37_68
*1561 FILLER_38_101
*1562 FILLER_38_115
*1563 FILLER_38_119
*1564 FILLER_38_153
*1565 FILLER_38_157
*1566 FILLER_38_18
*1567 FILLER_38_183
*1568 FILLER_38_20
*1569 FILLER_38_204
*1570 FILLER_38_238
*1571 FILLER_38_242
*1572 FILLER_38_244
*1573 FILLER_38_247
*1574 FILLER_38_251
*1575 FILLER_38_253
*1576 FILLER_38_262
*1577 FILLER_38_29
*1578 FILLER_38_317
*1579 FILLER_38_33
*1580 FILLER_38_37
*1581 FILLER_38_53
*1582 FILLER_38_86
*1583 FILLER_39_10
*1584 FILLER_39_121
*1585 FILLER_39_133
*1586 FILLER_39_135
*1587 FILLER_39_156
*1588 FILLER_39_160
*1589 FILLER_39_18
*1590 FILLER_39_2
*1591 FILLER_39_200
*1592 FILLER_39_212
*1593 FILLER_39_238
*1594 FILLER_39_246
*1595 FILLER_39_248
*1596 FILLER_39_278
*1597 FILLER_39_288
*1598 FILLER_39_314
*1599 FILLER_39_50
*1600 FILLER_39_54
*1601 FILLER_39_80
*1602 FILLER_39_88
*1603 FILLER_3_101
*1604 FILLER_3_18
*1605 FILLER_3_196
*1606 FILLER_3_2
*1607 FILLER_3_206
*1608 FILLER_3_22
*1609 FILLER_3_222
*1610 FILLER_3_226
*1611 FILLER_3_228
*1612 FILLER_3_258
*1613 FILLER_3_260
*1614 FILLER_3_282
*1615 FILLER_3_331
*1616 FILLER_40_10
*1617 FILLER_40_107
*1618 FILLER_40_133
*1619 FILLER_40_177
*1620 FILLER_40_2
*1621 FILLER_40_209
*1622 FILLER_40_213
*1623 FILLER_40_222
*1624 FILLER_40_224
*1625 FILLER_40_233
*1626 FILLER_40_241
*1627 FILLER_40_347
*1628 FILLER_40_37
*1629 FILLER_40_45
*1630 FILLER_40_49
*1631 FILLER_40_85
*1632 FILLER_40_95
*1633 FILLER_41_116
*1634 FILLER_41_124
*1635 FILLER_41_128
*1636 FILLER_41_136
*1637 FILLER_41_142
*1638 FILLER_41_144
*1639 FILLER_41_196
*1640 FILLER_41_2
*1641 FILLER_41_204
*1642 FILLER_41_208
*1643 FILLER_41_232
*1644 FILLER_41_311
*1645 FILLER_41_47
*1646 FILLER_41_51
*1647 FILLER_41_6
*1648 FILLER_41_78
*1649 FILLER_41_8
*1650 FILLER_41_86
*1651 FILLER_42_102
*1652 FILLER_42_104
*1653 FILLER_42_107
*1654 FILLER_42_115
*1655 FILLER_42_131
*1656 FILLER_42_135
*1657 FILLER_42_137
*1658 FILLER_42_167
*1659 FILLER_42_177
*1660 FILLER_42_195
*1661 FILLER_42_2
*1662 FILLER_42_203
*1663 FILLER_42_234
*1664 FILLER_42_242
*1665 FILLER_42_244
*1666 FILLER_42_247
*1667 FILLER_42_255
*1668 FILLER_42_257
*1669 FILLER_42_303
*1670 FILLER_42_33
*1671 FILLER_42_49
*1672 FILLER_42_53
*1673 FILLER_42_55
*1674 FILLER_42_66
*1675 FILLER_42_82
*1676 FILLER_42_94
*1677 FILLER_43_10
*1678 FILLER_43_12
*1679 FILLER_43_128
*1680 FILLER_43_136
*1681 FILLER_43_142
*1682 FILLER_43_161
*1683 FILLER_43_19
*1684 FILLER_43_193
*1685 FILLER_43_2
*1686 FILLER_43_209
*1687 FILLER_43_212
*1688 FILLER_43_214
*1689 FILLER_43_224
*1690 FILLER_43_229
*1691 FILLER_43_237
*1692 FILLER_43_253
*1693 FILLER_43_261
*1694 FILLER_43_263
*1695 FILLER_43_317
*1696 FILLER_43_319
*1697 FILLER_43_46
*1698 FILLER_43_50
*1699 FILLER_43_63
*1700 FILLER_43_67
*1701 FILLER_43_69
*1702 FILLER_43_72
*1703 FILLER_43_80
*1704 FILLER_43_84
*1705 FILLER_44_126
*1706 FILLER_44_134
*1707 FILLER_44_136
*1708 FILLER_44_142
*1709 FILLER_44_158
*1710 FILLER_44_174
*1711 FILLER_44_177
*1712 FILLER_44_18
*1713 FILLER_44_181
*1714 FILLER_44_188
*1715 FILLER_44_198
*1716 FILLER_44_208
*1717 FILLER_44_210
*1718 FILLER_44_220
*1719 FILLER_44_236
*1720 FILLER_44_244
*1721 FILLER_44_317
*1722 FILLER_44_46
*1723 FILLER_44_54
*1724 FILLER_44_58
*1725 FILLER_44_60
*1726 FILLER_44_78
*1727 FILLER_44_94
*1728 FILLER_45_122
*1729 FILLER_45_131
*1730 FILLER_45_171
*1731 FILLER_45_175
*1732 FILLER_45_194
*1733 FILLER_45_2
*1734 FILLER_45_226
*1735 FILLER_45_228
*1736 FILLER_45_272
*1737 FILLER_45_311
*1738 FILLER_45_35
*1739 FILLER_45_81
*1740 FILLER_45_83
*1741 FILLER_46_10
*1742 FILLER_46_107
*1743 FILLER_46_127
*1744 FILLER_46_14
*1745 FILLER_46_162
*1746 FILLER_46_164
*1747 FILLER_46_2
*1748 FILLER_46_25
*1749 FILLER_46_269
*1750 FILLER_46_273
*1751 FILLER_46_303
*1752 FILLER_46_37
*1753 FILLER_46_46
*1754 FILLER_46_79
*1755 FILLER_46_87
*1756 FILLER_46_99
*1757 FILLER_47_131
*1758 FILLER_47_133
*1759 FILLER_47_151
*1760 FILLER_47_155
*1761 FILLER_47_157
*1762 FILLER_47_18
*1763 FILLER_47_197
*1764 FILLER_47_2
*1765 FILLER_47_209
*1766 FILLER_47_218
*1767 FILLER_47_22
*1768 FILLER_47_234
*1769 FILLER_47_236
*1770 FILLER_47_272
*1771 FILLER_47_52
*1772 FILLER_47_54
*1773 FILLER_47_72
*1774 FILLER_48_104
*1775 FILLER_48_107
*1776 FILLER_48_115
*1777 FILLER_48_126
*1778 FILLER_48_134
*1779 FILLER_48_138
*1780 FILLER_48_147
*1781 FILLER_48_163
*1782 FILLER_48_171
*1783 FILLER_48_177
*1784 FILLER_48_2
*1785 FILLER_48_232
*1786 FILLER_48_240
*1787 FILLER_48_244
*1788 FILLER_48_257
*1789 FILLER_48_306
*1790 FILLER_48_34
*1791 FILLER_48_346
*1792 FILLER_48_37
*1793 FILLER_48_45
*1794 FILLER_48_49
*1795 FILLER_48_80
*1796 FILLER_48_96
*1797 FILLER_49_104
*1798 FILLER_49_138
*1799 FILLER_49_172
*1800 FILLER_49_176
*1801 FILLER_49_178
*1802 FILLER_49_183
*1803 FILLER_49_199
*1804 FILLER_49_2
*1805 FILLER_49_203
*1806 FILLER_49_206
*1807 FILLER_49_240
*1808 FILLER_49_256
*1809 FILLER_49_264
*1810 FILLER_49_274
*1811 FILLER_49_293
*1812 FILLER_49_295
*1813 FILLER_49_350
*1814 FILLER_49_36
*1815 FILLER_49_70
*1816 FILLER_4_103
*1817 FILLER_4_107
*1818 FILLER_4_136
*1819 FILLER_4_140
*1820 FILLER_4_171
*1821 FILLER_4_177
*1822 FILLER_4_190
*1823 FILLER_4_198
*1824 FILLER_4_244
*1825 FILLER_4_255
*1826 FILLER_4_31
*1827 FILLER_4_37
*1828 FILLER_4_61
*1829 FILLER_4_63
*1830 FILLER_4_99
*1831 FILLER_5_10
*1832 FILLER_5_135
*1833 FILLER_5_14
*1834 FILLER_5_142
*1835 FILLER_5_150
*1836 FILLER_5_16
*1837 FILLER_5_2
*1838 FILLER_5_201
*1839 FILLER_5_212
*1840 FILLER_5_214
*1841 FILLER_5_225
*1842 FILLER_5_229
*1843 FILLER_5_23
*1844 FILLER_5_282
*1845 FILLER_5_290
*1846 FILLER_5_31
*1847 FILLER_5_323
*1848 FILLER_5_346
*1849 FILLER_5_348
*1850 FILLER_5_35
*1851 FILLER_5_56
*1852 FILLER_5_60
*1853 FILLER_5_87
*1854 FILLER_5_91
*1855 FILLER_6_104
*1856 FILLER_6_107
*1857 FILLER_6_147
*1858 FILLER_6_185
*1859 FILLER_6_193
*1860 FILLER_6_257
*1861 FILLER_6_26
*1862 FILLER_6_261
*1863 FILLER_6_284
*1864 FILLER_6_317
*1865 FILLER_6_319
*1866 FILLER_6_34
*1867 FILLER_6_37
*1868 FILLER_6_69
*1869 FILLER_6_80
*1870 FILLER_6_96
*1871 FILLER_7_104
*1872 FILLER_7_136
*1873 FILLER_7_142
*1874 FILLER_7_158
*1875 FILLER_7_170
*1876 FILLER_7_185
*1877 FILLER_7_2
*1878 FILLER_7_201
*1879 FILLER_7_209
*1880 FILLER_7_282
*1881 FILLER_7_319
*1882 FILLER_7_32
*1883 FILLER_7_42
*1884 FILLER_7_50
*1885 FILLER_7_52
*1886 FILLER_7_65
*1887 FILLER_7_69
*1888 FILLER_7_72
*1889 FILLER_7_88
*1890 FILLER_8_107
*1891 FILLER_8_152
*1892 FILLER_8_156
*1893 FILLER_8_158
*1894 FILLER_8_194
*1895 FILLER_8_2
*1896 FILLER_8_210
*1897 FILLER_8_214
*1898 FILLER_8_225
*1899 FILLER_8_227
*1900 FILLER_8_244
*1901 FILLER_8_307
*1902 FILLER_8_317
*1903 FILLER_8_333
*1904 FILLER_8_34
*1905 FILLER_8_4
*1906 FILLER_8_46
*1907 FILLER_8_50
*1908 FILLER_9_142
*1909 FILLER_9_2
*1910 FILLER_9_206
*1911 FILLER_9_212
*1912 FILLER_9_222
*1913 FILLER_9_238
*1914 FILLER_9_279
*1915 FILLER_9_288
*1916 FILLER_9_314
*1917 FILLER_9_318
*1918 FILLER_9_77
*1919 PHY_EDGE_ROW_0_Left_50
*1920 PHY_EDGE_ROW_0_Right_0
*1921 PHY_EDGE_ROW_10_Left_60
*1922 PHY_EDGE_ROW_10_Right_10
*1923 PHY_EDGE_ROW_11_Left_61
*1924 PHY_EDGE_ROW_11_Right_11
*1925 PHY_EDGE_ROW_12_Left_62
*1926 PHY_EDGE_ROW_12_Right_12
*1927 PHY_EDGE_ROW_13_Left_63
*1928 PHY_EDGE_ROW_13_Right_13
*1929 PHY_EDGE_ROW_14_Left_64
*1930 PHY_EDGE_ROW_14_Right_14
*1931 PHY_EDGE_ROW_15_Left_65
*1932 PHY_EDGE_ROW_15_Right_15
*1933 PHY_EDGE_ROW_16_Left_66
*1934 PHY_EDGE_ROW_16_Right_16
*1935 PHY_EDGE_ROW_17_Left_67
*1936 PHY_EDGE_ROW_17_Right_17
*1937 PHY_EDGE_ROW_18_Left_68
*1938 PHY_EDGE_ROW_18_Right_18
*1939 PHY_EDGE_ROW_19_Left_69
*1940 PHY_EDGE_ROW_19_Right_19
*1941 PHY_EDGE_ROW_1_Left_51
*1942 PHY_EDGE_ROW_1_Right_1
*1943 PHY_EDGE_ROW_20_Left_70
*1944 PHY_EDGE_ROW_20_Right_20
*1945 PHY_EDGE_ROW_21_Left_71
*1946 PHY_EDGE_ROW_21_Right_21
*1947 PHY_EDGE_ROW_22_Left_72
*1948 PHY_EDGE_ROW_22_Right_22
*1949 PHY_EDGE_ROW_23_Left_73
*1950 PHY_EDGE_ROW_23_Right_23
*1951 PHY_EDGE_ROW_24_Left_74
*1952 PHY_EDGE_ROW_24_Right_24
*1953 PHY_EDGE_ROW_25_Left_75
*1954 PHY_EDGE_ROW_25_Right_25
*1955 PHY_EDGE_ROW_26_Left_76
*1956 PHY_EDGE_ROW_26_Right_26
*1957 PHY_EDGE_ROW_27_Left_77
*1958 PHY_EDGE_ROW_27_Right_27
*1959 PHY_EDGE_ROW_28_Left_78
*1960 PHY_EDGE_ROW_28_Right_28
*1961 PHY_EDGE_ROW_29_Left_79
*1962 PHY_EDGE_ROW_29_Right_29
*1963 PHY_EDGE_ROW_2_Left_52
*1964 PHY_EDGE_ROW_2_Right_2
*1965 PHY_EDGE_ROW_30_Left_80
*1966 PHY_EDGE_ROW_30_Right_30
*1967 PHY_EDGE_ROW_31_Left_81
*1968 PHY_EDGE_ROW_31_Right_31
*1969 PHY_EDGE_ROW_32_Left_82
*1970 PHY_EDGE_ROW_32_Right_32
*1971 PHY_EDGE_ROW_33_Left_83
*1972 PHY_EDGE_ROW_33_Right_33
*1973 PHY_EDGE_ROW_34_Left_84
*1974 PHY_EDGE_ROW_34_Right_34
*1975 PHY_EDGE_ROW_35_Left_85
*1976 PHY_EDGE_ROW_35_Right_35
*1977 PHY_EDGE_ROW_36_Left_86
*1978 PHY_EDGE_ROW_36_Right_36
*1979 PHY_EDGE_ROW_37_Left_87
*1980 PHY_EDGE_ROW_37_Right_37
*1981 PHY_EDGE_ROW_38_Left_88
*1982 PHY_EDGE_ROW_38_Right_38
*1983 PHY_EDGE_ROW_39_Left_89
*1984 PHY_EDGE_ROW_39_Right_39
*1985 PHY_EDGE_ROW_3_Left_53
*1986 PHY_EDGE_ROW_3_Right_3
*1987 PHY_EDGE_ROW_40_Left_90
*1988 PHY_EDGE_ROW_40_Right_40
*1989 PHY_EDGE_ROW_41_Left_91
*1990 PHY_EDGE_ROW_41_Right_41
*1991 PHY_EDGE_ROW_42_Left_92
*1992 PHY_EDGE_ROW_42_Right_42
*1993 PHY_EDGE_ROW_43_Left_93
*1994 PHY_EDGE_ROW_43_Right_43
*1995 PHY_EDGE_ROW_44_Left_94
*1996 PHY_EDGE_ROW_44_Right_44
*1997 PHY_EDGE_ROW_45_Left_95
*1998 PHY_EDGE_ROW_45_Right_45
*1999 PHY_EDGE_ROW_46_Left_96
*2000 PHY_EDGE_ROW_46_Right_46
*2001 PHY_EDGE_ROW_47_Left_97
*2002 PHY_EDGE_ROW_47_Right_47
*2003 PHY_EDGE_ROW_48_Left_98
*2004 PHY_EDGE_ROW_48_Right_48
*2005 PHY_EDGE_ROW_49_Left_99
*2006 PHY_EDGE_ROW_49_Right_49
*2007 PHY_EDGE_ROW_4_Left_54
*2008 PHY_EDGE_ROW_4_Right_4
*2009 PHY_EDGE_ROW_5_Left_55
*2010 PHY_EDGE_ROW_5_Right_5
*2011 PHY_EDGE_ROW_6_Left_56
*2012 PHY_EDGE_ROW_6_Right_6
*2013 PHY_EDGE_ROW_7_Left_57
*2014 PHY_EDGE_ROW_7_Right_7
*2015 PHY_EDGE_ROW_8_Left_58
*2016 PHY_EDGE_ROW_8_Right_8
*2017 PHY_EDGE_ROW_9_Left_59
*2018 PHY_EDGE_ROW_9_Right_9
*2019 TAP_TAPCELL_ROW_0_100
*2020 TAP_TAPCELL_ROW_0_101
*2021 TAP_TAPCELL_ROW_0_102
*2022 TAP_TAPCELL_ROW_0_103
*2023 TAP_TAPCELL_ROW_0_104
*2024 TAP_TAPCELL_ROW_0_105
*2025 TAP_TAPCELL_ROW_0_106
*2026 TAP_TAPCELL_ROW_0_107
*2027 TAP_TAPCELL_ROW_0_108
*2028 TAP_TAPCELL_ROW_0_109
*2029 TAP_TAPCELL_ROW_10_155
*2030 TAP_TAPCELL_ROW_10_156
*2031 TAP_TAPCELL_ROW_10_157
*2032 TAP_TAPCELL_ROW_10_158
*2033 TAP_TAPCELL_ROW_10_159
*2034 TAP_TAPCELL_ROW_11_160
*2035 TAP_TAPCELL_ROW_11_161
*2036 TAP_TAPCELL_ROW_11_162
*2037 TAP_TAPCELL_ROW_11_163
*2038 TAP_TAPCELL_ROW_11_164
*2039 TAP_TAPCELL_ROW_12_165
*2040 TAP_TAPCELL_ROW_12_166
*2041 TAP_TAPCELL_ROW_12_167
*2042 TAP_TAPCELL_ROW_12_168
*2043 TAP_TAPCELL_ROW_12_169
*2044 TAP_TAPCELL_ROW_13_170
*2045 TAP_TAPCELL_ROW_13_171
*2046 TAP_TAPCELL_ROW_13_172
*2047 TAP_TAPCELL_ROW_13_173
*2048 TAP_TAPCELL_ROW_13_174
*2049 TAP_TAPCELL_ROW_14_175
*2050 TAP_TAPCELL_ROW_14_176
*2051 TAP_TAPCELL_ROW_14_177
*2052 TAP_TAPCELL_ROW_14_178
*2053 TAP_TAPCELL_ROW_14_179
*2054 TAP_TAPCELL_ROW_15_180
*2055 TAP_TAPCELL_ROW_15_181
*2056 TAP_TAPCELL_ROW_15_182
*2057 TAP_TAPCELL_ROW_15_183
*2058 TAP_TAPCELL_ROW_15_184
*2059 TAP_TAPCELL_ROW_16_185
*2060 TAP_TAPCELL_ROW_16_186
*2061 TAP_TAPCELL_ROW_16_187
*2062 TAP_TAPCELL_ROW_16_188
*2063 TAP_TAPCELL_ROW_16_189
*2064 TAP_TAPCELL_ROW_17_190
*2065 TAP_TAPCELL_ROW_17_191
*2066 TAP_TAPCELL_ROW_17_192
*2067 TAP_TAPCELL_ROW_17_193
*2068 TAP_TAPCELL_ROW_17_194
*2069 TAP_TAPCELL_ROW_18_195
*2070 TAP_TAPCELL_ROW_18_196
*2071 TAP_TAPCELL_ROW_18_197
*2072 TAP_TAPCELL_ROW_18_198
*2073 TAP_TAPCELL_ROW_18_199
*2074 TAP_TAPCELL_ROW_19_200
*2075 TAP_TAPCELL_ROW_19_201
*2076 TAP_TAPCELL_ROW_19_202
*2077 TAP_TAPCELL_ROW_19_203
*2078 TAP_TAPCELL_ROW_19_204
*2079 TAP_TAPCELL_ROW_1_110
*2080 TAP_TAPCELL_ROW_1_111
*2081 TAP_TAPCELL_ROW_1_112
*2082 TAP_TAPCELL_ROW_1_113
*2083 TAP_TAPCELL_ROW_1_114
*2084 TAP_TAPCELL_ROW_20_205
*2085 TAP_TAPCELL_ROW_20_206
*2086 TAP_TAPCELL_ROW_20_207
*2087 TAP_TAPCELL_ROW_20_208
*2088 TAP_TAPCELL_ROW_20_209
*2089 TAP_TAPCELL_ROW_21_210
*2090 TAP_TAPCELL_ROW_21_211
*2091 TAP_TAPCELL_ROW_21_212
*2092 TAP_TAPCELL_ROW_21_213
*2093 TAP_TAPCELL_ROW_21_214
*2094 TAP_TAPCELL_ROW_22_215
*2095 TAP_TAPCELL_ROW_22_216
*2096 TAP_TAPCELL_ROW_22_217
*2097 TAP_TAPCELL_ROW_22_218
*2098 TAP_TAPCELL_ROW_22_219
*2099 TAP_TAPCELL_ROW_23_220
*2100 TAP_TAPCELL_ROW_23_221
*2101 TAP_TAPCELL_ROW_23_222
*2102 TAP_TAPCELL_ROW_23_223
*2103 TAP_TAPCELL_ROW_23_224
*2104 TAP_TAPCELL_ROW_24_225
*2105 TAP_TAPCELL_ROW_24_226
*2106 TAP_TAPCELL_ROW_24_227
*2107 TAP_TAPCELL_ROW_24_228
*2108 TAP_TAPCELL_ROW_24_229
*2109 TAP_TAPCELL_ROW_25_230
*2110 TAP_TAPCELL_ROW_25_231
*2111 TAP_TAPCELL_ROW_25_232
*2112 TAP_TAPCELL_ROW_25_233
*2113 TAP_TAPCELL_ROW_25_234
*2114 TAP_TAPCELL_ROW_26_235
*2115 TAP_TAPCELL_ROW_26_236
*2116 TAP_TAPCELL_ROW_26_237
*2117 TAP_TAPCELL_ROW_26_238
*2118 TAP_TAPCELL_ROW_26_239
*2119 TAP_TAPCELL_ROW_27_240
*2120 TAP_TAPCELL_ROW_27_241
*2121 TAP_TAPCELL_ROW_27_242
*2122 TAP_TAPCELL_ROW_27_243
*2123 TAP_TAPCELL_ROW_27_244
*2124 TAP_TAPCELL_ROW_28_245
*2125 TAP_TAPCELL_ROW_28_246
*2126 TAP_TAPCELL_ROW_28_247
*2127 TAP_TAPCELL_ROW_28_248
*2128 TAP_TAPCELL_ROW_28_249
*2129 TAP_TAPCELL_ROW_29_250
*2130 TAP_TAPCELL_ROW_29_251
*2131 TAP_TAPCELL_ROW_29_252
*2132 TAP_TAPCELL_ROW_29_253
*2133 TAP_TAPCELL_ROW_29_254
*2134 TAP_TAPCELL_ROW_2_115
*2135 TAP_TAPCELL_ROW_2_116
*2136 TAP_TAPCELL_ROW_2_117
*2137 TAP_TAPCELL_ROW_2_118
*2138 TAP_TAPCELL_ROW_2_119
*2139 TAP_TAPCELL_ROW_30_255
*2140 TAP_TAPCELL_ROW_30_256
*2141 TAP_TAPCELL_ROW_30_257
*2142 TAP_TAPCELL_ROW_30_258
*2143 TAP_TAPCELL_ROW_30_259
*2144 TAP_TAPCELL_ROW_31_260
*2145 TAP_TAPCELL_ROW_31_261
*2146 TAP_TAPCELL_ROW_31_262
*2147 TAP_TAPCELL_ROW_31_263
*2148 TAP_TAPCELL_ROW_31_264
*2149 TAP_TAPCELL_ROW_32_265
*2150 TAP_TAPCELL_ROW_32_266
*2151 TAP_TAPCELL_ROW_32_267
*2152 TAP_TAPCELL_ROW_32_268
*2153 TAP_TAPCELL_ROW_32_269
*2154 TAP_TAPCELL_ROW_33_270
*2155 TAP_TAPCELL_ROW_33_271
*2156 TAP_TAPCELL_ROW_33_272
*2157 TAP_TAPCELL_ROW_33_273
*2158 TAP_TAPCELL_ROW_33_274
*2159 TAP_TAPCELL_ROW_34_275
*2160 TAP_TAPCELL_ROW_34_276
*2161 TAP_TAPCELL_ROW_34_277
*2162 TAP_TAPCELL_ROW_34_278
*2163 TAP_TAPCELL_ROW_34_279
*2164 TAP_TAPCELL_ROW_35_280
*2165 TAP_TAPCELL_ROW_35_281
*2166 TAP_TAPCELL_ROW_35_282
*2167 TAP_TAPCELL_ROW_35_283
*2168 TAP_TAPCELL_ROW_35_284
*2169 TAP_TAPCELL_ROW_36_285
*2170 TAP_TAPCELL_ROW_36_286
*2171 TAP_TAPCELL_ROW_36_287
*2172 TAP_TAPCELL_ROW_36_288
*2173 TAP_TAPCELL_ROW_36_289
*2174 TAP_TAPCELL_ROW_37_290
*2175 TAP_TAPCELL_ROW_37_291
*2176 TAP_TAPCELL_ROW_37_292
*2177 TAP_TAPCELL_ROW_37_293
*2178 TAP_TAPCELL_ROW_37_294
*2179 TAP_TAPCELL_ROW_38_295
*2180 TAP_TAPCELL_ROW_38_296
*2181 TAP_TAPCELL_ROW_38_297
*2182 TAP_TAPCELL_ROW_38_298
*2183 TAP_TAPCELL_ROW_38_299
*2184 TAP_TAPCELL_ROW_39_300
*2185 TAP_TAPCELL_ROW_39_301
*2186 TAP_TAPCELL_ROW_39_302
*2187 TAP_TAPCELL_ROW_39_303
*2188 TAP_TAPCELL_ROW_39_304
*2189 TAP_TAPCELL_ROW_3_120
*2190 TAP_TAPCELL_ROW_3_121
*2191 TAP_TAPCELL_ROW_3_122
*2192 TAP_TAPCELL_ROW_3_123
*2193 TAP_TAPCELL_ROW_3_124
*2194 TAP_TAPCELL_ROW_40_305
*2195 TAP_TAPCELL_ROW_40_306
*2196 TAP_TAPCELL_ROW_40_307
*2197 TAP_TAPCELL_ROW_40_308
*2198 TAP_TAPCELL_ROW_40_309
*2199 TAP_TAPCELL_ROW_41_310
*2200 TAP_TAPCELL_ROW_41_311
*2201 TAP_TAPCELL_ROW_41_312
*2202 TAP_TAPCELL_ROW_41_313
*2203 TAP_TAPCELL_ROW_41_314
*2204 TAP_TAPCELL_ROW_42_315
*2205 TAP_TAPCELL_ROW_42_316
*2206 TAP_TAPCELL_ROW_42_317
*2207 TAP_TAPCELL_ROW_42_318
*2208 TAP_TAPCELL_ROW_42_319
*2209 TAP_TAPCELL_ROW_43_320
*2210 TAP_TAPCELL_ROW_43_321
*2211 TAP_TAPCELL_ROW_43_322
*2212 TAP_TAPCELL_ROW_43_323
*2213 TAP_TAPCELL_ROW_43_324
*2214 TAP_TAPCELL_ROW_44_325
*2215 TAP_TAPCELL_ROW_44_326
*2216 TAP_TAPCELL_ROW_44_327
*2217 TAP_TAPCELL_ROW_44_328
*2218 TAP_TAPCELL_ROW_44_329
*2219 TAP_TAPCELL_ROW_45_330
*2220 TAP_TAPCELL_ROW_45_331
*2221 TAP_TAPCELL_ROW_45_332
*2222 TAP_TAPCELL_ROW_45_333
*2223 TAP_TAPCELL_ROW_45_334
*2224 TAP_TAPCELL_ROW_46_335
*2225 TAP_TAPCELL_ROW_46_336
*2226 TAP_TAPCELL_ROW_46_337
*2227 TAP_TAPCELL_ROW_46_338
*2228 TAP_TAPCELL_ROW_46_339
*2229 TAP_TAPCELL_ROW_47_340
*2230 TAP_TAPCELL_ROW_47_341
*2231 TAP_TAPCELL_ROW_47_342
*2232 TAP_TAPCELL_ROW_47_343
*2233 TAP_TAPCELL_ROW_47_344
*2234 TAP_TAPCELL_ROW_48_345
*2235 TAP_TAPCELL_ROW_48_346
*2236 TAP_TAPCELL_ROW_48_347
*2237 TAP_TAPCELL_ROW_48_348
*2238 TAP_TAPCELL_ROW_48_349
*2239 TAP_TAPCELL_ROW_49_350
*2240 TAP_TAPCELL_ROW_49_351
*2241 TAP_TAPCELL_ROW_49_352
*2242 TAP_TAPCELL_ROW_49_353
*2243 TAP_TAPCELL_ROW_49_354
*2244 TAP_TAPCELL_ROW_49_355
*2245 TAP_TAPCELL_ROW_49_356
*2246 TAP_TAPCELL_ROW_49_357
*2247 TAP_TAPCELL_ROW_49_358
*2248 TAP_TAPCELL_ROW_49_359
*2249 TAP_TAPCELL_ROW_4_125
*2250 TAP_TAPCELL_ROW_4_126
*2251 TAP_TAPCELL_ROW_4_127
*2252 TAP_TAPCELL_ROW_4_128
*2253 TAP_TAPCELL_ROW_4_129
*2254 TAP_TAPCELL_ROW_5_130
*2255 TAP_TAPCELL_ROW_5_131
*2256 TAP_TAPCELL_ROW_5_132
*2257 TAP_TAPCELL_ROW_5_133
*2258 TAP_TAPCELL_ROW_5_134
*2259 TAP_TAPCELL_ROW_6_135
*2260 TAP_TAPCELL_ROW_6_136
*2261 TAP_TAPCELL_ROW_6_137
*2262 TAP_TAPCELL_ROW_6_138
*2263 TAP_TAPCELL_ROW_6_139
*2264 TAP_TAPCELL_ROW_7_140
*2265 TAP_TAPCELL_ROW_7_141
*2266 TAP_TAPCELL_ROW_7_142
*2267 TAP_TAPCELL_ROW_7_143
*2268 TAP_TAPCELL_ROW_7_144
*2269 TAP_TAPCELL_ROW_8_145
*2270 TAP_TAPCELL_ROW_8_146
*2271 TAP_TAPCELL_ROW_8_147
*2272 TAP_TAPCELL_ROW_8_148
*2273 TAP_TAPCELL_ROW_8_149
*2274 TAP_TAPCELL_ROW_9_150
*2275 TAP_TAPCELL_ROW_9_151
*2276 TAP_TAPCELL_ROW_9_152
*2277 TAP_TAPCELL_ROW_9_153
*2278 TAP_TAPCELL_ROW_9_154
*2279 _0644_
*2280 _0645_
*2281 _0646_
*2282 _0647_
*2283 _0648_
*2284 _0649_
*2285 _0650_
*2286 _0651_
*2287 _0652_
*2288 _0653_
*2289 _0654_
*2290 _0655_
*2291 _0656_
*2292 _0657_
*2293 _0658_
*2294 _0659_
*2295 _0660_
*2296 _0661_
*2297 _0662_
*2298 _0663_
*2299 _0664_
*2300 _0665_
*2301 _0666_
*2302 _0667_
*2303 _0668_
*2304 _0669_
*2305 _0670_
*2306 _0671_
*2307 _0672_
*2308 _0673_
*2309 _0674_
*2310 _0675_
*2311 _0676_
*2312 _0677_
*2313 _0678_
*2314 _0679_
*2315 _0680__44
*2316 _0681_
*2317 _0682_
*2318 _0683_
*2319 _0684_
*2320 _0685_
*2321 _0686_
*2322 _0687_
*2323 _0688_
*2324 _0689_
*2325 _0690_
*2326 _0691_
*2327 _0692_
*2328 _0693_
*2329 _0694_
*2330 _0695_
*2331 _0696_
*2332 _0697_
*2333 _0698_
*2334 _0699_
*2335 _0700_
*2336 _0701_
*2337 _0702_
*2338 _0703_
*2339 _0704_
*2340 _0705_
*2341 _0706_
*2342 _0707_
*2343 _0708_
*2344 _0709_
*2345 _0710_
*2346 _0711_
*2347 _0712_
*2348 _0713_
*2349 _0714_
*2350 _0715_
*2351 _0716_
*2352 _0717_
*2353 _0718_
*2354 _0719_
*2355 _0720_
*2356 _0721_
*2357 _0722_
*2358 _0723_
*2359 _0724_
*2360 _0725_
*2361 _0726_
*2362 _0727_
*2363 _0728_
*2364 _0729_
*2365 _0730_
*2366 _0731_
*2367 _0732_
*2368 _0733_
*2369 _0734_
*2370 _0735_
*2371 _0736_
*2372 _0737_
*2373 _0738_
*2374 _0739_
*2375 _0740_
*2376 _0741_
*2377 _0742_
*2378 _0743_
*2379 _0744_
*2380 _0745_
*2381 _0746_
*2382 _0747_
*2383 _0748_
*2384 _0749_
*2385 _0750_
*2386 _0751_
*2387 _0752_
*2388 _0753_
*2389 _0754_
*2390 _0755_
*2391 _0756_
*2392 _0757_
*2393 _0758_
*2394 _0759_
*2395 _0760_
*2396 _0761_
*2397 _0762_
*2398 _0763_
*2399 _0764_
*2400 _0765_
*2401 _0766_
*2402 _0767_
*2403 _0768_
*2404 _0769_
*2405 _0770_
*2406 _0771_
*2407 _0772_
*2408 _0773_
*2409 _0774_
*2410 _0775_
*2411 _0776_
*2412 _0777_
*2413 _0778_
*2414 _0779_
*2415 _0780_
*2416 _0781_
*2417 _0782_
*2418 _0783_
*2419 _0784_
*2420 _0785_
*2421 _0786_
*2422 _0787_
*2423 _0788_
*2424 _0789_
*2425 _0790_
*2426 _0791_
*2427 _0792_
*2428 _0793_
*2429 _0794_
*2430 _0795_
*2431 _0796_
*2432 _0797_
*2433 _0798_
*2434 _0799_
*2435 _0800_
*2436 _0801_
*2437 _0802_
*2438 _0803_
*2439 _0804_
*2440 _0805_
*2441 _0806_
*2442 _0807_
*2443 _0808_
*2444 _0809_
*2445 _0810_
*2446 _0811_
*2447 _0812_
*2448 _0813_
*2449 _0814_
*2450 _0815_
*2451 _0816_
*2452 _0817_
*2453 _0818_
*2454 _0819_
*2455 _0820_
*2456 _0821_
*2457 _0822_
*2458 _0823_
*2459 _0824_
*2460 _0825_
*2461 _0826_
*2462 _0827_
*2463 _0828_
*2464 _0829_
*2465 _0830_
*2466 _0831_
*2467 _0832_
*2468 _0833_
*2469 _0834_
*2470 _0835_
*2471 _0836_
*2472 _0837_
*2473 _0838_
*2474 _0839_
*2475 _0840_
*2476 _0841_
*2477 _0842_
*2478 _0843_
*2479 _0844_
*2480 _0845_
*2481 _0846_
*2482 _0847_
*2483 _0848_
*2484 _0849_
*2485 _0850_
*2486 _0851_
*2487 _0852_
*2488 _0853_
*2489 _0854_
*2490 _0855_
*2491 _0856_
*2492 _0857_
*2493 _0858_
*2494 _0859_
*2495 _0860_
*2496 _0861_
*2497 _0862_
*2498 _0863_
*2499 _0864_
*2500 _0865_
*2501 _0866_
*2502 _0867_
*2503 _0868_
*2504 _0869_
*2505 _0870_
*2506 _0871_
*2507 _0872_
*2508 _0873_
*2509 _0874_
*2510 _0875_
*2511 _0876_
*2512 _0877_
*2513 _0878_
*2514 _0879_
*2515 _0880_
*2516 _0881_
*2517 _0882_
*2518 _0883_
*2519 _0884_
*2520 _0885_
*2521 _0886_
*2522 _0887_
*2523 _0888_
*2524 _0889_
*2525 _0890_
*2526 _0891_
*2527 _0892_
*2528 _0893_
*2529 _0894_
*2530 _0895_
*2531 _0896_
*2532 _0897_
*2533 _0898_
*2534 _0899_
*2535 _0900_
*2536 _0901_
*2537 _0902_
*2538 _0903_
*2539 _0904_
*2540 _0905_
*2541 _0906_
*2542 _0907_
*2543 _0908_
*2544 _0909_
*2545 _0910_
*2546 _0911_
*2547 _0912_
*2548 _0913_
*2549 _0914_
*2550 _0915_
*2551 _0916_
*2552 _0917_
*2553 _0918_
*2554 _0919_
*2555 _0920_
*2556 _0921_
*2557 _0922_
*2558 _0923_
*2559 _0924_
*2560 _0925_
*2561 _0926_
*2562 _0927_
*2563 _0928_
*2564 _0929_
*2565 _0930_
*2566 _0931_
*2567 _0932_
*2568 _0933_
*2569 _0934_
*2570 _0935_
*2571 _0936_
*2572 _0937_
*2573 _0938_
*2574 _0939_
*2575 _0940_
*2576 _0941_
*2577 _0942_
*2578 _0943_
*2579 _0944_
*2580 _0945_
*2581 _0946_
*2582 _0947_
*2583 _0948_
*2584 _0949_
*2585 _0950_
*2586 _0951_
*2587 _0952_
*2588 _0953_
*2589 _0954_
*2590 _0955_
*2591 _0956_
*2592 _0957_
*2593 _0958_
*2594 _0959_
*2595 _0960_
*2596 _0961_
*2597 _0962_
*2598 _0963_
*2599 _0964_
*2600 _0965_
*2601 _0966_
*2602 _0967_
*2603 _0968_
*2604 _0969_
*2605 _0970_
*2606 _0971_
*2607 _0972_
*2608 _0973_
*2609 _0974_
*2610 _0975_
*2611 _0976_
*2612 _0977_
*2613 _0978_
*2614 _0979_
*2615 _0980_
*2616 _0981_
*2617 _0982_
*2618 _0983_
*2619 _0984_
*2620 _0985_
*2621 _0986_
*2622 _0987_
*2623 _0988_
*2624 _0989_
*2625 _0990_
*2626 _0991_
*2627 _0992_
*2628 _0993_
*2629 _0994_
*2630 _0995_
*2631 _0996_
*2632 _0997_
*2633 _0998_
*2634 _0999_
*2635 _1000_
*2636 _1001_
*2637 _1002_
*2638 _1003_
*2639 _1004_
*2640 _1005_
*2641 _1006_
*2642 _1007_
*2643 _1008_
*2644 _1009_
*2645 _1010_
*2646 _1011_
*2647 _1012_
*2648 _1013_
*2649 _1014_
*2650 _1015_
*2651 _1016_
*2652 _1017_
*2653 _1018_
*2654 _1019_
*2655 _1020_
*2656 _1021_
*2657 _1022_
*2658 _1023_
*2659 _1024_
*2660 _1025_
*2661 _1026_
*2662 _1027_
*2663 _1028_
*2664 _1029_
*2665 _1030_
*2666 _1031_
*2667 _1032_
*2668 _1033_
*2669 _1034_
*2670 _1035_
*2671 _1036_
*2672 _1037_
*2673 _1038_
*2674 _1039_
*2675 _1040_
*2676 _1041_
*2677 _1042_
*2678 _1043_
*2679 _1044_
*2680 _1045_
*2681 _1046_
*2682 _1047_
*2683 _1048_
*2684 _1049__45
*2685 _1050_
*2686 _1051_
*2687 _1052_
*2688 _1053_
*2689 _1054_
*2690 _1055_
*2691 _1056_
*2692 _1057_
*2693 _1058_
*2694 _1059_
*2695 _1060_
*2696 _1061_
*2697 _1062_
*2698 _1063_
*2699 _1064_
*2700 _1065_
*2701 _1066_
*2702 _1067_
*2703 _1068_
*2704 _1069_
*2705 _1070_
*2706 _1071_
*2707 _1072_
*2708 _1073_
*2709 _1074_
*2710 _1075_
*2711 _1076_
*2712 _1077_
*2713 _1078_
*2714 _1079_
*2715 _1080_
*2716 _1081_
*2717 _1082_
*2718 _1083_
*2719 _1084_
*2720 _1085_
*2721 _1086_
*2722 _1087_
*2723 _1088_
*2724 _1089_
*2725 _1090_
*2726 _1091_
*2727 _1092_
*2728 _1093_
*2729 _1094_
*2730 _1095_
*2731 _1096_
*2732 _1097_
*2733 _1098_
*2734 _1099_
*2735 _1100_
*2736 _1101_
*2737 _1102_
*2738 _1103_
*2739 _1104_
*2740 _1105_
*2741 _1106_
*2742 _1107_
*2743 _1108_
*2744 _1109_
*2745 _1110_
*2746 _1111_
*2747 _1112_
*2748 _1113_
*2749 _1114_
*2750 _1115_
*2751 _1116_
*2752 _1117_
*2753 _1118_
*2754 _1119_
*2755 _1120_
*2756 _1121_
*2757 _1122_
*2758 _1123_
*2759 _1124_
*2760 _1125_
*2761 _1126_
*2762 _1127_
*2763 _1128_
*2764 _1129_
*2765 _1130_
*2766 _1131_
*2767 _1132_
*2768 _1133_
*2769 _1134_
*2770 _1135_
*2771 _1136_
*2772 _1137_
*2773 _1138_
*2774 _1139_
*2775 _1140_
*2776 _1141_
*2777 _1142_
*2778 _1143_
*2779 _1144_
*2780 _1145_
*2781 _1146_
*2782 _1147_
*2783 _1148_
*2784 _1149_
*2785 _1150_
*2786 _1151_
*2787 _1152_
*2788 _1153_
*2789 _1154_
*2790 _1155_
*2791 _1156_
*2792 _1157_
*2793 _1158_
*2794 _1159_
*2795 _1160_
*2796 _1161_
*2797 _1162_
*2798 _1163_
*2799 _1164_
*2800 _1165_
*2801 _1166_
*2802 _1167_
*2803 _1168_
*2804 _1169_
*2805 _1170_
*2806 _1171_
*2807 _1172_
*2808 _1173_
*2809 _1174_
*2810 _1175_
*2811 _1176_
*2812 _1177_
*2813 _1178_
*2814 _1179_
*2815 _1180_
*2816 _1181_
*2817 _1182_
*2818 _1183_
*2819 _1184_
*2820 _1185_
*2821 _1186_
*2822 _1187_
*2823 _1188_
*2824 _1189_
*2825 _1190_
*2826 _1191_
*2827 _1192_
*2828 _1193_
*2829 _1194_
*2830 _1195_
*2831 _1196_
*2832 _1197_
*2833 _1198_
*2834 _1199_
*2835 _1200_
*2836 _1201_
*2837 _1202_
*2838 _1203_
*2839 _1204_
*2840 _1205_
*2841 _1206_
*2842 _1207_
*2843 _1208_
*2844 _1209_
*2845 _1210_
*2846 _1211_
*2847 _1212_
*2848 _1213_
*2849 _1214_
*2850 _1215_
*2851 _1216_
*2852 _1217_
*2853 _1218_
*2854 _1219_
*2855 _1220_
*2856 _1221_
*2857 _1222_
*2858 _1223_
*2859 _1224_
*2860 _1225_
*2861 _1226_
*2862 _1227_
*2863 _1228_
*2864 _1229_
*2865 _1230_
*2866 _1231_
*2867 _1232_
*2868 _1233_
*2869 _1234_
*2870 _1235_
*2871 _1236_
*2872 _1237_
*2873 _1238_
*2874 _1239_
*2875 _1240_
*2876 _1241_
*2877 _1242_
*2878 _1243_
*2879 _1244_
*2880 _1245_
*2881 _1246_
*2882 _1247_
*2883 _1248_
*2884 _1249_
*2885 _1250_
*2886 _1251_
*2887 _1252_
*2888 _1253_
*2889 _1254_
*2890 _1255_
*2891 _1256_
*2892 _1257_
*2893 _1258_
*2894 _1259_
*2895 _1260_
*2896 _1261_
*2897 _1262_
*2898 _1263_
*2899 _1264_
*2900 _1265_
*2901 _1266_
*2902 _1267_
*2903 _1268_
*2904 _1269_
*2905 _1270_
*2906 _1271_
*2907 _1272_
*2908 _1273_
*2909 _1274_
*2910 _1275_
*2911 _1276_
*2912 _1277_
*2913 _1278_
*2914 _1279_
*2915 _1280_
*2916 _1281_
*2917 _1282_
*2918 _1283_
*2919 _1284_
*2920 _1285_
*2921 _1286_
*2922 _1287_
*2923 _1288_
*2924 _1289_
*2925 _1290_
*2926 _1291_
*2927 _1292_
*2928 _1293_
*2929 _1294_
*2930 _1295_
*2931 _1296_
*2932 _1297_
*2933 _1298_
*2934 _1299_
*2935 _1300_
*2936 _1301_
*2937 _1302_
*2938 _1303_
*2939 _1304_
*2940 _1305_
*2941 _1306_
*2942 _1307_
*2943 _1308_
*2944 _1309_
*2945 _1310_
*2946 _1311_
*2947 _1312_
*2948 _1313_
*2949 _1314_
*2950 _1315_
*2951 _1316_
*2952 _1317_
*2953 _1318_
*2954 _1319_
*2955 _1320_
*2956 _1321_
*2957 _1322_
*2958 _1323_
*2959 _1324_
*2960 _1325_
*2961 _1326_
*2962 _1327_
*2963 _1328_
*2964 _1329_
*2965 _1330_
*2966 _1331_
*2967 _1332_
*2968 _1333_
*2969 _1334_
*2970 _1335_
*2971 _1336_
*2972 _1337_
*2973 _1338_
*2974 _1339_
*2975 _1340_
*2976 _1341_
*2977 _1342_
*2978 _1343_
*2979 _1344_
*2980 _1345_
*2981 _1346_
*2982 _1347_
*2983 _1348_
*2984 _1349_
*2985 _1350_
*2986 _1351_
*2987 _1352_
*2988 _1353_
*2989 _1354_
*2990 _1355_
*2991 _1356_
*2992 _1357_
*2993 _1358_
*2994 _1359_
*2995 _1360_
*2996 _1361_
*2997 _1362_
*2998 _1363_
*2999 _1364_
*3000 _1365_
*3001 _1366_
*3002 _1367_
*3003 _1368_
*3004 _1369_
*3005 _1370_
*3006 _1371_
*3007 _1372_
*3008 _1373_
*3009 _1374_
*3010 _1375_
*3011 _1376_
*3012 _1377_
*3013 _1378_
*3014 _1379_
*3015 _1380_
*3016 _1381_
*3017 _1382_
*3018 _1383_
*3019 _1384_
*3020 _1385_
*3021 _1386_
*3022 _1387_
*3023 _1388_
*3024 _1389_
*3025 _1390_
*3026 _1391_
*3027 _1392_
*3028 _1393_
*3029 _1394_
*3030 _1395_
*3031 _1396_
*3032 _1397_
*3033 _1398_
*3034 _1399_
*3035 _1400_
*3036 _1401_
*3037 _1402_
*3038 _1403_
*3039 _1404_
*3040 _1405_
*3041 _1406_
*3042 _1407_
*3043 _1408_
*3044 _1409_
*3045 _1410_
*3046 _1411_
*3047 _1412_
*3048 _1413_
*3049 _1414_
*3050 _1415_
*3051 _1416_
*3052 _1417_
*3053 _1418_
*3054 _1419_
*3055 _1420_
*3056 _1421_
*3057 _1422_
*3058 _1423_
*3059 _1424_
*3060 _1425_
*3061 _1426_
*3062 _1427_
*3063 _1428_
*3064 _1429_
*3065 _1430_
*3066 _1431_
*3067 _1432_
*3068 _1433_
*3069 _1434_
*3070 _1435_
*3071 _1436_
*3072 _1437_
*3073 _1438_
*3074 _1439_
*3075 _1440_
*3076 _1441_
*3077 _1442_
*3078 _1443_
*3079 _1444_
*3080 _1445_
*3081 _1446_
*3082 _1447_
*3083 _1448_
*3084 _1449_
*3085 _1450_
*3086 _1451_
*3087 _1452_
*3088 _1453_
*3089 _1455_
*3090 _1456_
*3091 _1457_
*3092 _1458_
*3093 _1459_
*3094 _1460_
*3095 clkbuf_0_CLK_I
*3096 clkbuf_0_signal_input
*3097 clkbuf_0_signal_input_regs
*3098 clkbuf_1_0__f_signal_input
*3099 clkbuf_1_0__f_signal_input_regs
*3100 clkbuf_1_1__f_signal_input_regs
*3101 clkbuf_4_0_0_CLK_I
*3102 clkbuf_4_10_0_CLK_I
*3103 clkbuf_4_11_0_CLK_I
*3104 clkbuf_4_12_0_CLK_I
*3105 clkbuf_4_13_0_CLK_I
*3106 clkbuf_4_14_0_CLK_I
*3107 clkbuf_4_15_0_CLK_I
*3108 clkbuf_4_1_0_CLK_I
*3109 clkbuf_4_2_0_CLK_I
*3110 clkbuf_4_3_0_CLK_I
*3111 clkbuf_4_4_0_CLK_I
*3112 clkbuf_4_5_0_CLK_I
*3113 clkbuf_4_6_0_CLK_I
*3114 clkbuf_4_7_0_CLK_I
*3115 clkbuf_4_8_0_CLK_I
*3116 clkbuf_4_9_0_CLK_I
*3117 clkbuf_regs_0_signal_clock
*3118 clkload0
*3119 clkload1
*3120 clkload10
*3121 clkload11
*3122 clkload12
*3123 clkload13
*3124 clkload14
*3125 clkload2
*3126 clkload3
*3127 clkload4
*3128 clkload5
*3129 clkload6
*3130 clkload7
*3131 clkload8
*3132 clkload9
*3133 frequency_counter
*3134 hold100
*3135 hold101
*3136 hold102
*3137 hold103
*3138 hold46
*3139 hold47
*3140 hold48
*3141 hold49
*3142 hold50
*3143 hold51
*3144 hold52
*3145 hold53
*3146 hold54
*3147 hold55
*3148 hold56
*3149 hold57
*3150 hold58
*3151 hold59
*3152 hold60
*3153 hold61
*3154 hold62
*3155 hold63
*3156 hold64
*3157 hold65
*3158 hold66
*3159 hold67
*3160 hold68
*3161 hold69
*3162 hold70
*3163 hold71
*3164 hold72
*3165 hold73
*3166 hold74
*3167 hold75
*3168 hold76
*3169 hold77
*3170 hold78
*3171 hold79
*3172 hold80
*3173 hold81
*3174 hold82
*3175 hold83
*3176 hold84
*3177 hold85
*3178 hold86
*3179 hold87
*3180 hold88
*3181 hold89
*3182 hold90
*3183 hold91
*3184 hold92
*3185 hold93
*3186 hold94
*3187 hold95
*3188 hold96
*3189 hold97
*3190 hold98
*3191 hold99
*3192 input1
*3193 input10
*3194 input11
*3195 input12
*3196 input13
*3197 input14
*3198 input15
*3199 input16
*3200 input17
*3201 input18
*3202 input19
*3203 input2
*3204 input20
*3205 input3
*3206 input4
*3207 input5
*3208 input6
*3209 input7
*3210 input8
*3211 input9
*3212 load_slew38
*3213 max_cap39
*3214 max_cap43
*3215 output21
*3216 output22
*3217 output23
*3218 output24
*3219 output25
*3220 output26
*3221 output27
*3222 output28
*3223 output29
*3224 output30
*3225 output31
*3226 output32
*3227 output33
*3228 output34
*3229 output35
*3230 output36
*3231 output37
*3232 wire40
*3233 wire41
*3234 wire42

*PORTS
ACK_O O
ADDR_I[0] I
ADDR_I[1] I
ADDR_I[2] I
ADDR_I[3] I
ADDR_I[4] I
ADDR_I[5] I
ADDR_I[6] I
ADDR_I[7] I
CLK_I I
CYC_I I
DAT_I[0] I
DAT_I[1] I
DAT_I[2] I
DAT_I[3] I
DAT_I[4] I
DAT_I[5] I
DAT_I[6] I
DAT_I[7] I
DAT_O[0] O
DAT_O[1] O
DAT_O[2] O
DAT_O[3] O
DAT_O[4] O
DAT_O[5] O
DAT_O[6] O
DAT_O[7] O
ERR_O O
RST_I I
RTY_O O
STB_I I
WE_I I
bypass_pin_control[0] O
bypass_pin_control[1] O
bypass_pin_control[2] O
ext_rst_i I
pga_gain_control[0] O
pga_gain_control[1] O
pga_gain_control[2] O
signal_input I
trigger_signal_out O

*D_NET *1 0.00574107
*CONN
*P ACK_O O
*I *3215:Z O *D gf180mcu_fd_sc_mcu7t5v0__dlyb_1
*CAP
1 ACK_O 0.001005
2 *3215:Z 0.001005
3 ACK_O *2804:A1 0
4 ACK_O *2804:A2 0.000497814
5 ACK_O *2886:A1 0.000101615
6 ACK_O *2888:A1 0.00112127
7 ACK_O *3035:D 0.000409328
8 ACK_O *3056:D 0.000196817
9 ACK_O *588:18 0.00131075
10 ACK_O *835:8 9.3226e-06
11 ACK_O *923:12 8.41485e-05
*RES
1 *3215:Z ACK_O 20.348 
*END

*D_NET *2 0.00256717
*CONN
*P ADDR_I[0] I
*I *3192:I I *D gf180mcu_fd_sc_mcu7t5v0__dlyb_1
*CAP
1 ADDR_I[0] 0.00128359
2 *3192:I 0.00128359
*RES
1 ADDR_I[0] *3192:I 19.088 
*END

*D_NET *3 0.00177912
*CONN
*P ADDR_I[1] I
*I *3203:I I *D gf180mcu_fd_sc_mcu7t5v0__dlyb_1
*CAP
1 ADDR_I[1] 0.000470488
2 *3203:I 0.000470488
3 *3203:I *2663:B 0.000838147
*RES
1 ADDR_I[1] *3203:I 13.958 
*END

*D_NET *4 0.00165981
*CONN
*P ADDR_I[2] I
*I *3205:I I *D gf180mcu_fd_sc_mcu7t5v0__dlyb_1
*CAP
1 ADDR_I[2] 0.000651789
2 *3205:I 0.000651789
3 *3205:I *2313:I 0.000213046
4 *3205:I *2317:A1 1.24972e-05
5 *3205:I *732:12 0.00013069
*RES
1 ADDR_I[2] *3205:I 14.408 
*END

*D_NET *5 0.00126578
*CONN
*P ADDR_I[3] I
*I *3206:I I *D gf180mcu_fd_sc_mcu7t5v0__dlyb_1
*CAP
1 ADDR_I[3] 0.000464105
2 *3206:I 0.000464105
3 *3206:I *2313:I 0.000289201
4 *3206:I *2317:A1 0
5 *3206:I *732:12 4.83666e-05
*RES
1 ADDR_I[3] *3206:I 12.968 
*END

*D_NET *6 0.00147175
*CONN
*P ADDR_I[4] I
*I *3207:I I *D gf180mcu_fd_sc_mcu7t5v0__dlyb_1
*CAP
1 ADDR_I[4] 0.000517635
2 *3207:I 0.000517635
3 *3207:I *2313:I 0.000436478
4 *3207:I *2317:A2 0
*RES
1 ADDR_I[4] *3207:I 13.328 
*END

*D_NET *7 0.00100435
*CONN
*P ADDR_I[5] I
*I *3208:I I *D gf180mcu_fd_sc_mcu7t5v0__dlyb_1
*CAP
1 ADDR_I[5] 0.000484167
2 *3208:I 0.000484167
3 *3208:I *2313:I 3.60189e-05
4 *3208:I *2317:A2 0
*RES
1 ADDR_I[5] *3208:I 12.968 
*END

*D_NET *8 0.0010953
*CONN
*P ADDR_I[6] I
*I *3209:I I *D gf180mcu_fd_sc_mcu7t5v0__dlyb_1
*CAP
1 ADDR_I[6] 0.00054765
2 *3209:I 0.00054765
*RES
1 ADDR_I[6] *3209:I 12.968 
*END

*D_NET *9 0.00140145
*CONN
*P ADDR_I[7] I
*I *3210:I I *D gf180mcu_fd_sc_mcu7t5v0__dlyb_1
*CAP
1 ADDR_I[7] 0.000587612
2 *3210:I 0.000587612
3 *3210:I *847:14 0.000124614
4 *3210:I *860:14 0.000101615
*RES
1 ADDR_I[7] *3210:I 13.688 
*END

*D_NET *10 0.0208068
*CONN
*P CLK_I I
*I *3095:I I *D gf180mcu_fd_sc_mcu7t5v0__clkbuf_16
*CAP
1 CLK_I 0.00447466
2 *3095:I 0
3 *10:55 0.00339124
4 *10:20 0.00786591
5 *10:20 *2476:A1 0
6 *10:20 *2490:A1 6.98034e-05
7 *10:20 *2734:B 0
8 *10:20 *2738:A2 9.34988e-05
9 *10:20 *3026:D 9.10772e-05
10 *10:20 *3027:D 0.000109569
11 *10:20 *704:91 0.000296375
12 *10:20 *784:46 0
13 *10:55 *2287:I 1.66492e-05
14 *10:55 *2288:I 0.00014898
15 *10:55 *2348:A1 0.000313048
16 *10:55 *2348:A2 0.00014089
17 *10:55 *2363:A2 0.00015997
18 *10:55 *2490:A1 1.0415e-05
19 *10:55 *2492:A1 0.000343306
20 *10:55 *2738:A1 8.43202e-05
21 *10:55 *2739:A2 0
22 *10:55 *2744:B1 2.38751e-06
23 *10:55 *2744:B2 2.36813e-05
24 *10:55 *2746:A1 8.19532e-06
25 *10:55 *2747:A1 6.34901e-05
26 *10:55 *2747:A2 1.94143e-05
27 *10:55 *2747:A3 4.767e-05
28 *10:55 *2749:A2 0.000743747
29 *10:55 *2750:A2 6.68757e-05
30 *10:55 *3031:D 0.000129251
31 *10:55 *3080:CLK 5.36871e-05
32 *10:55 *3214:I 2.14748e-05
33 *10:55 *217:43 0.00025076
34 *10:55 *266:41 0.000214919
35 *10:55 *502:41 9.97642e-05
36 *10:55 *503:87 7.7001e-05
37 *10:55 *541:21 0.000204802
38 *10:55 *543:6 0.000208323
39 *10:55 *694:201 0.000155122
40 *10:55 *694:217 5.16364e-05
41 *10:55 *715:58 1.30207e-05
42 *10:55 *784:16 0.000688181
43 *10:55 *784:116 3.99899e-05
44 *10:55 *914:14 1.36775e-05
*RES
1 CLK_I *10:20 49.598 
2 *10:20 *10:55 48.15 
3 *10:55 *3095:I 4.5 
*END

*D_NET *11 0.00648628
*CONN
*P CYC_I I
*I *3211:I I *D gf180mcu_fd_sc_mcu7t5v0__dlyb_1
*CAP
1 CYC_I 0.00178071
2 *3211:I 0.00178071
3 *3211:I DAT_O[7] 0.00151784
4 *3211:I *2320:A2 0.000133717
5 *3211:I *2323:A3 3.80169e-06
6 *3211:I *2804:A1 0.000119192
7 *3211:I *3201:I 0.000965934
8 *3211:I *249:10 4.88208e-05
9 *3211:I *252:16 0
10 *3211:I *760:14 0.00013556
*RES
1 CYC_I *3211:I 33.398 
*END

*D_NET *12 0.00077293
*CONN
*P DAT_I[0] I
*I *3193:I I *D gf180mcu_fd_sc_mcu7t5v0__dlyb_1
*CAP
1 DAT_I[0] 0.000372224
2 *3193:I 0.000372224
3 *3193:I *847:14 2.84815e-05
*RES
1 DAT_I[0] *3193:I 12.158 
*END

*D_NET *13 0.00114269
*CONN
*P DAT_I[1] I
*I *3194:I I *D gf180mcu_fd_sc_mcu7t5v0__dlyb_1
*CAP
1 DAT_I[1] 0.000571346
2 *3194:I 0.000571346
3 *3194:I *750:10 0
4 *3194:I *852:20 0
*RES
1 DAT_I[1] *3194:I 12.968 
*END

*D_NET *14 0.00150495
*CONN
*P DAT_I[2] I
*I *3195:I I *D gf180mcu_fd_sc_mcu7t5v0__dlyb_1
*CAP
1 DAT_I[2] 0.00068546
2 *3195:I 0.00068546
3 *3195:I *750:10 0
4 *3195:I *752:26 0
5 *3195:I *852:20 0.000134034
*RES
1 DAT_I[2] *3195:I 14.228 
*END

*D_NET *15 0.0012791
*CONN
*P DAT_I[3] I
*I *3196:I I *D gf180mcu_fd_sc_mcu7t5v0__dlyb_1
*CAP
1 DAT_I[3] 0.000603941
2 *3196:I 0.000603941
3 *3196:I *755:12 0
4 *3196:I *848:14 6.68757e-05
5 *3196:I *850:12 4.34199e-06
*RES
1 DAT_I[3] *3196:I 13.688 
*END

*D_NET *16 0.00149107
*CONN
*P DAT_I[4] I
*I *3197:I I *D gf180mcu_fd_sc_mcu7t5v0__dlyb_1
*CAP
1 DAT_I[4] 0.000527299
2 *3197:I 0.000527299
3 *3197:I *755:12 0
4 *3197:I *850:12 0.000436469
*RES
1 DAT_I[4] *3197:I 13.508 
*END

*D_NET *17 0.00114503
*CONN
*P DAT_I[5] I
*I *3198:I I *D gf180mcu_fd_sc_mcu7t5v0__dlyb_1
*CAP
1 DAT_I[5] 0.000572517
2 *3198:I 0.000572517
3 *3198:I *755:12 0
*RES
1 DAT_I[5] *3198:I 13.148 
*END

*D_NET *18 0.00136648
*CONN
*P DAT_I[6] I
*I *3199:I I *D gf180mcu_fd_sc_mcu7t5v0__dlyb_1
*CAP
1 DAT_I[6] 0.000594463
2 *3199:I 0.000594463
3 *3199:I *3200:I 0.000177559
4 *3199:I *755:12 0
*RES
1 DAT_I[6] *3199:I 13.688 
*END

*D_NET *19 0.00190551
*CONN
*P DAT_I[7] I
*I *3200:I I *D gf180mcu_fd_sc_mcu7t5v0__dlyb_1
*CAP
1 DAT_I[7] 0.000717129
2 *3200:I 0.000717129
3 *3200:I DAT_O[0] 0.000133717
4 *3200:I *3216:I 0.00015997
5 *3200:I *755:12 0
6 *3199:I *3200:I 0.000177559
*RES
1 DAT_I[7] *3200:I 15.128 
*END

*D_NET *20 0.00253975
*CONN
*P DAT_O[0] O
*I *3216:Z O *D gf180mcu_fd_sc_mcu7t5v0__dlyb_1
*CAP
1 DAT_O[0] 0.000756093
2 *3216:Z 0.000756093
3 DAT_O[0] DAT_O[1] 0.000706519
4 DAT_O[0] *3155:I 9.76593e-05
5 DAT_O[0] *3216:I 8.96665e-05
6 *3200:I DAT_O[0] 0.000133717
*RES
1 *3216:Z DAT_O[0] 15.938 
*END

*D_NET *21 0.00285801
*CONN
*P DAT_O[1] O
*I *3217:Z O *D gf180mcu_fd_sc_mcu7t5v0__dlyb_1
*CAP
1 DAT_O[1] 0.000696472
2 *3217:Z 0.000696472
3 DAT_O[1] *3155:I 2.99406e-05
4 DAT_O[1] *3157:I 0.000728608
5 DAT_O[0] DAT_O[1] 0.000706519
*RES
1 *3217:Z DAT_O[1] 15.848 
*END

*D_NET *22 0.00193099
*CONN
*P DAT_O[2] O
*I *3218:Z O *D gf180mcu_fd_sc_mcu7t5v0__dlyb_1
*CAP
1 DAT_O[2] 0.000643552
2 *3218:Z 0.000643552
3 DAT_O[2] DAT_O[3] 0.000106536
4 DAT_O[2] *3153:I 0.000444513
5 DAT_O[2] *3218:I 9.2838e-05
*RES
1 *3218:Z DAT_O[2] 14.678 
*END

*D_NET *23 0.00193558
*CONN
*P DAT_O[3] O
*I *3219:Z O *D gf180mcu_fd_sc_mcu7t5v0__dlyb_1
*CAP
1 DAT_O[3] 0.000740391
2 *3219:Z 0.000740391
3 DAT_O[3] DAT_O[4] 0.000233586
4 DAT_O[3] *3218:I 2.38983e-05
5 DAT_O[3] *764:12 9.07783e-05
6 DAT_O[2] DAT_O[3] 0.000106536
*RES
1 *3219:Z DAT_O[3] 15.218 
*END

*D_NET *24 0.00216802
*CONN
*P DAT_O[4] O
*I *3220:Z O *D gf180mcu_fd_sc_mcu7t5v0__dlyb_1
*CAP
1 DAT_O[4] 0.000814734
2 *3220:Z 0.000814734
3 DAT_O[4] *3151:I 0.000174158
4 DAT_O[4] *764:12 4.0361e-05
5 DAT_O[4] *766:10 9.04462e-05
6 DAT_O[3] DAT_O[4] 0.000233586
*RES
1 *3220:Z DAT_O[4] 15.578 
*END

*D_NET *25 0.00440471
*CONN
*P DAT_O[5] O
*I *3221:Z O *D gf180mcu_fd_sc_mcu7t5v0__dlyb_1
*CAP
1 DAT_O[5] 0.000772063
2 *3221:Z 0.000772063
3 DAT_O[5] *2864:A1 0.000319702
4 DAT_O[5] *2865:A2 2.18436e-05
5 DAT_O[5] *3219:I 0
6 DAT_O[5] *3220:I 0
7 DAT_O[5] *3221:I 0.00211
8 DAT_O[5] *766:10 0.000409038
*RES
1 *3221:Z DAT_O[5] 18.278 
*END

*D_NET *26 0.00363628
*CONN
*P DAT_O[6] O
*I *3222:Z O *D gf180mcu_fd_sc_mcu7t5v0__dlyb_1
*CAP
1 DAT_O[6] 0.000874646
2 *3222:Z 0.000874646
3 DAT_O[6] *2805:A1 0.000442919
4 DAT_O[6] *2856:A1 0.000169515
5 DAT_O[6] *2872:A2 0.000161479
6 DAT_O[6] *3222:I 0.000894414
7 DAT_O[6] *767:8 0.000218664
*RES
1 *3222:Z DAT_O[6] 18.728 
*END

*D_NET *27 0.00449356
*CONN
*P DAT_O[7] O
*I *3223:Z O *D gf180mcu_fd_sc_mcu7t5v0__dlyb_1
*CAP
1 DAT_O[7] 0.00121919
2 *3223:Z 0.00121919
3 DAT_O[7] *3150:I 0
4 DAT_O[7] *3151:I 3.29285e-05
5 DAT_O[7] *3154:I 4.18632e-05
6 DAT_O[7] *3162:I 0.00021029
7 DAT_O[7] *3223:I 0
8 DAT_O[7] *249:10 5.19612e-05
9 DAT_O[7] *767:8 0
10 DAT_O[7] *770:17 0.000200298
11 *3211:I DAT_O[7] 0.00151784
*RES
1 *3223:Z DAT_O[7] 20.168 
*END

*D_NET *28 0.00459731
*CONN
*P ERR_O O
*I *3224:Z O *D gf180mcu_fd_sc_mcu7t5v0__dlyb_1
*CAP
1 ERR_O 0.00094953
2 *3224:Z 0.00094953
3 ERR_O *2323:A3 0.00183543
4 ERR_O *2804:A1 3.79e-05
5 ERR_O *2888:B2 0.000145212
6 ERR_O *502:111 0.000152367
7 ERR_O *770:17 5.95338e-05
8 ERR_O *924:10 0.000436758
9 ERR_O *924:16 3.10415e-05
*RES
1 *3224:Z ERR_O 18.728 
*END

*D_NET *29 0.0074727
*CONN
*P RST_I I
*I *3201:I I *D gf180mcu_fd_sc_mcu7t5v0__buf_2
*CAP
1 RST_I 0.00145778
2 *3201:I 0.00145778
3 *3201:I RTY_O 0
4 *3201:I *2299:I 0.000101615
5 *3201:I *2322:A3 3.77483e-05
6 *3201:I *2323:A1 0.000455766
7 *3201:I *2763:A2 0.000486234
8 *3201:I *3035:D 0.000170994
9 *3201:I *3215:I 0.000604092
10 *3201:I *756:12 0.00027662
11 *3201:I *760:25 0.00145813
12 *3211:I *3201:I 0.000965934
*RES
1 RST_I *3201:I 25.5841 
*END

*D_NET *30 0.000705195
*CONN
*P RTY_O O
*I *3133:ZN O *D gf180mcu_fd_sc_mcu7t5v0__tiel
*CAP
1 RTY_O 0.000352598
2 *3133:ZN 0.000352598
3 *3201:I RTY_O 0
*RES
1 *3133:ZN RTY_O 11.798 
*END

*D_NET *31 0.00581023
*CONN
*P STB_I I
*I *3202:I I *D gf180mcu_fd_sc_mcu7t5v0__dlyb_1
*CAP
1 STB_I 0.00174704
2 *3202:I 0.00174704
3 *3202:I *2503:A1 0.000144495
4 *3202:I *2677:A1 1.72651e-05
5 *3202:I *2677:A4 1.51549e-05
6 *3202:I *2764:A1 7.44269e-05
7 *3202:I *2884:A2 0
8 *3202:I *2887:A2 9.34076e-05
9 *3202:I *2888:B2 5.46043e-06
10 *3202:I *2889:A2 5.31331e-05
11 *3202:I *3036:D 0.000229555
12 *3202:I *3139:I 0
13 *3202:I *249:10 0
14 *3202:I *251:30 0
15 *3202:I *252:16 0.00152831
16 *3202:I *496:24 1.75972e-05
17 *3202:I *923:16 0
18 *3202:I *925:27 0.000137335
*RES
1 STB_I *3202:I 22.868 
*END

*D_NET *34 0.00367402
*CONN
*P WE_I I
*I *3204:I I *D gf180mcu_fd_sc_mcu7t5v0__dlyb_1
*CAP
1 WE_I 0.00150016
2 *3204:I 0.00150016
3 *3204:I *2889:A2 0.000314066
4 *3204:I *3223:I 0
5 *3204:I *588:18 0.000359627
6 *3204:I *768:14 0
*RES
1 WE_I *3204:I 20.708 
*END

*D_NET *35 0.00120347
*CONN
*P bypass_pin_control[0] O
*I *3225:Z O *D gf180mcu_fd_sc_mcu7t5v0__dlyb_1
*CAP
1 bypass_pin_control[0] 0.000556946
2 *3225:Z 0.000556946
3 bypass_pin_control[0] *3091:I 5.36871e-05
4 bypass_pin_control[0] *3226:I 3.58953e-05
*RES
1 *3225:Z bypass_pin_control[0] 13.365 
*END

*D_NET *36 0.00109595
*CONN
*P bypass_pin_control[1] O
*I *3226:Z O *D gf180mcu_fd_sc_mcu7t5v0__dlyb_1
*CAP
1 bypass_pin_control[1] 0.000547973
2 *3226:Z 0.000547973
3 bypass_pin_control[1] *711:33 0
*RES
1 *3226:Z bypass_pin_control[1] 13.005 
*END

*D_NET *37 0.00101953
*CONN
*P bypass_pin_control[2] O
*I *3227:Z O *D gf180mcu_fd_sc_mcu7t5v0__dlyb_1
*CAP
1 bypass_pin_control[2] 0.000489936
2 *3227:Z 0.000489936
3 bypass_pin_control[2] *711:46 3.96568e-05
*RES
1 *3227:Z bypass_pin_control[2] 12.645 
*END

*D_NET *39 0.000658169
*CONN
*P pga_gain_control[0] O
*I *3228:Z O *D gf180mcu_fd_sc_mcu7t5v0__dlyb_1
*CAP
1 pga_gain_control[0] 0.000329085
2 *3228:Z 0.000329085
*RES
1 *3228:Z pga_gain_control[0] 11.745 
*END

*D_NET *40 0.000977074
*CONN
*P pga_gain_control[1] O
*I *3229:Z O *D gf180mcu_fd_sc_mcu7t5v0__dlyb_1
*CAP
1 pga_gain_control[1] 0.000474553
2 *3229:Z 0.000474553
3 pga_gain_control[1] *707:67 2.7968e-05
*RES
1 *3229:Z pga_gain_control[1] 12.465 
*END

*D_NET *41 0.001004
*CONN
*P pga_gain_control[2] O
*I *3230:Z O *D gf180mcu_fd_sc_mcu7t5v0__dlyb_1
*CAP
1 pga_gain_control[2] 0.000502001
2 *3230:Z 0.000502001
*RES
1 *3230:Z pga_gain_control[2] 12.645 
*END

*D_NET *42 0.016238
*CONN
*P signal_input I
*I *3117:I I *D gf180mcu_fd_sc_mcu7t5v0__clkbuf_16
*I *3096:I I *D gf180mcu_fd_sc_mcu7t5v0__clkbuf_16
*CAP
1 signal_input 0.00460346
2 *3117:I 0.00178018
3 *3096:I 0.00638364
4 *3096:I *2629:A3 0.000741032
5 *3096:I *2782:A2 0.000176901
6 *3096:I *2786:A2 3.3721e-05
7 *3096:I *2790:A1 0
8 *3096:I *2794:A3 0
9 *3096:I *2797:A2 0.000278198
10 *3096:I *3000:D 9.75592e-05
11 *3096:I *3001:D 0.000214714
12 *3096:I *3002:CLK 0
13 *3096:I *3088:D 1.77853e-05
14 *3096:I *579:10 0
15 *3096:I *698:22 0
16 *3096:I *966:10 0
17 *3117:I *2600:A1 6.78662e-05
18 *3117:I *2601:A1 6.78662e-05
19 *3117:I *2604:A2 0
20 *3117:I *2617:A1 7.46569e-05
21 *3117:I *2624:A4 0.000103606
22 *3117:I *2626:A1 0
23 *3117:I *2629:A3 7.67885e-05
24 *3117:I *2639:A3 0.000152587
25 *3117:I *2644:A1 0.000192684
26 *3117:I *2667:A1 0.000167055
27 *3117:I *2667:A2 5.80846e-05
28 *3117:I *456:91 7.57396e-05
29 *3117:I *458:10 0.000380747
30 *3117:I *698:10 0.000283289
31 *3117:I *698:12 4.48509e-05
32 *3117:I *698:16 0.000165004
33 *3117:I *727:10 0
34 *3117:I *734:16 0
*RES
1 signal_input *3096:I 46.575 
2 *3096:I *3117:I 34.11 
*END

*D_NET *43 0.000879526
*CONN
*P trigger_signal_out O
*I *3231:Z O *D gf180mcu_fd_sc_mcu7t5v0__dlyb_1
*CAP
1 trigger_signal_out 0.00041663
2 *3231:Z 0.00041663
3 trigger_signal_out *2994:D 0
4 trigger_signal_out *3231:I 4.62661e-05
*RES
1 *3231:Z trigger_signal_out 12.285 
*END

*D_NET *44 0.000428904
*CONN
*I *3069:D I *D gf180mcu_fd_sc_mcu7t5v0__dffq_1
*I *2328:ZN O *D gf180mcu_fd_sc_mcu7t5v0__oai21_1
*CAP
1 *3069:D 0.000154474
2 *2328:ZN 0.000154474
3 *3069:D *2876:A1 0
4 *3069:D *254:8 0.000109541
5 *3069:D *254:10 1.0415e-05
*RES
1 *2328:ZN *3069:D 10.08 
*END

*D_NET *45 0.00044616
*CONN
*I *3070:D I *D gf180mcu_fd_sc_mcu7t5v0__dffq_1
*I *2331:ZN O *D gf180mcu_fd_sc_mcu7t5v0__nor2_1
*CAP
1 *3070:D 0.000136393
2 *2331:ZN 0.000136393
3 *3070:D *2331:A1 2.12536e-05
4 *3070:D *2361:A1 3.29285e-05
5 *3070:D *266:75 0.000119192
6 *3070:D *744:37 0
*RES
1 *2331:ZN *3070:D 10.26 
*END

*D_NET *46 0.000998295
*CONN
*I *3071:D I *D gf180mcu_fd_sc_mcu7t5v0__dffq_1
*I *2334:ZN O *D gf180mcu_fd_sc_mcu7t5v0__nand3_1
*CAP
1 *3071:D 0.000128498
2 *2334:ZN 0.000128498
3 *3071:D *2333:A2 3.54696e-05
4 *3071:D *2861:A1 0.000354728
5 *3071:D *254:39 0.000159362
6 *3071:D *254:43 3.23768e-05
7 *3071:D *753:27 0.000159362
*RES
1 *2334:ZN *3071:D 19.98 
*END

*D_NET *47 0.000656638
*CONN
*I *3072:D I *D gf180mcu_fd_sc_mcu7t5v0__dffq_1
*I *2336:ZN O *D gf180mcu_fd_sc_mcu7t5v0__oai211_1
*CAP
1 *3072:D 0.000219341
2 *2336:ZN 0.000219341
3 *3072:D *2329:A2 0
4 *3072:D *2916:A3 0.000148662
5 *3072:D *3066:D 0
6 *3072:D *3066:CLK 0
7 *3072:D *714:51 6.92926e-05
*RES
1 *2336:ZN *3072:D 10.98 
*END

*D_NET *48 0.00261925
*CONN
*I *3073:D I *D gf180mcu_fd_sc_mcu7t5v0__dffq_1
*I *2339:ZN O *D gf180mcu_fd_sc_mcu7t5v0__nand3_1
*CAP
1 *3073:D 0.000574492
2 *2339:ZN 0.000574492
3 *3073:D *2339:A2 0.00036881
4 *3073:D *3115:I 0.000162303
5 *3073:D *694:169 0.000111589
6 *3073:D *744:37 0.00032147
7 *3073:D *856:12 0.000506097
*RES
1 *2339:ZN *3073:D 14.85 
*END

*D_NET *49 0.00162731
*CONN
*I *3074:D I *D gf180mcu_fd_sc_mcu7t5v0__dffq_1
*I *2348:ZN O *D gf180mcu_fd_sc_mcu7t5v0__nor2_1
*CAP
1 *3074:D 0.00022168
2 *2348:ZN 0.00022168
3 *3074:D *2346:A1 1.0415e-05
4 *3074:D *2348:A1 0.000734655
5 *3074:D *2511:A1 5.97457e-06
6 *3074:D *2512:A1 4.83522e-05
7 *3074:D *2512:A2 9.84966e-05
8 *3074:D *716:19 8.84891e-05
9 *3074:D *756:148 0.000165093
10 *3074:D *784:16 3.24779e-05
*RES
1 *2348:ZN *3074:D 11.88 
*END

*D_NET *50 0.000644139
*CONN
*I *3075:D I *D gf180mcu_fd_sc_mcu7t5v0__dffq_1
*I *2351:ZN O *D gf180mcu_fd_sc_mcu7t5v0__nor2_1
*CAP
1 *3075:D 0.000139347
2 *2351:ZN 0.000139347
3 *3075:D *2351:A1 0.000365445
4 *3075:D *2831:C 0
*RES
1 *2351:ZN *3075:D 10.26 
*END

*D_NET *51 0.00482257
*CONN
*I *3076:D I *D gf180mcu_fd_sc_mcu7t5v0__dffq_1
*I *2354:ZN O *D gf180mcu_fd_sc_mcu7t5v0__nor2_1
*CAP
1 *3076:D 0.000537594
2 *2354:ZN 0.000537594
3 *3076:D *2352:A1 0.000945386
4 *3076:D *2354:A1 0.00169055
5 *3076:D *2354:A2 0.000936433
6 *3076:D *2369:I1 6.54281e-05
7 *3076:D *2369:S 5.8625e-05
8 *3076:D *2847:A2 3.48413e-05
9 *3076:D *3082:D 0
10 *3076:D *244:49 1.61174e-05
*RES
1 *2354:ZN *3076:D 26.01 
*END

*D_NET *52 0.00144924
*CONN
*I *3077:D I *D gf180mcu_fd_sc_mcu7t5v0__dffq_1
*I *2357:ZN O *D gf180mcu_fd_sc_mcu7t5v0__nor2_1
*CAP
1 *3077:D 0.00023523
2 *2357:ZN 0.00023523
3 *3077:D *2356:A2 2.5071e-05
4 *3077:D *2356:B 3.55118e-05
5 *3077:D *2357:A1 0
6 *3077:D *2357:A2 0.000316412
7 *3077:D *2840:B2 0
8 *3077:D *2881:A1 0.000143853
9 *3077:D *284:16 0.000310627
10 *3077:D *783:16 0.000147309
*RES
1 *2357:ZN *3077:D 20.88 
*END

*D_NET *53 0.00097322
*CONN
*I *3078:D I *D gf180mcu_fd_sc_mcu7t5v0__dffq_1
*I *2360:ZN O *D gf180mcu_fd_sc_mcu7t5v0__nor2_1
*CAP
1 *3078:D 0.000238422
2 *2360:ZN 0.000238422
3 *3078:D *2359:A1 0.000302466
4 *3078:D *266:27 9.32475e-05
5 *3078:D *266:35 2.52908e-05
6 *3078:D *284:34 3.57187e-05
7 *3078:D *720:10 3.96522e-05
*RES
1 *2360:ZN *3078:D 20.16 
*END

*D_NET *54 0.00149942
*CONN
*I *3079:D I *D gf180mcu_fd_sc_mcu7t5v0__dffq_1
*I *2363:ZN O *D gf180mcu_fd_sc_mcu7t5v0__nor2_1
*CAP
1 *3079:D 0.00010969
2 *2363:ZN 0.00010969
3 *3079:D *2363:A1 0.00078383
4 *3079:D *715:37 0.000153256
5 *3079:D *715:58 0.00034295
*RES
1 *2363:ZN *3079:D 11.34 
*END

*D_NET *55 0.00135378
*CONN
*I *3080:D I *D gf180mcu_fd_sc_mcu7t5v0__dffq_1
*I *2367:Z O *D gf180mcu_fd_sc_mcu7t5v0__mux2_2
*CAP
1 *3080:D 0.000238888
2 *2367:Z 0.000238888
3 *3080:D *2348:A2 0.000402291
4 *3080:D *3078:CLK 0
5 *3080:D *250:18 0.000330635
6 *3080:D *694:201 0.00014308
*RES
1 *2367:Z *3080:D 21.33 
*END

*D_NET *56 0.00415704
*CONN
*I *3081:D I *D gf180mcu_fd_sc_mcu7t5v0__dffq_1
*I *2368:Z O *D gf180mcu_fd_sc_mcu7t5v0__mux2_2
*CAP
1 *3081:D 0.000586474
2 *2368:Z 0.000586474
3 *3081:D *2831:B 0.00190522
4 *3081:D *2845:A1 1.9446e-05
5 *3081:D *2853:B2 0
6 *3081:D *2871:A2 0.000465069
7 *3081:D *266:14 5.19239e-06
8 *3081:D *601:16 0.000456392
9 *3081:D *751:45 0.000132776
*RES
1 *2368:Z *3081:D 34.11 
*END

*D_NET *57 0.00120767
*CONN
*I *3082:D I *D gf180mcu_fd_sc_mcu7t5v0__dffq_1
*I *2369:Z O *D gf180mcu_fd_sc_mcu7t5v0__mux2_2
*CAP
1 *3082:D 0.000447615
2 *2369:Z 0.000447615
3 *3082:D *2353:A1 0.000110818
4 *3082:D *2354:A2 3.98088e-05
5 *3082:D *3082:CLK 3.08895e-05
6 *3082:D *244:49 4.90141e-05
7 *3082:D *645:22 8.19052e-05
8 *3076:D *3082:D 0
*RES
1 *2369:Z *3082:D 12.51 
*END

*D_NET *58 0.000323458
*CONN
*I *3083:D I *D gf180mcu_fd_sc_mcu7t5v0__dffq_1
*I *2370:Z O *D gf180mcu_fd_sc_mcu7t5v0__mux2_2
*CAP
1 *3083:D 0.000137693
2 *2370:Z 0.000137693
3 *3083:D *2881:A1 0
4 *3083:D *251:30 3.01487e-05
5 *3083:D *756:313 1.79237e-05
*RES
1 *2370:Z *3083:D 9.81 
*END

*D_NET *59 0.000456169
*CONN
*I *3084:D I *D gf180mcu_fd_sc_mcu7t5v0__dffq_1
*I *2371:Z O *D gf180mcu_fd_sc_mcu7t5v0__mux2_2
*CAP
1 *3084:D 0.000199234
2 *2371:Z 0.000199234
3 *3084:D *244:61 2.44579e-05
4 *3084:D *694:201 3.32427e-05
*RES
1 *2371:Z *3084:D 10.26 
*END

*D_NET *60 0.000533255
*CONN
*I *3085:D I *D gf180mcu_fd_sc_mcu7t5v0__dffq_1
*I *2372:Z O *D gf180mcu_fd_sc_mcu7t5v0__mux2_2
*CAP
1 *3085:D 0.000111703
2 *2372:Z 0.000111703
3 *3085:D *2372:I1 0.000231442
4 *3085:D *2375:I1 7.84068e-05
5 *3085:D *714:21 0
*RES
1 *2372:Z *3085:D 10.26 
*END

*D_NET *61 0.00117008
*CONN
*I *3086:D I *D gf180mcu_fd_sc_mcu7t5v0__dffq_1
*I *2374:ZN O *D gf180mcu_fd_sc_mcu7t5v0__aoi21_1
*CAP
1 *3086:D 0.000266814
2 *2374:ZN 0.000266814
3 *3086:D *2372:S 3.94564e-05
4 *3086:D *2375:I1 7.86261e-05
5 *3086:D *691:25 0.000518371
*RES
1 *2374:ZN *3086:D 20.34 
*END

*D_NET *62 0.000725732
*CONN
*I *3087:D I *D gf180mcu_fd_sc_mcu7t5v0__dffq_1
*I *2375:Z O *D gf180mcu_fd_sc_mcu7t5v0__mux2_2
*CAP
1 *3087:D 0.000184714
2 *2375:Z 0.000184714
3 *3087:D *371:22 3.48255e-05
4 *3087:D *601:16 8.96771e-05
5 *3087:D *693:29 0.000169927
6 *3087:D *723:68 6.18747e-05
*RES
1 *2375:Z *3087:D 19.8 
*END

*D_NET *63 0.00102453
*CONN
*I *2923:D I *D gf180mcu_fd_sc_mcu7t5v0__dffq_1
*I *2383:ZN O *D gf180mcu_fd_sc_mcu7t5v0__aoi221_1
*CAP
1 *2923:D 9.68824e-05
2 *2383:ZN 9.68824e-05
3 *2923:D *2383:B1 3.0177e-06
4 *2923:D *2383:B2 4.34199e-06
5 *2923:D *2385:A2 9.72182e-06
6 *2923:D *244:101 0.00023712
7 *2923:D *371:35 0.000254652
8 *2923:D *486:20 9.85004e-05
9 *2923:D *756:447 0.000223407
*RES
1 *2383:ZN *2923:D 19.53 
*END

*D_NET *64 0.00288796
*CONN
*I *2924:D I *D gf180mcu_fd_sc_mcu7t5v0__dffq_1
*I *2385:ZN O *D gf180mcu_fd_sc_mcu7t5v0__nor2_1
*CAP
1 *2924:D 0.000366519
2 *2385:ZN 0.000366519
3 *2924:D *2383:B2 0
4 *2924:D *2385:A1 0.000294431
5 *2924:D *2385:A2 0.000291749
6 *2924:D *2923:CLK 1.61174e-05
7 *2924:D *3092:I 2.73782e-05
8 *2924:D *244:101 0.000510662
9 *2924:D *371:35 0.000436469
10 *2924:D *486:20 0.000141647
11 *2924:D *756:447 0.000436469
*RES
1 *2385:ZN *2924:D 22.95 
*END

*D_NET *65 0.00108084
*CONN
*I *2925:D I *D gf180mcu_fd_sc_mcu7t5v0__dffq_1
*I *2391:ZN O *D gf180mcu_fd_sc_mcu7t5v0__nor2_1
*CAP
1 *2925:D 0.0002585
2 *2391:ZN 0.0002585
3 *2925:D *2390:A1 0.000164219
4 *2925:D *2391:A1 9.98816e-05
5 *2925:D *2391:A2 0.000294431
6 *2925:D *244:101 0
7 *2925:D *244:105 0
8 *2925:D *296:35 5.30888e-06
*RES
1 *2391:ZN *2925:D 20.52 
*END

*D_NET *66 0.00183238
*CONN
*I *2926:D I *D gf180mcu_fd_sc_mcu7t5v0__dffq_1
*I *2394:ZN O *D gf180mcu_fd_sc_mcu7t5v0__nor2_1
*CAP
1 *2926:D 0.0005604
2 *2394:ZN 0.0005604
3 *2926:D *2397:A1 0
4 *2926:D *2397:A2 0.00012269
5 *2926:D *2927:D 3.58342e-05
6 *2926:D *3126:I 0
7 *2926:D *694:29 0.000124246
8 *2926:D *709:65 1.56674e-05
9 *2926:D *709:67 3.96522e-05
10 *2926:D *901:14 0.00037349
*RES
1 *2394:ZN *2926:D 23.31 
*END

*D_NET *67 0.00217018
*CONN
*I *2927:D I *D gf180mcu_fd_sc_mcu7t5v0__dffq_1
*I *2397:ZN O *D gf180mcu_fd_sc_mcu7t5v0__nor2_1
*CAP
1 *2927:D 0.000515067
2 *2397:ZN 0.000515067
3 *2927:D *2394:A1 0
4 *2927:D *2397:A2 0.000103075
5 *2927:D *2400:A1 0
6 *2927:D *2827:C1 0
7 *2927:D *3110:I 0
8 *2927:D *3126:I 2.70125e-05
9 *2927:D *3188:I 0.000974129
10 *2927:D *897:6 0
11 *2926:D *2927:D 3.58342e-05
*RES
1 *2397:ZN *2927:D 22.68 
*END

*D_NET *68 0.000761347
*CONN
*I *2928:D I *D gf180mcu_fd_sc_mcu7t5v0__dffq_1
*I *2400:ZN O *D gf180mcu_fd_sc_mcu7t5v0__nor2_1
*CAP
1 *2928:D 5.08437e-05
2 *2400:ZN 5.08437e-05
3 *2928:D *2399:B 0.000213046
4 *2928:D *2400:A1 0.000166843
5 *2928:D *2827:C1 0.000279772
*RES
1 *2400:ZN *2928:D 10.35 
*END

*D_NET *69 0.000680925
*CONN
*I *2929:D I *D gf180mcu_fd_sc_mcu7t5v0__dffq_1
*I *2403:ZN O *D gf180mcu_fd_sc_mcu7t5v0__nor2_1
*CAP
1 *2929:D 0.000132605
2 *2403:ZN 0.000132605
3 *2929:D *2402:B 4.68887e-05
4 *2929:D *2403:A2 0.000343834
5 *2929:D *2440:A1 4.93145e-06
6 *2929:D *781:128 2.00619e-05
*RES
1 *2403:ZN *2929:D 10.26 
*END

*D_NET *70 0.00140837
*CONN
*I *2930:D I *D gf180mcu_fd_sc_mcu7t5v0__dffq_1
*I *2406:ZN O *D gf180mcu_fd_sc_mcu7t5v0__nor2_1
*CAP
1 *2930:D 0.000352092
2 *2406:ZN 0.000352092
3 *2930:D *2406:A2 4.23003e-05
4 *2930:D *2452:A2 4.55655e-05
5 *2930:D *2859:C1 0.000294431
6 *2930:D *244:271 0.000100112
7 *2930:D *899:12 0.000221777
*RES
1 *2406:ZN *2930:D 12.15 
*END

*D_NET *71 0.00162395
*CONN
*I *2931:D I *D gf180mcu_fd_sc_mcu7t5v0__dffq_1
*I *2408:ZN O *D gf180mcu_fd_sc_mcu7t5v0__aoi21_1
*CAP
1 *2931:D 1.92521e-05
2 *2408:ZN 1.92521e-05
3 *2931:D *2408:A2 0.000757565
4 *2931:D *2408:B 0.000827878
*RES
1 *2408:ZN *2931:D 20.07 
*END

*D_NET *72 0.00171839
*CONN
*I *2932:D I *D gf180mcu_fd_sc_mcu7t5v0__dffq_1
*I *2410:ZN O *D gf180mcu_fd_sc_mcu7t5v0__aoi21_1
*CAP
1 *2932:D 0.000332584
2 *2410:ZN 0.000332584
3 *2932:D *2410:A1 4.89921e-05
4 *2932:D *2410:B 7.41762e-05
5 *2932:D *244:480 0.000824027
6 *2932:D *713:26 0.000106027
7 *2932:D *779:163 0
*RES
1 *2410:ZN *2932:D 21.6 
*END

*D_NET *73 0.000393654
*CONN
*I *2933:D I *D gf180mcu_fd_sc_mcu7t5v0__dffq_1
*I *2413:ZN O *D gf180mcu_fd_sc_mcu7t5v0__nor2_1
*CAP
1 *2933:D 0.000170702
2 *2413:ZN 0.000170702
3 *2933:D *2413:A2 7.55765e-06
4 *2933:D *3111:I 3.42764e-05
5 *2933:D *3112:I 1.0415e-05
6 *2933:D *779:56 0
*RES
1 *2413:ZN *2933:D 10.08 
*END

*D_NET *74 0.00130463
*CONN
*I *2934:D I *D gf180mcu_fd_sc_mcu7t5v0__dffq_1
*I *2416:ZN O *D gf180mcu_fd_sc_mcu7t5v0__nor2_1
*CAP
1 *2934:D 0.000144979
2 *2416:ZN 0.000144979
3 *2934:D *2843:A1 0.000302466
4 *2934:D *2866:A1 0
5 *2934:D *2934:CLK 0.000102973
6 *2934:D *908:12 0.000609231
*RES
1 *2416:ZN *2934:D 20.34 
*END

*D_NET *75 0.00111578
*CONN
*I *2935:D I *D gf180mcu_fd_sc_mcu7t5v0__dffq_1
*I *2419:ZN O *D gf180mcu_fd_sc_mcu7t5v0__nor2_1
*CAP
1 *2935:D 0.000228697
2 *2419:ZN 0.000228697
3 *2935:D *2419:A2 2.24448e-05
4 *2935:D *2819:A2 2.31089e-05
5 *2935:D *2866:A1 0
6 *2935:D *244:376 0
7 *2935:D *601:85 0.000602925
8 *2935:D *779:84 9.90362e-06
*RES
1 *2419:ZN *2935:D 11.25 
*END

*D_NET *76 0.00161804
*CONN
*I *3180:I I *D gf180mcu_fd_sc_mcu7t5v0__dlyc_1
*I *2422:ZN O *D gf180mcu_fd_sc_mcu7t5v0__nor2_1
*CAP
1 *3180:I 0.000412405
2 *2422:ZN 0.000412405
3 *3180:I *2416:A1 0.000344002
4 *3180:I *2419:A1 0.000122697
5 *3180:I *2422:A2 0.000140351
6 *3180:I *3111:I 0.000128618
7 *3180:I *710:14 5.75577e-05
*RES
1 *2422:ZN *3180:I 21.96 
*END

*D_NET *77 0.00105112
*CONN
*I *2937:D I *D gf180mcu_fd_sc_mcu7t5v0__dffq_1
*I *2425:ZN O *D gf180mcu_fd_sc_mcu7t5v0__nor2_1
*CAP
1 *2937:D 0.000324853
2 *2425:ZN 0.000324853
3 *2937:D *2424:A1 0
4 *2937:D *2843:C2 0.00040141
5 *2937:D *2851:C2 0
*RES
1 *2425:ZN *2937:D 11.88 
*END

*D_NET *78 0.0018206
*CONN
*I *3159:I I *D gf180mcu_fd_sc_mcu7t5v0__dlyc_1
*I *2428:ZN O *D gf180mcu_fd_sc_mcu7t5v0__nor2_1
*CAP
1 *3159:I 0.000252741
2 *2428:ZN 0.000252741
3 *3159:I *2428:A2 0.000177534
4 *3159:I *2434:A1 0
5 *3159:I *2435:A1 0.000838147
6 *3159:I *2859:B2 0
7 *3159:I *2866:C1 0.000174506
8 *3159:I *3094:I 0.000124934
*RES
1 *2428:ZN *3159:I 22.23 
*END

*D_NET *79 0.000686778
*CONN
*I *3170:I I *D gf180mcu_fd_sc_mcu7t5v0__dlyc_1
*I *2431:ZN O *D gf180mcu_fd_sc_mcu7t5v0__nor2_1
*CAP
1 *3170:I 0.000116779
2 *2431:ZN 0.000116779
3 *3170:I *2565:B 0.000294421
4 *3170:I *3160:I 0.000158798
*RES
1 *2431:ZN *3170:I 10.17 
*END

*D_NET *80 0.000791809
*CONN
*I *2940:D I *D gf180mcu_fd_sc_mcu7t5v0__dffq_1
*I *2434:ZN O *D gf180mcu_fd_sc_mcu7t5v0__nor2_1
*CAP
1 *2940:D 0.000180118
2 *2434:ZN 0.000180118
3 *2940:D *2434:A1 0.000228706
4 *2940:D *2434:A2 9.20679e-05
5 *2940:D *2879:C2 0.000110799
*RES
1 *2434:ZN *2940:D 10.89 
*END

*D_NET *81 0.00253157
*CONN
*I *3161:I I *D gf180mcu_fd_sc_mcu7t5v0__dlyc_1
*I *2437:ZN O *D gf180mcu_fd_sc_mcu7t5v0__nor2_1
*CAP
1 *3161:I 0.000912194
2 *2437:ZN 0.000912194
3 *3161:I *2424:A2 2.52908e-05
4 *3161:I *2425:A1 6.98097e-05
5 *3161:I *2425:A2 6.84426e-05
6 *3161:I *2426:A1 0
7 *3161:I *2436:A1 2.32821e-05
8 *3161:I *2437:A1 0.000356899
9 *3161:I *2818:C2 0
10 *3161:I *2937:CLK 0
11 *3161:I *2941:D 0.00016346
*RES
1 *2437:ZN *3161:I 26.46 
*END

*D_NET *82 0.000883684
*CONN
*I *2942:D I *D gf180mcu_fd_sc_mcu7t5v0__dffq_1
*I *2440:ZN O *D gf180mcu_fd_sc_mcu7t5v0__nor2_1
*CAP
1 *2942:D 0.000149876
2 *2440:ZN 0.000149876
3 *2942:D *2868:A1 0.000393387
4 *2942:D *600:26 0.000137697
5 *2942:D *631:16 5.28477e-05
*RES
1 *2440:ZN *2942:D 20.43 
*END

*D_NET *83 0.00245686
*CONN
*I *2943:D I *D gf180mcu_fd_sc_mcu7t5v0__dffq_1
*I *2443:ZN O *D gf180mcu_fd_sc_mcu7t5v0__nor2_1
*CAP
1 *2943:D 0.000680384
2 *2443:ZN 0.000680384
3 *2943:D *2405:A2 4.67368e-05
4 *2943:D *2440:A1 0.000361923
5 *2943:D *2879:C2 0.000482459
6 *2943:D *2942:CLK 3.01487e-05
7 *2943:D *2943:CLK 7.191e-07
8 *2943:D *244:241 7.48093e-05
9 *2943:D *709:71 0
10 *2943:D *781:128 9.28914e-05
11 *2943:D *901:14 6.40664e-06
*RES
1 *2443:ZN *2943:D 23.94 
*END

*D_NET *84 0.000537894
*CONN
*I *3183:I I *D gf180mcu_fd_sc_mcu7t5v0__dlyc_1
*I *2446:ZN O *D gf180mcu_fd_sc_mcu7t5v0__nor2_1
*CAP
1 *3183:I 0.000166305
2 *2446:ZN 0.000166305
3 *3183:I *2431:A1 1.0415e-05
4 *3183:I *2939:CLK 0
5 *3183:I *385:24 0.000194869
*RES
1 *2446:ZN *3183:I 10.35 
*END

*D_NET *85 0.00148291
*CONN
*I *2945:D I *D gf180mcu_fd_sc_mcu7t5v0__dffq_1
*I *2449:ZN O *D gf180mcu_fd_sc_mcu7t5v0__nor2_1
*CAP
1 *2945:D 0.00051043
2 *2449:ZN 0.00051043
3 *2945:D *2449:A2 0.000202713
4 *2945:D *2452:A2 5.11036e-05
5 *2945:D *2947:D 3.73774e-06
6 *2945:D *385:24 0
7 *2945:D *707:6 0.000204492
8 *2945:D *707:48 0
*RES
1 *2449:ZN *2945:D 21.96 
*END

*D_NET *86 0.00171822
*CONN
*I *2946:D I *D gf180mcu_fd_sc_mcu7t5v0__dffq_1
*I *2452:ZN O *D gf180mcu_fd_sc_mcu7t5v0__nor2_1
*CAP
1 *2946:D 0.000361464
2 *2452:ZN 0.000361464
3 *2946:D *2441:A1 1.18076e-06
4 *2946:D *2443:A1 0
5 *2946:D *2452:A2 3.55118e-05
6 *2946:D *2574:A1 3.55118e-05
7 *2946:D *2946:CLK 3.98088e-05
8 *2946:D *3119:I 0.000183652
9 *2946:D *3182:I 0
10 *2946:D *385:24 0.000182486
11 *2946:D *707:48 0.000101624
12 *2946:D *707:50 0.000375176
13 *2946:D *872:12 4.03401e-05
*RES
1 *2452:ZN *2946:D 21.96 
*END

*D_NET *87 0.00308942
*CONN
*I *2947:D I *D gf180mcu_fd_sc_mcu7t5v0__dffq_1
*I *2455:ZN O *D gf180mcu_fd_sc_mcu7t5v0__nor2_1
*CAP
1 *2947:D 0.000999225
2 *2455:ZN 0.000999225
3 *2947:D *2449:A2 0.000491235
4 *2947:D *2455:A1 0.000213957
5 *2947:D *2455:A2 0.000116914
6 *2947:D *3108:I 0
7 *2947:D *707:6 6.23673e-05
8 *2947:D *707:13 0.000112242
9 *2947:D *707:17 9.05146e-05
10 *2945:D *2947:D 3.73774e-06
*RES
1 *2455:ZN *2947:D 16.74 
*END

*D_NET *88 0.000443591
*CONN
*I *2948:D I *D gf180mcu_fd_sc_mcu7t5v0__dffq_1
*I *2458:ZN O *D gf180mcu_fd_sc_mcu7t5v0__nor2_1
*CAP
1 *2948:D 0.000176168
2 *2458:ZN 0.000176168
3 *2948:D *2403:A1 7.01651e-05
4 *2948:D *2406:A2 2.10899e-05
*RES
1 *2458:ZN *2948:D 10.44 
*END

*D_NET *89 0.000644988
*CONN
*I *2949:D I *D gf180mcu_fd_sc_mcu7t5v0__dffq_1
*I *2461:ZN O *D gf180mcu_fd_sc_mcu7t5v0__nor2_1
*CAP
1 *2949:D 0.000269291
2 *2461:ZN 0.000269291
3 *2949:D *2461:A1 4.6613e-06
4 *2949:D *2461:A2 9.93381e-05
5 *2949:D *2464:A1 2.40587e-06
6 *2949:D *2468:A1 0
7 *2949:D *2470:A1 0
*RES
1 *2461:ZN *2949:D 10.71 
*END

*D_NET *90 0.00067801
*CONN
*I *2950:D I *D gf180mcu_fd_sc_mcu7t5v0__dffq_1
*I *2464:ZN O *D gf180mcu_fd_sc_mcu7t5v0__nor2_1
*CAP
1 *2950:D 0.000123361
2 *2464:ZN 0.000123361
3 *2950:D *2463:B 6.31783e-05
4 *2950:D *2466:A2 0.000368109
*RES
1 *2464:ZN *2950:D 10.44 
*END

*D_NET *91 0.000901633
*CONN
*I *2951:D I *D gf180mcu_fd_sc_mcu7t5v0__dffq_1
*I *2467:ZN O *D gf180mcu_fd_sc_mcu7t5v0__nor2_1
*CAP
1 *2951:D 0.000117389
2 *2467:ZN 0.000117389
3 *2951:D *2467:A1 0.000131469
4 *2951:D *2472:A1 0
5 *2951:D *2951:CLK 0.000166798
6 *2951:D *713:53 0.000131469
7 *2951:D *778:55 0.00023712
*RES
1 *2467:ZN *2951:D 19.62 
*END

*D_NET *92 0.00106983
*CONN
*I *2952:D I *D gf180mcu_fd_sc_mcu7t5v0__dffq_1
*I *2470:ZN O *D gf180mcu_fd_sc_mcu7t5v0__nor2_1
*CAP
1 *2952:D 0.000244773
2 *2470:ZN 0.000244773
3 *2952:D *2460:A2 0.000140533
4 *2952:D *2464:A1 5.68787e-05
5 *2952:D *2469:A2 0
6 *2952:D *2470:A2 0.000382875
*RES
1 *2470:ZN *2952:D 20.34 
*END

*D_NET *93 0.00160496
*CONN
*I *2953:D I *D gf180mcu_fd_sc_mcu7t5v0__dffq_1
*I *2472:ZN O *D gf180mcu_fd_sc_mcu7t5v0__aoi21_1
*CAP
1 *2953:D 0.000361854
2 *2472:ZN 0.000361854
3 *2953:D *2488:A1 1.67882e-05
4 *2953:D *2488:B 0.000275077
5 *2953:D *2860:A1 5.83222e-05
6 *2953:D *2961:D 0.000226494
7 *2953:D *295:67 0.000163092
8 *2953:D *496:24 1.59275e-05
9 *2953:D *706:12 6.97472e-05
10 *2953:D *706:16 2.78423e-05
11 *2953:D *778:316 2.79586e-05
12 *2953:D *784:135 0
*RES
1 *2472:ZN *2953:D 21.51 
*END

*D_NET *94 0.000723575
*CONN
*I *2954:D I *D gf180mcu_fd_sc_mcu7t5v0__dffq_1
*I *2474:ZN O *D gf180mcu_fd_sc_mcu7t5v0__aoi211_1
*CAP
1 *2954:D 6.01929e-05
2 *2474:ZN 6.01929e-05
3 *2954:D *2473:A2 0.000267419
4 *2954:D *2474:A1 0.000335771
*RES
1 *2474:ZN *2954:D 9.99 
*END

*D_NET *95 0.00046635
*CONN
*I *2955:D I *D gf180mcu_fd_sc_mcu7t5v0__dffq_1
*I *2476:ZN O *D gf180mcu_fd_sc_mcu7t5v0__aoi211_1
*CAP
1 *2955:D 4.27387e-05
2 *2476:ZN 4.27387e-05
3 *2955:D *2476:A1 0.000302466
4 *2955:D *756:54 7.84068e-05
*RES
1 *2476:ZN *2955:D 9.81 
*END

*D_NET *96 0.00206267
*CONN
*I *2956:D I *D gf180mcu_fd_sc_mcu7t5v0__dffq_1
*I *2478:ZN O *D gf180mcu_fd_sc_mcu7t5v0__aoi211_1
*CAP
1 *2956:D 0.000597829
2 *2478:ZN 0.000597829
3 *2956:D *2478:A1 0.000700334
4 *2956:D *2478:C 6.39361e-05
5 *2956:D *2480:A1 0
6 *2956:D *656:14 2.65444e-06
7 *2956:D *712:10 0.00010009
*RES
1 *2478:ZN *2956:D 23.4 
*END

*D_NET *97 0.000859085
*CONN
*I *2957:D I *D gf180mcu_fd_sc_mcu7t5v0__dffq_1
*I *2480:ZN O *D gf180mcu_fd_sc_mcu7t5v0__aoi211_1
*CAP
1 *2957:D 0.000208203
2 *2480:ZN 0.000208203
3 *2957:D *2480:A1 0.000106536
4 *2957:D *2480:B 0.000169524
5 *2957:D *2827:A1 0.000100996
6 *2957:D *712:57 6.56238e-05
*RES
1 *2480:ZN *2957:D 10.98 
*END

*D_NET *98 0.00152154
*CONN
*I *2958:D I *D gf180mcu_fd_sc_mcu7t5v0__dffq_1
*I *2482:ZN O *D gf180mcu_fd_sc_mcu7t5v0__aoi211_1
*CAP
1 *2958:D 0.000379301
2 *2482:ZN 0.000379301
3 *2958:D *2307:I 7.58723e-05
4 *2958:D *2463:A1 9.0531e-06
5 *2958:D *2478:A1 0.000116442
6 *2958:D *2480:A1 9.04539e-05
7 *2958:D *2482:A1 9.40873e-05
8 *2958:D *2827:A1 7.95552e-06
9 *2958:D *713:104 0
10 *2958:D *946:10 0.000369072
11 *2958:D *951:12 0
*RES
1 *2482:ZN *2958:D 21.51 
*END

*D_NET *99 0.000322211
*CONN
*I *2959:D I *D gf180mcu_fd_sc_mcu7t5v0__dffq_1
*I *2484:ZN O *D gf180mcu_fd_sc_mcu7t5v0__aoi211_1
*CAP
1 *2959:D 5.80345e-05
2 *2484:ZN 5.80345e-05
3 *2959:D *2474:C 0.000127736
4 *2959:D *372:86 7.84068e-05
*RES
1 *2484:ZN *2959:D 9.81 
*END

*D_NET *100 0.00198423
*CONN
*I *2960:D I *D gf180mcu_fd_sc_mcu7t5v0__dffq_1
*I *2486:ZN O *D gf180mcu_fd_sc_mcu7t5v0__aoi211_1
*CAP
1 *2960:D 0.000386569
2 *2486:ZN 0.000386569
3 *2960:D *2303:I 1.85234e-05
4 *2960:D *2842:C2 0
5 *2960:D *2960:CLK 0
6 *2960:D *503:36 0.00119257
*RES
1 *2486:ZN *2960:D 12.6 
*END

*D_NET *101 0.00110897
*CONN
*I *2961:D I *D gf180mcu_fd_sc_mcu7t5v0__dffq_1
*I *2488:ZN O *D gf180mcu_fd_sc_mcu7t5v0__aoi211_1
*CAP
1 *2961:D 0.000336517
2 *2488:ZN 0.000336517
3 *2961:D *2850:A1 4.68559e-05
4 *2961:D *2961:CLK 3.87762e-05
5 *2961:D *630:24 0.000105195
6 *2961:D *778:316 8.20436e-06
7 *2961:D *917:19 1.0415e-05
8 *2953:D *2961:D 0.000226494
*RES
1 *2488:ZN *2961:D 11.79 
*END

*D_NET *102 0.000372897
*CONN
*I *2962:D I *D gf180mcu_fd_sc_mcu7t5v0__dffq_1
*I *2490:ZN O *D gf180mcu_fd_sc_mcu7t5v0__aoi211_1
*CAP
1 *2962:D 0.000103333
2 *2490:ZN 0.000103333
3 *2962:D *2489:A1 4.20744e-05
4 *2962:D *2490:A1 9.30289e-05
5 *2962:D *3027:CLK 3.11274e-05
*RES
1 *2490:ZN *2962:D 9.81 
*END

*D_NET *103 0.000766198
*CONN
*I *2963:D I *D gf180mcu_fd_sc_mcu7t5v0__dffq_1
*I *2492:ZN O *D gf180mcu_fd_sc_mcu7t5v0__aoi211_1
*CAP
1 *2963:D 0.000294349
2 *2492:ZN 0.000294349
3 *2963:D *2491:A1 6.27379e-05
4 *2963:D *2492:A1 4.1834e-05
5 *2963:D *2858:C2 5.32671e-05
6 *2963:D *2867:A2 1.966e-05
*RES
1 *2492:ZN *2963:D 11.07 
*END

*D_NET *104 0.000633329
*CONN
*I *2964:D I *D gf180mcu_fd_sc_mcu7t5v0__dffq_1
*I *2494:ZN O *D gf180mcu_fd_sc_mcu7t5v0__aoi211_1
*CAP
1 *2964:D 1.41985e-05
2 *2494:ZN 1.41985e-05
3 *2964:D *244:49 0.000302466
4 *2964:D *630:24 0.000302466
*RES
1 *2494:ZN *2964:D 9.81 
*END

*D_NET *105 0.000551075
*CONN
*I *2965:D I *D gf180mcu_fd_sc_mcu7t5v0__dffq_1
*I *2496:ZN O *D gf180mcu_fd_sc_mcu7t5v0__aoi211_1
*CAP
1 *2965:D 6.12797e-05
2 *2496:ZN 6.12797e-05
3 *2965:D *3142:I 9.85004e-05
4 *2965:D *372:60 0.000272782
5 *2965:D *703:48 5.72337e-05
*RES
1 *2496:ZN *2965:D 9.81 
*END

*D_NET *106 0.00226024
*CONN
*I *2966:D I *D gf180mcu_fd_sc_mcu7t5v0__dffq_1
*I *2498:ZN O *D gf180mcu_fd_sc_mcu7t5v0__aoi211_1
*CAP
1 *2966:D 0.000230116
2 *2498:ZN 0.000230116
3 *2966:D *2480:B 0.000206762
4 *2966:D *2826:A1 0.000284991
5 *2966:D *2878:B2 0.000785725
6 *2966:D *2879:A1 4.1834e-05
7 *2966:D *656:14 4.34199e-06
8 *2966:D *712:10 0.000309993
9 *2966:D *909:14 0.000166364
*RES
1 *2498:ZN *2966:D 22.5 
*END

*D_NET *107 0.00137533
*CONN
*I *2967:D I *D gf180mcu_fd_sc_mcu7t5v0__dffq_1
*I *2500:ZN O *D gf180mcu_fd_sc_mcu7t5v0__aoi211_1
*CAP
1 *2967:D 0.000300114
2 *2500:ZN 0.000300114
3 *2967:D *2302:I 6.2083e-06
4 *2967:D *2480:A1 8.45762e-05
5 *2967:D *2482:B 0.000494104
6 *2967:D *2834:B2 6.79568e-05
7 *2967:D *778:38 0.000122256
8 *2967:D *778:49 0
9 *2967:D *778:53 0
10 *2967:D *778:253 0
*RES
1 *2500:ZN *2967:D 21.06 
*END

*D_NET *108 0.00198525
*CONN
*I *2968:D I *D gf180mcu_fd_sc_mcu7t5v0__dffq_1
*I *2502:ZN O *D gf180mcu_fd_sc_mcu7t5v0__aoi211_1
*CAP
1 *2968:D 0.000262141
2 *2502:ZN 0.000262141
3 *2968:D *2486:A1 0.00034797
4 *2968:D *2497:A1 0.000208109
5 *2968:D *2501:A1 0.00030737
6 *2968:D *2502:B 0.000299714
7 *2968:D *372:68 0.000101615
8 *2968:D *503:36 0.000174119
9 *2968:D *756:179 3.31858e-06
10 *2968:D *756:181 1.87555e-05
*RES
1 *2502:ZN *2968:D 21.78 
*END

*D_NET *109 0.003042
*CONN
*I *2969:D I *D gf180mcu_fd_sc_mcu7t5v0__dffq_1
*I *2504:ZN O *D gf180mcu_fd_sc_mcu7t5v0__aoi211_1
*CAP
1 *2969:D 0.000162736
2 *2504:ZN 0.000162736
3 *2969:D *2504:C 9.30289e-05
4 *2969:D *2850:C2 0.00128669
5 *2969:D *2884:A2 1.66092e-05
6 *2969:D *2887:A2 1.18707e-05
7 *2969:D *496:24 0.00128927
8 *2969:D *782:121 1.90569e-05
*RES
1 *2504:ZN *2969:D 22.14 
*END

*D_NET *110 0.00173059
*CONN
*I *2970:D I *D gf180mcu_fd_sc_mcu7t5v0__dffq_1
*I *2506:ZN O *D gf180mcu_fd_sc_mcu7t5v0__aoi211_1
*CAP
1 *2970:D 0.000655046
2 *2506:ZN 0.000655046
3 *2970:D *2506:B 2.1082e-05
4 *2970:D *2506:C 3.54696e-05
5 *2970:D *2763:A1 0.000169821
6 *2970:D *2886:B 6.95119e-05
7 *2970:D *756:104 0
8 *2970:D *924:16 0.000124614
*RES
1 *2506:ZN *2970:D 13.68 
*END

*D_NET *111 0.00262693
*CONN
*I *2971:D I *D gf180mcu_fd_sc_mcu7t5v0__dffq_1
*I *2508:ZN O *D gf180mcu_fd_sc_mcu7t5v0__aoi211_1
*CAP
1 *2971:D 0.000533554
2 *2508:ZN 0.000533554
3 *2971:D *2320:A1 1.17752e-05
4 *2971:D *2323:A3 5.28867e-05
5 *2971:D *2504:A1 0.000287576
6 *2971:D *2508:B 0.000547037
7 *2971:D *2867:C2 0.000442017
8 *2971:D *778:420 4.73993e-05
9 *2971:D *940:12 0.000171129
*RES
1 *2508:ZN *2971:D 23.04 
*END

*D_NET *112 0.000990863
*CONN
*I *2972:D I *D gf180mcu_fd_sc_mcu7t5v0__dffq_1
*I *2510:ZN O *D gf180mcu_fd_sc_mcu7t5v0__aoi211_1
*CAP
1 *2972:D 0.00015782
2 *2510:ZN 0.00015782
3 *2972:D *2510:B 8.53098e-05
4 *2972:D *251:30 0
5 *2972:D *783:92 0.000589913
*RES
1 *2510:ZN *2972:D 10.8 
*END

*D_NET *113 0.000671422
*CONN
*I *2973:D I *D gf180mcu_fd_sc_mcu7t5v0__dffq_1
*I *2516:ZN O *D gf180mcu_fd_sc_mcu7t5v0__nor3_1
*CAP
1 *2973:D 0.000152988
2 *2516:ZN 0.000152988
3 *2973:D *2521:A1 0.000365445
*RES
1 *2516:ZN *2973:D 10.44 
*END

*D_NET *114 0.000393729
*CONN
*I *2974:D I *D gf180mcu_fd_sc_mcu7t5v0__dffq_1
*I *2519:ZN O *D gf180mcu_fd_sc_mcu7t5v0__nor3_1
*CAP
1 *2974:D 0.000137274
2 *2519:ZN 0.000137274
3 *2974:D *2973:CLK 0
4 *2974:D *708:14 0.000119182
*RES
1 *2519:ZN *2974:D 10.08 
*END

*D_NET *115 0.00039136
*CONN
*I *2975:D I *D gf180mcu_fd_sc_mcu7t5v0__dffq_1
*I *2523:ZN O *D gf180mcu_fd_sc_mcu7t5v0__clkinv_1
*CAP
1 *2975:D 0.000168155
2 *2523:ZN 0.000168155
3 *2975:D *2523:I 0
4 *2975:D *708:8 5.50498e-05
*RES
1 *2523:ZN *2975:D 10.26 
*END

*D_NET *116 0.000919206
*CONN
*I *2976:D I *D gf180mcu_fd_sc_mcu7t5v0__dffq_1
*I *2526:ZN O *D gf180mcu_fd_sc_mcu7t5v0__nor3_1
*CAP
1 *2976:D 0.000176631
2 *2526:ZN 0.000176631
3 *2976:D *2526:A1 0.000248182
4 *2976:D *2527:A1 2.75149e-05
5 *2976:D *2527:A2 3.01487e-05
6 *2976:D *880:12 0.000156001
7 *2976:D *880:27 0.000104098
*RES
1 *2526:ZN *2976:D 11.07 
*END

*D_NET *117 0.000890768
*CONN
*I *2977:D I *D gf180mcu_fd_sc_mcu7t5v0__dffq_1
*I *2529:ZN O *D gf180mcu_fd_sc_mcu7t5v0__nor3_1
*CAP
1 *2977:D 0.000258639
2 *2529:ZN 0.000258639
3 *2977:D *2529:A1 0.00037349
4 *2977:D *2531:A2 0
*RES
1 *2529:ZN *2977:D 11.34 
*END

*D_NET *118 0.000658762
*CONN
*I *2978:D I *D gf180mcu_fd_sc_mcu7t5v0__dffq_1
*I *2533:ZN O *D gf180mcu_fd_sc_mcu7t5v0__clkinv_1
*CAP
1 *2978:D 0.000178148
2 *2533:ZN 0.000178148
3 *2978:D *3172:I 0.000302466
4 *2978:D *700:17 0
*RES
1 *2533:ZN *2978:D 10.62 
*END

*D_NET *119 0.00167482
*CONN
*I *2979:D I *D gf180mcu_fd_sc_mcu7t5v0__dffq_1
*I *2536:ZN O *D gf180mcu_fd_sc_mcu7t5v0__nor3_1
*CAP
1 *2979:D 0.000312728
2 *2536:ZN 0.000312728
3 *2979:D *2534:A1 4.20783e-05
4 *2979:D *2534:A2 0.000528947
5 *2979:D *2535:A2 1.17725e-05
6 *2979:D *2536:A2 0.000120052
7 *2979:D *2536:A3 2.8478e-05
8 *2979:D *2548:A1 0
9 *2979:D *385:35 1.86887e-06
10 *2979:D *711:8 0.000316173
*RES
1 *2536:ZN *2979:D 12.87 
*END

*D_NET *120 0.000660409
*CONN
*I *2980:D I *D gf180mcu_fd_sc_mcu7t5v0__dffq_1
*I *2539:ZN O *D gf180mcu_fd_sc_mcu7t5v0__nor3_1
*CAP
1 *2980:D 9.35408e-05
2 *2539:ZN 9.35408e-05
3 *2980:D *2540:A2 3.72424e-05
4 *2980:D *2540:B 6.53487e-05
5 *2980:D *2542:I 0.000362773
6 *2980:D *373:136 7.96333e-06
*RES
1 *2539:ZN *2980:D 10.26 
*END

*D_NET *121 0.00162356
*CONN
*I *2981:D I *D gf180mcu_fd_sc_mcu7t5v0__dffq_1
*I *2542:ZN O *D gf180mcu_fd_sc_mcu7t5v0__clkinv_1
*CAP
1 *2981:D 0.000216839
2 *2542:ZN 0.000216839
3 *2981:D *2542:I 2.59366e-05
4 *2981:D *3226:I 0.000381453
5 *2981:D *711:33 0.000782491
*RES
1 *2542:ZN *2981:D 12.06 
*END

*D_NET *122 0.000669389
*CONN
*I *2982:D I *D gf180mcu_fd_sc_mcu7t5v0__dffq_1
*I *2545:ZN O *D gf180mcu_fd_sc_mcu7t5v0__nor3_1
*CAP
1 *2982:D 7.90198e-05
2 *2545:ZN 7.90198e-05
3 *2982:D *2542:I 0.000362773
4 *2982:D *2545:A1 0.000148576
5 *2982:D *373:136 0
*RES
1 *2545:ZN *2982:D 10.26 
*END

*D_NET *123 0.000421091
*CONN
*I *2983:D I *D gf180mcu_fd_sc_mcu7t5v0__dffq_1
*I *2549:ZN O *D gf180mcu_fd_sc_mcu7t5v0__nor3_1
*CAP
1 *2983:D 0.000168357
2 *2549:ZN 0.000168357
3 *2983:D *3225:I 1.50737e-05
4 *2983:D *373:114 4.6613e-06
5 *2983:D *373:123 6.46422e-05
*RES
1 *2549:ZN *2983:D 10.26 
*END

*D_NET *124 0.000757507
*CONN
*I *2984:D I *D gf180mcu_fd_sc_mcu7t5v0__dffq_1
*I *2552:ZN O *D gf180mcu_fd_sc_mcu7t5v0__nor3_1
*CAP
1 *2984:D 9.58188e-05
2 *2552:ZN 9.58188e-05
3 *2984:D *2983:CLK 0.000444513
4 *2984:D *373:101 0.000121356
*RES
1 *2552:ZN *2984:D 10.44 
*END

*D_NET *125 0.000755292
*CONN
*I *2985:D I *D gf180mcu_fd_sc_mcu7t5v0__dffq_1
*I *2555:ZN O *D gf180mcu_fd_sc_mcu7t5v0__nor3_1
*CAP
1 *2985:D 0.000200698
2 *2555:ZN 0.000200698
3 *2985:D *2555:A2 0.000110639
4 *2985:D *710:39 0.000243256
*RES
1 *2555:ZN *2985:D 11.07 
*END

*D_NET *126 0.00048919
*CONN
*I *2986:D I *D gf180mcu_fd_sc_mcu7t5v0__dffq_1
*I *2558:ZN O *D gf180mcu_fd_sc_mcu7t5v0__nor3_1
*CAP
1 *2986:D 2.94943e-05
2 *2558:ZN 2.94943e-05
3 *2986:D *373:88 0.000302466
4 *2986:D *404:8 0.000127736
*RES
1 *2558:ZN *2986:D 9.81 
*END

*D_NET *127 0.00112581
*CONN
*I *2987:D I *D gf180mcu_fd_sc_mcu7t5v0__dffq_1
*I *2561:ZN O *D gf180mcu_fd_sc_mcu7t5v0__nor3_1
*CAP
1 *2987:D 0.000383703
2 *2561:ZN 0.000383703
3 *2987:D *2569:A2 0
4 *2987:D *2989:D 4.18699e-05
5 *2987:D *3229:I 0.000257969
6 *2987:D *373:69 5.8566e-05
7 *2987:D *707:67 0
*RES
1 *2561:ZN *2987:D 21.06 
*END

*D_NET *128 0.000455207
*CONN
*I *2988:D I *D gf180mcu_fd_sc_mcu7t5v0__dffq_1
*I *2564:ZN O *D gf180mcu_fd_sc_mcu7t5v0__clkinv_1
*CAP
1 *2988:D 5.54356e-05
2 *2564:ZN 5.54356e-05
3 *2988:D *2563:B 4.18699e-05
4 *2988:D *2564:I 0.000302466
*RES
1 *2564:ZN *2988:D 9.81 
*END

*D_NET *129 0.00253505
*CONN
*I *2989:D I *D gf180mcu_fd_sc_mcu7t5v0__dffq_1
*I *2567:ZN O *D gf180mcu_fd_sc_mcu7t5v0__nor3_1
*CAP
1 *2989:D 0.000650387
2 *2567:ZN 0.000650387
3 *2989:D *2559:A1 0.000237619
4 *2989:D *2563:A2 0
5 *2989:D *2565:A2 1.97308e-05
6 *2989:D *2566:A1 0.000343492
7 *2989:D *2989:CLK 0
8 *2989:D *3229:I 3.0341e-05
9 *2989:D *373:69 0.000490618
10 *2989:D *406:14 5.32552e-05
11 *2989:D *406:24 1.73553e-05
12 *2987:D *2989:D 4.18699e-05
*RES
1 *2567:ZN *2989:D 23.76 
*END

*D_NET *130 0.00153011
*CONN
*I *2990:D I *D gf180mcu_fd_sc_mcu7t5v0__dffq_1
*I *2570:ZN O *D gf180mcu_fd_sc_mcu7t5v0__nor3_1
*CAP
1 *2990:D 0.000115514
2 *2570:ZN 0.000115514
3 *2990:D *2570:A3 0.000499457
4 *2990:D *2573:A2 3.58953e-05
5 *2990:D *373:50 0.00076373
*RES
1 *2570:ZN *2990:D 11.34 
*END

*D_NET *131 0.00174938
*CONN
*I *2991:D I *D gf180mcu_fd_sc_mcu7t5v0__dffq_1
*I *2573:ZN O *D gf180mcu_fd_sc_mcu7t5v0__nor3_1
*CAP
1 *2991:D 0.000258309
2 *2573:ZN 0.000258309
3 *2991:D *2572:A1 6.46422e-05
4 *2991:D *2573:A2 0.000317314
5 *2991:D *2992:D 0.000302466
6 *2991:D *373:50 0.000378828
7 *2991:D *774:14 0.000169515
*RES
1 *2573:ZN *2991:D 12.96 
*END

*D_NET *132 0.00172776
*CONN
*I *2992:D I *D gf180mcu_fd_sc_mcu7t5v0__dffq_1
*I *2576:ZN O *D gf180mcu_fd_sc_mcu7t5v0__nor3_1
*CAP
1 *2992:D 0.000202545
2 *2576:ZN 0.000202545
3 *2992:D *2573:A2 0.000294431
4 *2992:D *774:14 0.000725771
5 *2991:D *2992:D 0.000302466
*RES
1 *2576:ZN *2992:D 20.7 
*END

*D_NET *133 0.000472021
*CONN
*I *2993:D I *D gf180mcu_fd_sc_mcu7t5v0__dffq_1
*I *2579:ZN O *D gf180mcu_fd_sc_mcu7t5v0__nor3_1
*CAP
1 *2993:D 0.000151207
2 *2579:ZN 0.000151207
3 *2993:D *2582:A3 0.000127736
4 *2993:D *700:63 4.18699e-05
*RES
1 *2579:ZN *2993:D 10.44 
*END

*D_NET *134 0.00127114
*CONN
*I *2994:D I *D gf180mcu_fd_sc_mcu7t5v0__dffq_1
*I *2582:ZN O *D gf180mcu_fd_sc_mcu7t5v0__nor3_1
*CAP
1 *2994:D 0.000461474
2 *2582:ZN 0.000461474
3 *2994:D *2580:A1 4.77483e-06
4 *2994:D *2580:A2 6.44696e-05
5 *2994:D *2582:A1 2.89427e-06
6 *2994:D *2582:A2 0.000177559
7 *2994:D *2582:A3 9.84908e-05
8 trigger_signal_out *2994:D 0
*RES
1 *2582:ZN *2994:D 21.33 
*END

*D_NET *135 0.0033563
*CONN
*I *2995:D I *D gf180mcu_fd_sc_mcu7t5v0__dffq_1
*I *2586:ZN O *D gf180mcu_fd_sc_mcu7t5v0__nor2_1
*CAP
1 *2995:D 0.000434263
2 *2586:ZN 0.000434263
3 *2995:D *2584:A3 3.56708e-05
4 *2995:D *2584:A4 0.0010751
5 *2995:D *2586:A1 0.00013712
6 *2995:D *2586:A2 1.51153e-05
7 *2995:D *3184:I 1.0415e-05
8 *2995:D *700:51 0.000370481
9 *2995:D *700:53 0.000763634
10 *2995:D *700:99 2.3037e-05
11 *2995:D *874:21 3.94491e-05
12 *2995:D *875:29 1.77471e-05
*RES
1 *2586:ZN *2995:D 23.76 
*END

*D_NET *136 0.00271261
*CONN
*I *2996:D I *D gf180mcu_fd_sc_mcu7t5v0__dffq_1
*I *2588:ZN O *D gf180mcu_fd_sc_mcu7t5v0__nor2_1
*CAP
1 *2996:D 0.00013179
2 *2588:ZN 0.00013179
3 *2996:D *2585:A2 0.000942029
4 *2996:D *2588:A2 4.80371e-05
5 *2996:D *373:12 0.000276946
6 *2996:D *373:23 0
7 *2996:D *700:49 0.00118202
*RES
1 *2588:ZN *2996:D 21.78 
*END

*D_NET *137 0.00197575
*CONN
*I *2997:D I *D gf180mcu_fd_sc_mcu7t5v0__dffq_1
*I *2617:ZN O *D gf180mcu_fd_sc_mcu7t5v0__aoi21_1
*CAP
1 *2997:D 0.000158539
2 *2617:ZN 0.000158539
3 *2997:D *2516:A2 0.000838147
4 *2997:D *2617:A1 9.26419e-06
5 *2997:D *2617:A2 0.000151417
6 *2997:D *2617:B 0.000659846
7 *2997:D *726:41 0
*RES
1 *2617:ZN *2997:D 21.24 
*END

*D_NET *138 0.000561877
*CONN
*I *2998:D I *D gf180mcu_fd_sc_mcu7t5v0__dffq_1
*I *2621:ZN O *D gf180mcu_fd_sc_mcu7t5v0__nor3_1
*CAP
1 *2998:D 7.41269e-05
2 *2621:ZN 7.41269e-05
3 *2998:D *2619:A1 0.000119192
4 *2998:D *2622:A2 0.000294431
*RES
1 *2621:ZN *2998:D 10.08 
*END

*D_NET *139 0.0018027
*CONN
*I *2999:D I *D gf180mcu_fd_sc_mcu7t5v0__dffq_1
*I *2626:ZN O *D gf180mcu_fd_sc_mcu7t5v0__nor3_1
*CAP
1 *2999:D 0.00019333
2 *2626:ZN 0.00019333
3 *2999:D *2383:B2 0.000147507
4 *2999:D *2617:A2 0.000653875
5 *2999:D *2624:A1 4.91692e-05
6 *2999:D *2624:A4 2.13441e-06
7 *2999:D *2626:A2 0.000169515
8 *2999:D *2626:A3 0.000130013
9 *2999:D *698:67 0.000187295
10 *2999:D *725:10 3.55118e-05
11 *2999:D *734:16 4.10149e-05
*RES
1 *2626:ZN *2999:D 21.24 
*END

*D_NET *140 0.000688845
*CONN
*I *3000:D I *D gf180mcu_fd_sc_mcu7t5v0__dffq_1
*I *2629:ZN O *D gf180mcu_fd_sc_mcu7t5v0__nor3_1
*CAP
1 *3000:D 0.000223851
2 *2629:ZN 0.000223851
3 *3000:D *3002:CLK 0.000143583
4 *3000:D *698:26 0
5 *3096:I *3000:D 9.75592e-05
*RES
1 *2629:ZN *3000:D 19.89 
*END

*D_NET *141 0.00147606
*CONN
*I *3001:D I *D gf180mcu_fd_sc_mcu7t5v0__dffq_1
*I *2631:ZN O *D gf180mcu_fd_sc_mcu7t5v0__aoi21_1
*CAP
1 *3001:D 0.000402624
2 *2631:ZN 0.000402624
3 *3001:D *2629:A2 0.000136885
4 *3001:D *2630:A2 0.000182206
5 *3001:D *3002:CLK 0
6 *3001:D *736:10 0.000137004
7 *3096:I *3001:D 0.000214714
*RES
1 *2631:ZN *3001:D 22.95 
*END

*D_NET *142 0.00271519
*CONN
*I *3002:D I *D gf180mcu_fd_sc_mcu7t5v0__dffq_1
*I *2634:ZN O *D gf180mcu_fd_sc_mcu7t5v0__nor3_1
*CAP
1 *3002:D 0.000829425
2 *2634:ZN 0.000829425
3 *3002:D *2624:A2 0
4 *3002:D *2634:A2 8.4612e-05
5 *3002:D *2634:A3 0.000118327
6 *3002:D *460:6 4.6613e-06
7 *3002:D *460:10 7.86152e-05
8 *3002:D *463:10 3.52536e-05
9 *3002:D *735:6 0.000729558
10 *3002:D *736:36 0
11 *3002:D *736:51 5.30888e-06
*RES
1 *2634:ZN *3002:D 16.56 
*END

*D_NET *143 0.00068158
*CONN
*I *3003:D I *D gf180mcu_fd_sc_mcu7t5v0__dffq_1
*I *2636:ZN O *D gf180mcu_fd_sc_mcu7t5v0__aoi21_1
*CAP
1 *3003:D 0.000140982
2 *2636:ZN 0.000140982
3 *3003:D *2630:B 9.10973e-06
4 *3003:D *456:10 0
5 *3003:D *457:6 4.35286e-06
6 *3003:D *463:20 3.01487e-05
7 *3003:D *698:96 0.000356005
*RES
1 *2636:ZN *3003:D 10.26 
*END

*D_NET *144 0.00279193
*CONN
*I *3004:D I *D gf180mcu_fd_sc_mcu7t5v0__dffq_1
*I *2639:ZN O *D gf180mcu_fd_sc_mcu7t5v0__nor3_1
*CAP
1 *3004:D 0.000487091
2 *2639:ZN 0.000487091
3 *3004:D *2600:A1 0.000102859
4 *3004:D *2615:A1 0.000282806
5 *3004:D *2637:A1 0
6 *3004:D *2638:A1 0.000222026
7 *3004:D *2638:B 0.000157039
8 *3004:D *2639:A2 3.38463e-05
9 *3004:D *735:34 0.000142874
10 *3004:D *736:63 0.000119952
11 *3004:D *737:30 0.000696149
12 *3004:D *738:20 1.49262e-05
13 *3004:D *738:28 4.52708e-05
*RES
1 *2639:ZN *3004:D 23.67 
*END

*D_NET *145 0.000339298
*CONN
*I *3005:D I *D gf180mcu_fd_sc_mcu7t5v0__dffq_1
*I *2641:ZN O *D gf180mcu_fd_sc_mcu7t5v0__aoi21_1
*CAP
1 *3005:D 0.000169649
2 *2641:ZN 0.000169649
3 *3005:D *3005:CLK 0
*RES
1 *2641:ZN *3005:D 10.08 
*END

*D_NET *146 0.000986342
*CONN
*I *3006:D I *D gf180mcu_fd_sc_mcu7t5v0__dffq_1
*I *2644:ZN O *D gf180mcu_fd_sc_mcu7t5v0__nor3_1
*CAP
1 *3006:D 0.000171238
2 *2644:ZN 0.000171238
3 *3006:D *2642:A2 0.000118129
4 *3006:D *2644:A3 0.000285306
5 *3006:D *457:47 0.000111418
6 *3006:D *740:66 0.000129013
*RES
1 *2644:ZN *3006:D 20.34 
*END

*D_NET *147 0.00220213
*CONN
*I *3007:D I *D gf180mcu_fd_sc_mcu7t5v0__dffq_1
*I *2647:ZN O *D gf180mcu_fd_sc_mcu7t5v0__nor3_1
*CAP
1 *3007:D 0.00028585
2 *2647:ZN 0.00028585
3 *3007:D *2647:A2 0.000121356
4 *3007:D *2649:A1 0
5 *3007:D *2649:A2 0
6 *3007:D *3006:CLK 3.97987e-05
7 *3007:D *470:19 0.000664144
8 *3007:D *699:21 0.000528649
9 *3007:D *728:10 0.000276481
10 *3007:D *740:14 0
*RES
1 *2647:ZN *3007:D 22.14 
*END

*D_NET *148 0.000477257
*CONN
*I *3008:D I *D gf180mcu_fd_sc_mcu7t5v0__dffq_1
*I *2650:ZN O *D gf180mcu_fd_sc_mcu7t5v0__nor3_1
*CAP
1 *3008:D 0.000238628
2 *2650:ZN 0.000238628
3 *3008:D *2646:A1 0
4 *3008:D *2650:A3 0
*RES
1 *2650:ZN *3008:D 10.62 
*END

*D_NET *149 0.00293179
*CONN
*I *3009:D I *D gf180mcu_fd_sc_mcu7t5v0__dffq_1
*I *2653:ZN O *D gf180mcu_fd_sc_mcu7t5v0__nor2_1
*CAP
1 *3009:D 0.000707279
2 *2653:ZN 0.000707279
3 *3009:D *2652:A1 1.61174e-05
4 *3009:D *2652:B 0.000218459
5 *3009:D *2653:A2 5.80964e-05
6 *3009:D *2655:B 6.93127e-05
7 *3009:D *2659:A2 2.91655e-05
8 *3009:D *2660:A2 8.65553e-07
9 *3009:D *3010:CLK 0.000428567
10 *3009:D *457:47 1.86249e-05
11 *3009:D *457:58 0.000202387
12 *3009:D *457:71 6.24947e-05
13 *3009:D *479:8 6.53509e-06
14 *3009:D *729:13 0.000174029
15 *3009:D *729:34 0.000220503
16 *3009:D *733:14 1.20716e-05
*RES
1 *2653:ZN *3009:D 24.66 
*END

*D_NET *150 0.00288136
*CONN
*I *3010:D I *D gf180mcu_fd_sc_mcu7t5v0__dffq_1
*I *2655:ZN O *D gf180mcu_fd_sc_mcu7t5v0__aoi21_1
*CAP
1 *3010:D 0.000244015
2 *2655:ZN 0.000244015
3 *3010:D *2591:A2 1.86249e-05
4 *3010:D *2610:A1 3.42509e-05
5 *3010:D *2611:A1 0.000215362
6 *3010:D *2655:A1 0.000362309
7 *3010:D *2659:A1 0.000180704
8 *3010:D *3011:CLK 0.0004349
9 *3010:D *732:29 0.000123905
10 *3010:D *733:14 0.00102327
*RES
1 *2655:ZN *3010:D 22.5 
*END

*D_NET *151 0.00192007
*CONN
*I *3011:D I *D gf180mcu_fd_sc_mcu7t5v0__dffq_1
*I *2658:ZN O *D gf180mcu_fd_sc_mcu7t5v0__nor3_1
*CAP
1 *3011:D 0.000685552
2 *2658:ZN 0.000685552
3 *3011:D *2658:A3 3.01487e-05
4 *3011:D *2659:A1 0.000130893
5 *3011:D *2662:B 0.000246588
6 *3011:D *731:14 3.01487e-05
7 *3011:D *732:29 3.23963e-05
8 *3011:D *743:30 7.87915e-05
*RES
1 *2658:ZN *3011:D 14.04 
*END

*D_NET *152 0.00215963
*CONN
*I *3012:D I *D gf180mcu_fd_sc_mcu7t5v0__dffq_1
*I *2661:ZN O *D gf180mcu_fd_sc_mcu7t5v0__nor2_1
*CAP
1 *3012:D 0.000287476
2 *2661:ZN 0.000287476
3 *3012:D *2654:B 0
4 *3012:D *2656:B 7.41234e-06
5 *3012:D *2658:A2 0
6 *3012:D *2660:A2 0.000334344
7 *3012:D *2661:A1 0.00107975
8 *3012:D *2661:A2 0.000163177
*RES
1 *2661:ZN *3012:D 13.05 
*END

*D_NET *153 0.00195529
*CONN
*I *3013:D I *D gf180mcu_fd_sc_mcu7t5v0__dffq_1
*I *2663:ZN O *D gf180mcu_fd_sc_mcu7t5v0__aoi21_1
*CAP
1 *3013:D 0.000318286
2 *2663:ZN 0.000318286
3 *3013:D *2661:A1 4.45441e-05
4 *3013:D *2663:A1 0.000164036
5 *3013:D *2663:A2 0.000479381
6 *3013:D *2663:B 4.4391e-05
7 *3013:D *480:21 0.000247379
8 *3013:D *733:8 0.00033899
*RES
1 *2663:ZN *3013:D 22.59 
*END

*D_NET *154 0.000473645
*CONN
*I *3014:D I *D gf180mcu_fd_sc_mcu7t5v0__dffq_1
*I *2687:ZN O *D gf180mcu_fd_sc_mcu7t5v0__aoi21_1
*CAP
1 *3014:D 0.000236823
2 *2687:ZN 0.000236823
*RES
1 *2687:ZN *3014:D 10.53 
*END

*D_NET *155 0.00130116
*CONN
*I *3015:D I *D gf180mcu_fd_sc_mcu7t5v0__dffq_1
*I *2691:ZN O *D gf180mcu_fd_sc_mcu7t5v0__nor2_1
*CAP
1 *3015:D 0.000247696
2 *2691:ZN 0.000247696
3 *3015:D *3091:I 0.000782491
4 *3015:D *711:33 2.32821e-05
5 *3015:D *711:37 0
*RES
1 *2691:ZN *3015:D 11.7 
*END

*D_NET *156 0.00145545
*CONN
*I *3016:D I *D gf180mcu_fd_sc_mcu7t5v0__dffq_1
*I *2695:ZN O *D gf180mcu_fd_sc_mcu7t5v0__nor2_1
*CAP
1 *3016:D 0.000142234
2 *2695:ZN 0.000142234
3 *3016:D *2684:I 0.000455766
4 *3016:D *2687:A2 2.37509e-05
5 *3016:D *2695:A1 0.000223407
6 *3016:D *2695:A2 0.000283705
7 *3016:D *372:123 9.39061e-05
8 *3016:D *372:129 9.04462e-05
*RES
1 *2695:ZN *3016:D 20.34 
*END

*D_NET *157 0.000875792
*CONN
*I *3017:D I *D gf180mcu_fd_sc_mcu7t5v0__dffq_1
*I *2699:ZN O *D gf180mcu_fd_sc_mcu7t5v0__nor2_1
*CAP
1 *3017:D 0.000135892
2 *2699:ZN 0.000135892
3 *3017:D *2691:A1 1.07354e-05
4 *3017:D *2691:A2 0.000255088
5 *3017:D *3091:I 0.000302466
6 *3017:D *372:129 3.57187e-05
*RES
1 *2699:ZN *3017:D 19.62 
*END

*D_NET *158 0.000553878
*CONN
*I *3018:D I *D gf180mcu_fd_sc_mcu7t5v0__dffq_1
*I *2703:ZN O *D gf180mcu_fd_sc_mcu7t5v0__nor2_1
*CAP
1 *3018:D 4.64524e-05
2 *2703:ZN 4.64524e-05
3 *3018:D *2703:A1 0.000151427
4 *3018:D *2703:A2 0.000294431
5 *3018:D *2706:B2 1.51153e-05
*RES
1 *2703:ZN *3018:D 9.99 
*END

*D_NET *159 0.00158409
*CONN
*I *3019:D I *D gf180mcu_fd_sc_mcu7t5v0__dffq_1
*I *2707:ZN O *D gf180mcu_fd_sc_mcu7t5v0__nor2_1
*CAP
1 *3019:D 0.000483203
2 *2707:ZN 0.000483203
3 *3019:D *2703:A1 0.000299669
4 *3019:D *2703:A2 9.31065e-06
5 *3019:D *3018:CLK 0.000116914
6 *3019:D *3019:CLK 0.000183662
7 *3019:D *911:10 8.12856e-06
8 *3019:D *911:47 0
*RES
1 *2707:ZN *3019:D 13.32 
*END

*D_NET *160 0.00133531
*CONN
*I *3020:D I *D gf180mcu_fd_sc_mcu7t5v0__dffq_1
*I *2710:ZN O *D gf180mcu_fd_sc_mcu7t5v0__aoi211_1
*CAP
1 *3020:D 0.000447651
2 *2710:ZN 0.000447651
3 *3020:D *2686:B 0.000148661
4 *3020:D *2710:A1 0.000237306
5 *3020:D *2710:B 5.4037e-05
6 *3020:D *931:8 0
*RES
1 *2710:ZN *3020:D 21.96 
*END

*D_NET *161 0.000306304
*CONN
*I *3021:D I *D gf180mcu_fd_sc_mcu7t5v0__dffq_1
*I *2714:ZN O *D gf180mcu_fd_sc_mcu7t5v0__aoi211_1
*CAP
1 *3021:D 0.000114291
2 *2714:ZN 0.000114291
3 *3021:D *2714:A1 6.09211e-05
4 *3021:D *3022:CLK 1.68011e-05
*RES
1 *2714:ZN *3021:D 9.81 
*END

*D_NET *162 0.00100838
*CONN
*I *3022:D I *D gf180mcu_fd_sc_mcu7t5v0__dffq_1
*I *2718:ZN O *D gf180mcu_fd_sc_mcu7t5v0__aoi211_1
*CAP
1 *3022:D 0.000163322
2 *2718:ZN 0.000163322
3 *3022:D *2718:B 2.24153e-05
4 *3022:D *502:214 0.000555624
5 *3022:D *503:131 0.000103702
*RES
1 *2718:ZN *3022:D 10.98 
*END

*D_NET *163 0.00269524
*CONN
*I *3023:D I *D gf180mcu_fd_sc_mcu7t5v0__dffq_1
*I *2722:ZN O *D gf180mcu_fd_sc_mcu7t5v0__nor2_1
*CAP
1 *3023:D 0.000225914
2 *2722:ZN 0.000225914
3 *3023:D *2473:A1 2.00978e-05
4 *3023:D *2686:B 0.000455766
5 *3023:D *372:103 0.00101828
6 *3023:D *525:16 0
7 *3023:D *784:69 0.000708285
8 *3023:D *934:8 1.07374e-05
9 *3023:D *934:58 3.02485e-05
*RES
1 *2722:ZN *3023:D 21.96 
*END

*D_NET *164 0.00175483
*CONN
*I *3024:D I *D gf180mcu_fd_sc_mcu7t5v0__dffq_1
*I *2726:ZN O *D gf180mcu_fd_sc_mcu7t5v0__aoi211_1
*CAP
1 *3024:D 0.000205667
2 *2726:ZN 0.000205667
3 *3024:D *2473:A1 1.94194e-05
4 *3024:D *2725:A1 9.67415e-05
5 *3024:D *2725:A2 0.000555324
6 *3024:D *2726:B 4.6613e-06
7 *3024:D *2726:C 3.12451e-05
8 *3024:D *3023:CLK 0.000182206
9 *3024:D *372:103 0.000190216
10 *3024:D *502:191 0.000205505
11 *3024:D *531:10 5.81772e-05
*RES
1 *2726:ZN *3024:D 21.42 
*END

*D_NET *165 0.00116261
*CONN
*I *3025:D I *D gf180mcu_fd_sc_mcu7t5v0__dffq_1
*I *2731:ZN O *D gf180mcu_fd_sc_mcu7t5v0__nor2_1
*CAP
1 *3025:D 0.000224907
2 *2731:ZN 0.000224907
3 *3025:D *2730:A2 0.000436469
4 *3025:D *2731:A1 0.000163467
5 *3025:D *3025:CLK 1.9246e-05
6 *3025:D *502:178 3.97987e-05
7 *3025:D *502:191 2.08301e-05
8 *3025:D *503:106 3.73774e-06
9 *3025:D *503:117 2.92479e-05
*RES
1 *2731:ZN *3025:D 11.25 
*END

*D_NET *166 0.000623423
*CONN
*I *3026:D I *D gf180mcu_fd_sc_mcu7t5v0__dffq_1
*I *2735:ZN O *D gf180mcu_fd_sc_mcu7t5v0__nor2_1
*CAP
1 *3026:D 0.000261831
2 *2735:ZN 0.000261831
3 *3026:D *2734:B 8.68281e-06
4 *3026:D *3026:CLK 0
5 *10:20 *3026:D 9.10772e-05
*RES
1 *2735:ZN *3026:D 10.98 
*END

*D_NET *167 0.000753431
*CONN
*I *3027:D I *D gf180mcu_fd_sc_mcu7t5v0__dffq_1
*I *2738:ZN O *D gf180mcu_fd_sc_mcu7t5v0__aoi211_1
*CAP
1 *3027:D 0.000246886
2 *2738:ZN 0.000246886
3 *3027:D *2288:I 0
4 *3027:D *2738:A1 2.65444e-06
5 *3027:D *2738:A2 0.000147435
6 *3027:D *914:14 0
7 *10:20 *3027:D 0.000109569
*RES
1 *2738:ZN *3027:D 11.16 
*END

*D_NET *168 0.000633329
*CONN
*I *3028:D I *D gf180mcu_fd_sc_mcu7t5v0__dffq_1
*I *2742:ZN O *D gf180mcu_fd_sc_mcu7t5v0__aoi211_1
*CAP
1 *3028:D 1.41985e-05
2 *2742:ZN 1.41985e-05
3 *3028:D *2674:A3 0.000302466
4 *3028:D *2738:C 0.000302466
*RES
1 *2742:ZN *3028:D 9.81 
*END

*D_NET *169 0.000545871
*CONN
*I *3029:D I *D gf180mcu_fd_sc_mcu7t5v0__dffq_1
*I *2746:ZN O *D gf180mcu_fd_sc_mcu7t5v0__nor2_1
*CAP
1 *3029:D 8.61905e-05
2 *2746:ZN 8.61905e-05
3 *3029:D *2746:A2 0.00037349
4 *3029:D *295:63 0
*RES
1 *2746:ZN *3029:D 9.99 
*END

*D_NET *170 0.000461405
*CONN
*I *3030:D I *D gf180mcu_fd_sc_mcu7t5v0__dffq_1
*I *2750:ZN O *D gf180mcu_fd_sc_mcu7t5v0__aoi211_1
*CAP
1 *3030:D 0.000157745
2 *2750:ZN 0.000157745
3 *3030:D *2750:B 5.71512e-05
4 *3030:D *372:60 1.19491e-05
5 *3030:D *756:144 5.41407e-05
6 *3030:D *784:16 2.26729e-05
*RES
1 *2750:ZN *3030:D 10.26 
*END

*D_NET *171 0.00160771
*CONN
*I *3031:D I *D gf180mcu_fd_sc_mcu7t5v0__dffq_1
*I *2755:ZN O *D gf180mcu_fd_sc_mcu7t5v0__nor2_1
*CAP
1 *3031:D 0.000313476
2 *2755:ZN 0.000313476
3 *3031:D *2755:A1 0.000170423
4 *3031:D *2755:A2 0.000124792
5 *3031:D *694:217 0.000304716
6 *3031:D *694:223 0.000251578
7 *10:55 *3031:D 0.000129251
*RES
1 *2755:ZN *3031:D 21.96 
*END

*D_NET *172 0.000466016
*CONN
*I *3032:D I *D gf180mcu_fd_sc_mcu7t5v0__dffq_1
*I *2759:ZN O *D gf180mcu_fd_sc_mcu7t5v0__nor2_1
*CAP
1 *3032:D 6.17612e-05
2 *2759:ZN 6.17612e-05
3 *3032:D *2486:B 0.000294431
4 *3032:D *2678:B 3.29477e-05
5 *3032:D *920:45 1.51153e-05
*RES
1 *2759:ZN *3032:D 9.81 
*END

*D_NET *173 0.000700002
*CONN
*I *3033:D I *D gf180mcu_fd_sc_mcu7t5v0__dffq_1
*I *2761:ZN O *D gf180mcu_fd_sc_mcu7t5v0__aoi211_1
*CAP
1 *3033:D 0.000138848
2 *2761:ZN 0.000138848
3 *3033:D *2486:B 2.93836e-05
4 *3033:D *2757:B2 0
5 *3033:D *2761:A2 0.000392922
*RES
1 *2761:ZN *3033:D 10.44 
*END

*D_NET *174 0.000595857
*CONN
*I *3034:D I *D gf180mcu_fd_sc_mcu7t5v0__dffq_1
*I *2762:Z O *D gf180mcu_fd_sc_mcu7t5v0__and3_1
*CAP
1 *3034:D 0.000124641
2 *2762:Z 0.000124641
3 *3034:D *2886:A2 0
4 *3034:D *3056:D 0.000286386
5 *3034:D *925:27 6.01893e-05
*RES
1 *2762:Z *3034:D 10.26 
*END

*D_NET *175 0.00362253
*CONN
*I *3035:D I *D gf180mcu_fd_sc_mcu7t5v0__dffq_1
*I *2763:Z O *D gf180mcu_fd_sc_mcu7t5v0__and3_1
*CAP
1 *3035:D 0.000547201
2 *2763:Z 0.000547201
3 *3035:D *2322:A3 0.000265849
4 *3035:D *2763:A2 0.000165831
5 *3035:D *2886:A1 9.84908e-05
6 *3035:D *2888:A1 5.43045e-06
7 *3035:D *3036:D 0.000315923
8 *3035:D *3215:I 0.000611791
9 *3035:D *760:25 0.0001981
10 *3035:D *835:8 0.000286386
11 ACK_O *3035:D 0.000409328
12 *3201:I *3035:D 0.000170994
*RES
1 *2763:Z *3035:D 25.29 
*END

*D_NET *176 0.00516089
*CONN
*I *3036:D I *D gf180mcu_fd_sc_mcu7t5v0__dffq_1
*I *2764:Z O *D gf180mcu_fd_sc_mcu7t5v0__and3_1
*CAP
1 *3036:D 0.000833143
2 *2764:Z 0.000833143
3 *3036:D *2884:A1 0
4 *3036:D *2884:A2 0
5 *3036:D *2886:A1 0.000251312
6 *3036:D *2889:A2 0.000263388
7 *3036:D *3056:D 0.00131299
8 *3036:D *3057:D 0.000238599
9 *3036:D *252:30 1.85285e-05
10 *3036:D *588:18 7.21705e-05
11 *3036:D *759:26 0.000792132
12 *3035:D *3036:D 0.000315923
13 *3202:I *3036:D 0.000229555
*RES
1 *2764:Z *3036:D 27.81 
*END

*D_NET *177 0.00220295
*CONN
*I *3037:D I *D gf180mcu_fd_sc_mcu7t5v0__dffq_1
*I *2765:Z O *D gf180mcu_fd_sc_mcu7t5v0__and3_1
*CAP
1 *3037:D 0.000414075
2 *2765:Z 0.000414075
3 *3037:D *2510:A2 9.20698e-05
4 *3037:D *2510:B 0.000374902
5 *3037:D *2765:A1 0.000423894
6 *3037:D *2882:B 7.41861e-05
7 *3037:D *3143:I 0.000123571
8 *3037:D *251:30 8.31166e-05
9 *3037:D *706:10 6.18234e-05
10 *3037:D *756:292 0
11 *3037:D *784:158 0.000141235
*RES
1 *2765:Z *3037:D 22.23 
*END

*D_NET *178 0.00048919
*CONN
*I *3038:D I *D gf180mcu_fd_sc_mcu7t5v0__dffq_1
*I *2768:ZN O *D gf180mcu_fd_sc_mcu7t5v0__nor2_1
*CAP
1 *3038:D 2.94943e-05
2 *2768:ZN 2.94943e-05
3 *3038:D *2814:B2 0.000302466
4 *3038:D *597:38 0.000127736
*RES
1 *2768:ZN *3038:D 9.81 
*END

*D_NET *179 0.00161588
*CONN
*I *3039:D I *D gf180mcu_fd_sc_mcu7t5v0__dffq_1
*I *2773:ZN O *D gf180mcu_fd_sc_mcu7t5v0__aoi21_1
*CAP
1 *3039:D 0.000246189
2 *2773:ZN 0.000246189
3 *3039:D *2773:A2 0.00033718
4 *3039:D *2814:B2 0
5 *3039:D *296:35 0.000786322
*RES
1 *2773:ZN *3039:D 11.7 
*END

*D_NET *180 0.00153337
*CONN
*I *3040:D I *D gf180mcu_fd_sc_mcu7t5v0__dffq_1
*I *2781:ZN O *D gf180mcu_fd_sc_mcu7t5v0__nor3_1
*CAP
1 *3040:D 0.000677988
2 *2781:ZN 0.000677988
3 *3040:D *2784:A1 7.25591e-05
4 *3040:D *3042:D 0.000104835
*RES
1 *2781:ZN *3040:D 21.69 
*END

*D_NET *181 0.00243772
*CONN
*I *3041:D I *D gf180mcu_fd_sc_mcu7t5v0__dffq_1
*I *2784:ZN O *D gf180mcu_fd_sc_mcu7t5v0__nor2_1
*CAP
1 *3041:D 0.000949067
2 *2784:ZN 0.000949067
3 *3041:D *2784:A1 0.000224913
4 *3041:D *2784:A2 0.000266997
5 *3041:D *3041:CLK 2.8591e-05
6 *3041:D *3042:D 0
7 *3041:D *700:99 1.90816e-05
*RES
1 *2784:ZN *3041:D 24.39 
*END

*D_NET *182 0.00283628
*CONN
*I *3042:D I *D gf180mcu_fd_sc_mcu7t5v0__dffq_1
*I *2788:ZN O *D gf180mcu_fd_sc_mcu7t5v0__oai21_1
*CAP
1 *3042:D 0.000723431
2 *2788:ZN 0.000723431
3 *3042:D *2780:A1 3.65186e-05
4 *3042:D *2781:A2 0.000447357
5 *3042:D *2784:A1 0
6 *3042:D *2787:A2 2.76823e-05
7 *3042:D *2788:A1 0.000218972
8 *3042:D *2788:A2 0.000526101
9 *3042:D *570:16 1.86887e-06
10 *3042:D *571:22 9.38814e-06
11 *3042:D *722:43 1.67011e-05
12 *3042:D *961:12 0
13 *3040:D *3042:D 0.000104835
14 *3041:D *3042:D 0
*RES
1 *2788:ZN *3042:D 24.3 
*END

*D_NET *183 0.00132004
*CONN
*I *3043:D I *D gf180mcu_fd_sc_mcu7t5v0__dffq_1
*I *2791:ZN O *D gf180mcu_fd_sc_mcu7t5v0__aoi211_1
*CAP
1 *3043:D 0.000153942
2 *2791:ZN 0.000153942
3 *3043:D *2785:A2 1.36885e-05
4 *3043:D *2791:A1 0.000140033
5 *3043:D *2791:C 0.000346684
6 *3043:D *3189:I 0.00043777
7 *3043:D *570:16 7.39784e-05
*RES
1 *2791:ZN *3043:D 20.34 
*END

*D_NET *184 0.00116546
*CONN
*I *3044:D I *D gf180mcu_fd_sc_mcu7t5v0__dffq_1
*I *2793:ZN O *D gf180mcu_fd_sc_mcu7t5v0__oai31_1
*CAP
1 *3044:D 0.000326018
2 *2793:ZN 0.000326018
3 *3044:D *2777:A1 2.31089e-05
4 *3044:D *2793:A3 0.000303892
5 *3044:D *3044:CLK 3.22114e-05
6 *3044:D *3189:I 0.000154208
*RES
1 *2793:ZN *3044:D 12.06 
*END

*D_NET *185 0.000981359
*CONN
*I *3045:D I *D gf180mcu_fd_sc_mcu7t5v0__dffq_1
*I *2797:ZN O *D gf180mcu_fd_sc_mcu7t5v0__nor3_1
*CAP
1 *3045:D 0.000267502
2 *2797:ZN 0.000267502
3 *3045:D *2797:A1 0.000149829
4 *3045:D *2797:A3 0.000160434
5 *3045:D *3047:D 0.000136092
*RES
1 *2797:ZN *3045:D 11.88 
*END

*D_NET *186 0.00144942
*CONN
*I *3046:D I *D gf180mcu_fd_sc_mcu7t5v0__dffq_1
*I *2799:ZN O *D gf180mcu_fd_sc_mcu7t5v0__aoi21_1
*CAP
1 *3046:D 0.000355961
2 *2799:ZN 0.000355961
3 *3046:D *2798:B 2.08301e-05
4 *3046:D *2798:C 0.000285156
5 *3046:D *2799:A2 5.11701e-05
6 *3046:D *2799:B 0.000299868
7 *3046:D *3156:I 0
8 *3046:D *708:24 1.7437e-05
9 *3046:D *965:34 6.30353e-05
*RES
1 *2799:ZN *3046:D 12.24 
*END

*D_NET *187 0.00206173
*CONN
*I *3047:D I *D gf180mcu_fd_sc_mcu7t5v0__dffq_1
*I *2802:ZN O *D gf180mcu_fd_sc_mcu7t5v0__nor2_1
*CAP
1 *3047:D 0.000341016
2 *2802:ZN 0.000341016
3 *3047:D *2797:A1 0.0011953
4 *3047:D *2797:A3 2.80742e-05
5 *3047:D *2801:A2 2.02272e-05
6 *3045:D *3047:D 0.000136092
*RES
1 *2802:ZN *3047:D 12.78 
*END

*D_NET *188 0.00246259
*CONN
*I *3048:D I *D gf180mcu_fd_sc_mcu7t5v0__dffq_1
*I *2825:ZN O *D gf180mcu_fd_sc_mcu7t5v0__nor2_1
*CAP
1 *3048:D 0.000184482
2 *2825:ZN 0.000184482
3 *3048:D *2832:A1 0.00037349
4 *3048:D *3234:I 0.00016594
5 *3048:D *247:54 0.000319294
6 *3048:D *282:23 0.000247379
7 *3048:D *782:14 0.000987527
*RES
1 *2825:ZN *3048:D 21.78 
*END

*D_NET *189 0.00290538
*CONN
*I *3049:D I *D gf180mcu_fd_sc_mcu7t5v0__dffq_1
*I *2833:ZN O *D gf180mcu_fd_sc_mcu7t5v0__nor2_1
*CAP
1 *3049:D 0.00044921
2 *2833:ZN 0.00044921
3 *3049:D *2824:A1 0.000125726
4 *3049:D *2824:A2 7.72112e-05
5 *3049:D *2824:B1 0.000283714
6 *3049:D *2825:A2 3.15508e-05
7 *3049:D *2832:A1 0.000990719
8 *3049:D *2832:A2 0.00023968
9 *3049:D *2833:A2 0.000247943
10 *3049:D *2840:A1 0
11 *3049:D *283:14 1.0415e-05
*RES
1 *2833:ZN *3049:D 23.49 
*END

*D_NET *190 0.00504027
*CONN
*I *3050:D I *D gf180mcu_fd_sc_mcu7t5v0__dffq_1
*I *2841:ZN O *D gf180mcu_fd_sc_mcu7t5v0__nor2_1
*CAP
1 *3050:D 0.000580687
2 *2841:ZN 0.000580687
3 *3050:D *2356:A1 4.22217e-05
4 *3050:D *2841:A1 9.04462e-05
5 *3050:D *2841:A2 3.01487e-05
6 *3050:D *2848:B2 7.23285e-05
7 *3050:D *2864:B2 0.000104825
8 *3050:D *3234:I 0.00035537
9 *3050:D *590:64 0.00043778
10 *3050:D *756:313 0.000223391
11 *3050:D *756:332 0.00127153
12 *3050:D *756:558 0.000270982
13 *3050:D *782:14 0.000617234
14 *3050:D *783:16 0.000362638
*RES
1 *2841:ZN *3050:D 26.1 
*END

*D_NET *191 0.000848534
*CONN
*I *3051:D I *D gf180mcu_fd_sc_mcu7t5v0__dffq_1
*I *2849:ZN O *D gf180mcu_fd_sc_mcu7t5v0__nor2_1
*CAP
1 *3051:D 0.000145755
2 *2849:ZN 0.000145755
3 *3051:D *2865:A1 0.000379464
4 *3051:D *756:558 0.000177559
*RES
1 *2849:ZN *3051:D 10.62 
*END

*D_NET *192 0.00375036
*CONN
*I *3052:D I *D gf180mcu_fd_sc_mcu7t5v0__dffq_1
*I *2857:ZN O *D gf180mcu_fd_sc_mcu7t5v0__nor2_1
*CAP
1 *3052:D 0.000435497
2 *2857:ZN 0.000435497
3 *3052:D *2864:A2 0
4 *3052:D *2865:A2 0.000898721
5 *3052:D *2878:C2 0.00023712
6 *3052:D *2880:B 0.000131671
7 *3052:D *2881:A2 0.000486049
8 *3052:D *3140:I 0.000299714
9 *3052:D *251:30 6.26074e-05
10 *3052:D *590:41 0
11 *3052:D *705:10 1.70821e-05
12 *3052:D *705:61 5.45299e-06
13 *3052:D *705:82 0.000415407
14 *3052:D *756:313 0.000325546
*RES
1 *2857:ZN *3052:D 24.3 
*END

*D_NET *193 0.000572708
*CONN
*I *3053:D I *D gf180mcu_fd_sc_mcu7t5v0__dffq_1
*I *2865:ZN O *D gf180mcu_fd_sc_mcu7t5v0__nor2_1
*CAP
1 *3053:D 8.92615e-05
2 *2865:ZN 8.92615e-05
3 *3053:D *2865:A1 0.000354728
4 *3053:D *3220:I 3.94564e-05
*RES
1 *2865:ZN *3053:D 9.99 
*END

*D_NET *194 0.00683652
*CONN
*I *3054:D I *D gf180mcu_fd_sc_mcu7t5v0__dffq_1
*I *2873:ZN O *D gf180mcu_fd_sc_mcu7t5v0__nor2_1
*CAP
1 *3054:D 0.00131359
2 *2873:ZN 0.00131359
3 *3054:D *2805:A1 0
4 *3054:D *2856:A1 0.000565804
5 *3054:D *2872:B2 0.000137134
6 *3054:D *2873:A2 0.00287447
7 *3054:D *2882:A1 0.000202885
8 *3054:D *2882:A2 0.000104305
9 *3054:D *3152:I 0
10 *3054:D *3222:I 0.000272271
11 *3054:D *694:223 0
12 *3054:D *756:122 2.76357e-05
13 *3054:D *756:134 3.0177e-06
14 *3054:D *768:14 2.18073e-05
*RES
1 *2873:ZN *3054:D 30.78 
*END

*D_NET *195 0.00165551
*CONN
*I *3055:D I *D gf180mcu_fd_sc_mcu7t5v0__dffq_1
*I *2882:ZN O *D gf180mcu_fd_sc_mcu7t5v0__aoi21_1
*CAP
1 *3055:D 0.000740128
2 *2882:ZN 0.000740128
3 *3055:D *2298:I 2.72633e-05
4 *3055:D *2856:A1 2.88199e-05
5 *3055:D *2882:A1 6.90165e-05
6 *3055:D *2882:A2 2.79403e-05
7 *3055:D *3222:I 2.221e-05
8 *3055:D *759:36 0
*RES
1 *2882:ZN *3055:D 13.5 
*END

*D_NET *196 0.00521282
*CONN
*I *3056:D I *D gf180mcu_fd_sc_mcu7t5v0__dffq_1
*I *2886:ZN O *D gf180mcu_fd_sc_mcu7t5v0__aoi21_1
*CAP
1 *3056:D 0.000764882
2 *2886:ZN 0.000764882
3 *3056:D *2763:A2 1.37934e-05
4 *3056:D *2804:A1 2.5344e-05
5 *3056:D *2886:A1 0.000988521
6 *3056:D *2887:A1 2.34819e-05
7 *3056:D *3057:D 0.000428433
8 *3056:D *588:18 0.000336617
9 *3056:D *759:26 0
10 *3056:D *924:16 0
11 *3056:D *925:27 7.06712e-05
12 ACK_O *3056:D 0.000196817
13 *3034:D *3056:D 0.000286386
14 *3036:D *3056:D 0.00131299
*RES
1 *2886:ZN *3056:D 27 
*END

*D_NET *197 0.00688724
*CONN
*I *3057:D I *D gf180mcu_fd_sc_mcu7t5v0__dffq_1
*I *2889:ZN O *D gf180mcu_fd_sc_mcu7t5v0__nor2_1
*CAP
1 *3057:D 0.00112715
2 *2889:ZN 0.00112715
3 *3057:D *2300:I 7.86922e-05
4 *3057:D *2505:A1 0.0014453
5 *3057:D *2507:A1 0.000672131
6 *3057:D *2508:A1 7.65324e-05
7 *3057:D *2889:A2 0.000188375
8 *3057:D *3145:I 0
9 *3057:D *588:18 0.000567809
10 *3057:D *706:89 0.000198334
11 *3057:D *706:100 0.000275816
12 *3057:D *756:44 3.01487e-05
13 *3057:D *778:429 4.78286e-05
14 *3057:D *923:12 0.000180057
15 *3057:D *925:10 0.00020489
16 *3036:D *3057:D 0.000238599
17 *3056:D *3057:D 0.000428433
*RES
1 *2889:ZN *3057:D 31.59 
*END

*D_NET *198 0.00413194
*CONN
*I *3058:D I *D gf180mcu_fd_sc_mcu7t5v0__dffq_1
*I *2894:ZN O *D gf180mcu_fd_sc_mcu7t5v0__nand2_1
*CAP
1 *3058:D 0.000959133
2 *2894:ZN 0.000959133
3 *3058:D *2591:A1 0.00012749
4 *3058:D *2593:A1 9.84776e-05
5 *3058:D *2807:A4 0
6 *3058:D *2892:A2 5.97484e-05
7 *3058:D *2894:A1 0.000987791
8 *3058:D *3059:CLK 6.44696e-05
9 *3058:D *758:16 4.3646e-05
10 *3058:D *851:25 0.000731554
11 *3058:D *860:14 3.85935e-05
12 *3058:D *860:18 6.19076e-05
*RES
1 *2894:ZN *3058:D 44.55 
*END

*D_NET *199 0.00190751
*CONN
*I *3059:D I *D gf180mcu_fd_sc_mcu7t5v0__dffq_1
*I *2897:ZN O *D gf180mcu_fd_sc_mcu7t5v0__nand2_1
*CAP
1 *3059:D 0.000295488
2 *2897:ZN 0.000295488
3 *3059:D *2829:B2 0.000673954
4 *3059:D *3064:D 0.000283705
5 *3059:D *3187:I 9.84908e-05
6 *3059:D *701:37 2.63211e-05
7 *3059:D *743:30 2.44787e-05
8 *3059:D *860:18 0.000209583
*RES
1 *2897:ZN *3059:D 21.42 
*END

*D_NET *200 0.00173868
*CONN
*I *3060:D I *D gf180mcu_fd_sc_mcu7t5v0__dffq_1
*I *2900:ZN O *D gf180mcu_fd_sc_mcu7t5v0__nor3_1
*CAP
1 *3060:D 0.00039132
2 *2900:ZN 0.00039132
3 *3060:D *2591:A1 0.000325556
4 *3060:D *701:70 0.000328407
5 *3060:D *847:18 0
6 *3060:D *851:8 1.13241e-05
7 *3060:D *860:14 0.000290752
*RES
1 *2900:ZN *3060:D 22.14 
*END

*D_NET *201 0.000882135
*CONN
*I *3061:D I *D gf180mcu_fd_sc_mcu7t5v0__dffq_1
*I *2903:ZN O *D gf180mcu_fd_sc_mcu7t5v0__nor3_1
*CAP
1 *3061:D 0.000174173
2 *2903:ZN 0.000174173
3 *3061:D *2813:A1 0
4 *3061:D *2903:A2 7.20334e-05
5 *3061:D *591:30 0.000302471
6 *3061:D *755:29 3.01487e-05
7 *3061:D *756:364 0.000118113
8 *3061:D *756:370 1.10228e-05
*RES
1 *2903:ZN *3061:D 11.07 
*END

*D_NET *202 0.00111302
*CONN
*I *3062:D I *D gf180mcu_fd_sc_mcu7t5v0__dffq_1
*I *2905:ZN O *D gf180mcu_fd_sc_mcu7t5v0__aoi211_1
*CAP
1 *3062:D 0.000188189
2 *2905:ZN 0.000188189
3 *3062:D *2829:B2 0.000151417
4 *3062:D *2876:B2 0.000425252
5 *3062:D *210:10 0.00015997
6 *3062:D *848:18 0
*RES
1 *2905:ZN *3062:D 20.16 
*END

*D_NET *203 0.00152978
*CONN
*I *3063:D I *D gf180mcu_fd_sc_mcu7t5v0__dffq_1
*I *2908:ZN O *D gf180mcu_fd_sc_mcu7t5v0__nor3_1
*CAP
1 *3063:D 0.000268334
2 *2908:ZN 0.000268334
3 *3063:D *2810:A1 0.000579333
4 *3063:D *2813:A1 1.03575e-05
5 *3063:D *2871:A1 0.000119182
6 *3063:D *591:30 0.00015785
7 *3063:D *595:14 0
8 *3063:D *605:20 7.44879e-06
9 *3063:D *701:8 1.18076e-06
10 *3063:D *701:100 1.89688e-06
11 *3063:D *756:364 0.000115867
*RES
1 *2908:ZN *3063:D 20.52 
*END

*D_NET *204 0.00207335
*CONN
*I *3064:D I *D gf180mcu_fd_sc_mcu7t5v0__dffq_1
*I *2910:ZN O *D gf180mcu_fd_sc_mcu7t5v0__aoi211_1
*CAP
1 *3064:D 0.000452765
2 *2910:ZN 0.000452765
3 *3064:D *2829:B2 0.000235758
4 *3064:D *2905:C 0.000213555
5 *3064:D *2910:C 3.01487e-05
6 *3064:D *209:20 3.12451e-05
7 *3064:D *209:26 0.000210579
8 *3064:D *743:30 3.65287e-05
9 *3064:D *756:414 3.44802e-05
10 *3064:D *756:418 5.62747e-05
11 *3064:D *756:420 3.55431e-05
12 *3059:D *3064:D 0.000283705
*RES
1 *2910:ZN *3064:D 22.23 
*END

*D_NET *205 0.00119694
*CONN
*I *3065:D I *D gf180mcu_fd_sc_mcu7t5v0__dffq_1
*I *2913:ZN O *D gf180mcu_fd_sc_mcu7t5v0__nor3_1
*CAP
1 *3065:D 0.000164434
2 *2913:ZN 0.000164434
3 *3065:D *2913:A1 8.49143e-05
4 *3065:D *209:20 0.000390161
5 *3065:D *247:24 3.22849e-05
6 *3065:D *756:380 8.68398e-06
7 *3065:D *852:20 0.000352031
*RES
1 *2913:ZN *3065:D 19.8 
*END

*D_NET *206 0.000660836
*CONN
*I *3066:D I *D gf180mcu_fd_sc_mcu7t5v0__dffq_1
*I *2916:ZN O *D gf180mcu_fd_sc_mcu7t5v0__nor3_1
*CAP
1 *3066:D 0.000143673
2 *2916:ZN 0.000143673
3 *3066:D *2916:A1 0.00037349
4 *3072:D *3066:D 0
*RES
1 *2916:ZN *3066:D 10.44 
*END

*D_NET *207 0.000769267
*CONN
*I *3067:D I *D gf180mcu_fd_sc_mcu7t5v0__dffq_1
*I *2919:ZN O *D gf180mcu_fd_sc_mcu7t5v0__nor3_1
*CAP
1 *3067:D 0.00022859
2 *2919:ZN 0.00022859
3 *3067:D *2327:B 0
4 *3067:D *2328:B 0
5 *3067:D *2595:A1 0.000153299
6 *3067:D *2919:A3 0.000158788
*RES
1 *2919:ZN *3067:D 10.8 
*END

*D_NET *208 0.000528003
*CONN
*I *3068:D I *D gf180mcu_fd_sc_mcu7t5v0__dffq_1
*I *2922:ZN O *D gf180mcu_fd_sc_mcu7t5v0__nor3_1
*CAP
1 *3068:D 9.93361e-05
2 *2922:ZN 9.93361e-05
3 *3068:D *2592:A2 0.000110639
4 *3068:D *2921:A2 0
5 *3068:D *2922:A1 0.000154519
6 *3068:D *2922:A3 6.41728e-05
*RES
1 *2922:ZN *3068:D 10.08 
*END

*D_NET *209 0.0204613
*CONN
*I *2910:A1 I *D gf180mcu_fd_sc_mcu7t5v0__aoi211_1
*I *2336:A1 I *D gf180mcu_fd_sc_mcu7t5v0__oai211_1
*I *2374:A1 I *D gf180mcu_fd_sc_mcu7t5v0__aoi21_1
*I *2383:A1 I *D gf180mcu_fd_sc_mcu7t5v0__aoi221_1
*I *2279:ZN O *D gf180mcu_fd_sc_mcu7t5v0__clkinv_1
*CAP
1 *2910:A1 6.73838e-05
2 *2336:A1 0
3 *2374:A1 0.00015609
4 *2383:A1 1.45441e-05
5 *2279:ZN 0.00106998
6 *209:36 0.000720556
7 *209:26 0.00154846
8 *209:20 0.0021359
9 *2374:A1 *2378:A1 0.000238479
10 *2374:A1 *723:51 3.01487e-05
11 *2374:A1 *723:68 0.0009252
12 *2383:A1 *2383:B1 0.000174497
13 *2383:A1 *244:101 3.42213e-05
14 *2910:A1 *744:24 7.16121e-07
15 *2910:A1 *749:22 7.09292e-05
16 *2910:A1 *750:29 0.000278178
17 *209:20 *2830:A1 0.000241924
18 *209:20 *2869:B2 1.52092e-05
19 *209:20 *2905:C 8.11962e-05
20 *209:20 *2913:A3 0.000486371
21 *209:20 *247:24 0.000579303
22 *209:20 *665:55 3.49424e-05
23 *209:20 *743:30 0.000549038
24 *209:20 *750:29 1.70709e-05
25 *209:20 *751:18 5.29035e-05
26 *209:20 *751:26 0.00013434
27 *209:20 *752:26 6.77217e-05
28 *209:20 *753:12 0.000141804
29 *209:20 *756:370 8.9944e-05
30 *209:20 *756:380 1.82302e-05
31 *209:20 *852:20 5.98568e-05
32 *209:20 *852:32 6.71551e-05
33 *209:26 *2336:B 0.000460439
34 *209:26 *2876:A1 0
35 *209:26 *2919:A2 0.000349088
36 *209:26 *2921:A1 3.85778e-05
37 *209:26 *3068:CLK 0.00116988
38 *209:26 *255:37 3.94217e-05
39 *209:26 *255:39 1.09026e-05
40 *209:26 *714:51 0
41 *209:26 *744:24 2.20789e-06
42 *209:26 *750:29 0.00343458
43 *209:26 *756:418 6.21246e-06
44 *209:26 *756:420 0.000284661
45 *209:26 *756:424 0.000164838
46 *209:26 *756:441 0.000184413
47 *209:26 *854:10 0.000462325
48 *209:36 *2336:B 0.000109323
49 *209:36 *2336:C 0.000495719
50 *209:36 *2383:A2 4.78068e-05
51 *209:36 *2383:B1 3.1302e-05
52 *209:36 *2384:B1 0.000205808
53 *209:36 *2385:A2 3.42509e-05
54 *209:36 *2876:A1 2.76863e-05
55 *209:36 *3068:CLK 2.6575e-05
56 *209:36 *244:97 7.89158e-05
57 *209:36 *244:101 5.39521e-05
58 *209:36 *266:75 0.00126517
59 *209:36 *714:14 0
60 *209:36 *714:51 0.000333543
61 *209:36 *714:55 3.42213e-05
62 *209:36 *755:35 0.000375216
63 *3064:D *209:20 3.12451e-05
64 *3064:D *209:26 0.000210579
65 *3065:D *209:20 0.000390161
*RES
1 *2279:ZN *209:20 29.07 
2 *209:20 *209:26 15.93 
3 *209:26 *209:36 17.37 
4 *209:36 *2383:A1 9.45 
5 *209:36 *2374:A1 11.61 
6 *209:26 *2336:A1 9 
7 *209:20 *2910:A1 9.81 
*END

*D_NET *210 0.0068067
*CONN
*I *2905:A1 I *D gf180mcu_fd_sc_mcu7t5v0__aoi211_1
*I *2589:A1 I *D gf180mcu_fd_sc_mcu7t5v0__xor2_1
*I *2280:ZN O *D gf180mcu_fd_sc_mcu7t5v0__clkinv_1
*CAP
1 *2905:A1 4.17773e-05
2 *2589:A1 0.00101626
3 *2280:ZN 0.000301281
4 *210:10 0.00135931
5 *2589:A1 *2589:A2 5.16292e-05
6 *2589:A1 *2594:A1 0.00090936
7 *2589:A1 *2607:A2 0
8 *2589:A1 *2829:B2 0.00179229
9 *2589:A1 *3187:I 0.000236727
10 *2589:A1 *743:30 0
11 *2905:A1 *2829:B2 3.97987e-05
12 *210:10 *2594:A1 0.000834487
13 *210:10 *2829:B2 4.7347e-05
14 *210:10 *665:12 1.6462e-05
15 *3062:D *210:10 0.00015997
*RES
1 *2280:ZN *210:10 8.01 
2 *210:10 *2589:A1 15.66 
3 *210:10 *2905:A1 5.04 
*END

*D_NET *211 0.00177289
*CONN
*I *2777:A1 I *D gf180mcu_fd_sc_mcu7t5v0__nand3_1
*I *2793:A1 I *D gf180mcu_fd_sc_mcu7t5v0__oai31_1
*I *2775:A1 I *D gf180mcu_fd_sc_mcu7t5v0__nand2_1
*I *2281:ZN O *D gf180mcu_fd_sc_mcu7t5v0__clkinv_1
*CAP
1 *2777:A1 8.36309e-05
2 *2793:A1 0
3 *2775:A1 0.000198066
4 *2281:ZN 0.00012273
5 *211:10 0.000282923
6 *211:8 0.000291218
7 *2775:A1 *2792:A2 9.05528e-06
8 *2775:A1 *571:16 4.42915e-05
9 *2775:A1 *722:39 0.000189328
10 *2777:A1 *3044:CLK 0.000284991
11 *211:8 *571:14 3.11537e-05
12 *211:8 *722:39 0.000133786
13 *211:10 *571:14 1.73891e-06
14 *211:10 *571:16 1.38607e-05
15 *211:10 *722:39 6.3006e-05
16 *3044:D *2777:A1 2.31089e-05
*RES
1 *2281:ZN *211:8 10.17 
2 *211:8 *211:10 0.63 
3 *211:10 *2775:A1 10.53 
4 *211:10 *2793:A1 9 
5 *211:8 *2777:A1 9.81 
*END

*D_NET *212 0.00316268
*CONN
*I *2791:A1 I *D gf180mcu_fd_sc_mcu7t5v0__aoi211_1
*I *2282:ZN O *D gf180mcu_fd_sc_mcu7t5v0__clkinv_1
*CAP
1 *2791:A1 0.0006252
2 *2282:ZN 0.0006252
3 *2791:A1 *2282:I 3.20728e-05
4 *2791:A1 *2789:A1 0.000101615
5 *2791:A1 *2790:A1 0
6 *2791:A1 *2791:C 6.13395e-05
7 *2791:A1 *2792:A3 0.000698566
8 *2791:A1 *2792:A4 5.68787e-05
9 *2791:A1 *3189:I 0.000114196
10 *2791:A1 *570:16 0.000274114
11 *2791:A1 *962:27 8.68398e-06
12 *2791:A1 *962:31 0.000424785
13 *3043:D *2791:A1 0.000140033
*RES
1 *2282:ZN *2791:A1 25.02 
*END

*D_NET *213 0.002773
*CONN
*I *2622:A1 I *D gf180mcu_fd_sc_mcu7t5v0__oai31_1
*I *2618:A1 I *D gf180mcu_fd_sc_mcu7t5v0__nor2_1
*I *2283:ZN O *D gf180mcu_fd_sc_mcu7t5v0__clkinv_1
*CAP
1 *2622:A1 0.000375273
2 *2618:A1 0
3 *2283:ZN 0.000132423
4 *213:8 0.000507696
5 *2622:A1 *2617:A2 0.000145755
6 *2622:A1 *2619:A1 0.00035741
7 *2622:A1 *2622:A2 5.40467e-05
8 *2622:A1 *2998:CLK 0.000193631
9 *2622:A1 *3136:I 0
10 *2622:A1 *371:35 0.000683266
11 *2622:A1 *371:45 0.000177559
12 *2622:A1 *723:18 2.38983e-05
13 *2622:A1 *727:34 8.72259e-05
14 *213:8 *2617:A2 3.48193e-05
15 *213:8 *3136:I 0
*RES
1 *2283:ZN *213:8 9.81 
2 *213:8 *2618:A1 9 
3 *213:8 *2622:A1 13.86 
*END

*D_NET *214 0.00744949
*CONN
*I *2377:A1 I *D gf180mcu_fd_sc_mcu7t5v0__nand2_1
*I *2665:A1 I *D gf180mcu_fd_sc_mcu7t5v0__and2_1
*I *2664:A1 I *D gf180mcu_fd_sc_mcu7t5v0__nor2_1
*I *2766:B I *D gf180mcu_fd_sc_mcu7t5v0__oai21_1
*I *2284:ZN O *D gf180mcu_fd_sc_mcu7t5v0__clkinv_1
*CAP
1 *2377:A1 0.000139296
2 *2665:A1 1.33669e-05
3 *2664:A1 0.00015978
4 *2766:B 0.000328309
5 *2284:ZN 0.000175594
6 *214:24 0.000186046
7 *214:22 0.000304909
8 *2377:A1 *2769:A2 0.000190382
9 *2377:A1 *2831:A2 0.00192431
10 *2377:A1 *501:8 0.000695914
11 *2377:A1 *721:22 0.00052479
12 *2377:A1 *721:26 0.000225225
13 *2664:A1 *2767:A1 7.55765e-06
14 *2664:A1 *2767:B 0
15 *2664:A1 *2769:A2 0.000372588
16 *2664:A1 *2773:B 4.83522e-05
17 *2664:A1 *2831:A2 0.000375166
18 *2664:A1 *268:23 8.31233e-05
19 *2664:A1 *296:35 5.20389e-05
20 *2664:A1 *723:78 3.46409e-05
21 *2665:A1 *268:23 9.04462e-05
22 *2665:A1 *723:78 9.04462e-05
23 *2766:B *296:35 0
24 *2766:B *503:36 3.87145e-05
25 *214:22 *2380:A2 1.61174e-05
26 *214:22 *2683:A1 3.75296e-05
27 *214:22 *2771:A1 0.000152367
28 *214:22 *268:23 0.000159
29 *214:22 *502:18 0.000526316
30 *214:22 *723:78 0.000207732
31 *214:24 *2769:A2 0.000132926
32 *214:24 *2831:A2 0.00015651
*RES
1 *2284:ZN *2766:B 10.08 
2 *2766:B *214:22 11.43 
3 *214:22 *214:24 0.45 
4 *214:24 *2664:A1 11.34 
5 *214:24 *2665:A1 9.27 
6 *214:22 *2377:A1 14.13 
*END

*D_NET *215 0.00600976
*CONN
*I *2679:A1 I *D gf180mcu_fd_sc_mcu7t5v0__or2_1
*I *2761:A1 I *D gf180mcu_fd_sc_mcu7t5v0__aoi211_1
*I *2502:A1 I *D gf180mcu_fd_sc_mcu7t5v0__aoi211_1
*I *2285:ZN O *D gf180mcu_fd_sc_mcu7t5v0__clkinv_1
*CAP
1 *2679:A1 0.00044314
2 *2761:A1 7.84075e-05
3 *2502:A1 8.74436e-05
4 *2285:ZN 0
5 *215:10 0.000210409
6 *215:6 0.000487698
7 *2502:A1 *2486:B 2.00709e-05
8 *2502:A1 *2502:A2 2.31089e-05
9 *2502:A1 *2502:C 8.3864e-05
10 *2679:A1 *2497:A1 0.000565081
11 *2679:A1 *2675:A2 3.55118e-05
12 *2679:A1 *2675:A3 4.15169e-05
13 *2679:A1 *2749:B2 0.000223407
14 *2679:A1 *2751:A1 1.96635e-05
15 *2679:A1 *3121:I 6.95119e-05
16 *2679:A1 *295:145 0.000872513
17 *2679:A1 *372:68 0.000173858
18 *2679:A1 *499:20 1.91431e-05
19 *2679:A1 *503:49 1.7368e-05
20 *2679:A1 *918:33 0.000665559
21 *2761:A1 *2486:B 0.000284927
22 *2761:A1 *2502:A2 4.03366e-06
23 *2761:A1 *295:166 2.7968e-05
24 *215:10 *2497:A1 0.000776496
25 *215:10 *295:145 0.000216087
26 *215:10 *295:149 0.000562979
*RES
1 *2285:ZN *215:6 9 
2 *215:6 *215:10 6.57 
3 *215:10 *2502:A1 5.4 
4 *215:10 *2761:A1 5.31 
5 *215:6 *2679:A1 14.94 
*END

*D_NET *216 0.00337751
*CONN
*I *2750:A1 I *D gf180mcu_fd_sc_mcu7t5v0__aoi211_1
*I *2496:A1 I *D gf180mcu_fd_sc_mcu7t5v0__aoi211_1
*I *2286:ZN O *D gf180mcu_fd_sc_mcu7t5v0__clkinv_1
*CAP
1 *2750:A1 0.000227306
2 *2496:A1 0.00048488
3 *2286:ZN 5.74829e-05
4 *216:6 0.000769669
5 *2496:A1 *2496:C 1.0415e-05
6 *2496:A1 *3030:CLK 0.000479291
7 *2496:A1 *3121:I 7.60924e-05
8 *2496:A1 *3213:I 0
9 *2496:A1 *372:60 0.000953942
10 *2496:A1 *918:14 5.71512e-05
11 *2750:A1 *2750:A2 2.30981e-05
12 *2750:A1 *372:60 0.000174176
13 *2750:A1 *784:16 5.30888e-06
14 *2750:A1 *918:14 1.51153e-05
15 *2750:A1 *918:33 4.35851e-05
*RES
1 *2286:ZN *216:6 4.95 
2 *216:6 *2496:A1 9.27 
3 *216:6 *2750:A1 6.84 
*END

*D_NET *217 0.00636349
*CONN
*I *2742:A1 I *D gf180mcu_fd_sc_mcu7t5v0__aoi211_1
*I *2739:A1 I *D gf180mcu_fd_sc_mcu7t5v0__nor2_1
*I *2492:A1 I *D gf180mcu_fd_sc_mcu7t5v0__aoi211_1
*I *2287:ZN O *D gf180mcu_fd_sc_mcu7t5v0__clkinv_1
*CAP
1 *2742:A1 0.000167237
2 *2739:A1 6.43324e-05
3 *2492:A1 0.000690587
4 *2287:ZN 0
5 *217:43 0.000781957
6 *217:4 0.00124097
7 *2492:A1 *2287:I 0.000103033
8 *2492:A1 *2476:A2 1.39839e-05
9 *2492:A1 *2490:A1 0.000205803
10 *2492:A1 *2858:C2 0.000237083
11 *2492:A1 *2955:CLK 1.87252e-05
12 *2492:A1 *295:80 2.76726e-05
13 *2492:A1 *295:96 7.86207e-05
14 *2492:A1 *295:112 1.86195e-05
15 *2492:A1 *645:22 0.000372606
16 *2492:A1 *704:91 0.000164228
17 *2492:A1 *756:54 4.6613e-06
18 *2492:A1 *914:14 0.000515946
19 *2492:A1 *939:10 0.000173848
20 *2739:A1 *2742:A2 5.60661e-06
21 *2739:A1 *541:21 1.86887e-06
22 *2742:A1 *2472:A1 3.75727e-05
23 *2742:A1 *496:24 0.000579694
24 *217:43 *2287:I 5.54348e-05
25 *217:43 *2741:B2 0.000153102
26 *217:43 *541:21 1.43899e-05
27 *2963:D *2492:A1 4.1834e-05
28 *10:55 *2492:A1 0.000343306
29 *10:55 *217:43 0.00025076
*RES
1 *2287:ZN *217:4 4.5 
2 *217:4 *2492:A1 22.14 
3 *217:4 *217:43 21.87 
4 *217:43 *2739:A1 4.77 
5 *217:43 *2742:A1 15.03 
*END

*D_NET *218 0.00245277
*CONN
*I *2490:A1 I *D gf180mcu_fd_sc_mcu7t5v0__aoi211_1
*I *2738:A1 I *D gf180mcu_fd_sc_mcu7t5v0__aoi211_1
*I *2288:ZN O *D gf180mcu_fd_sc_mcu7t5v0__clkinv_1
*CAP
1 *2490:A1 0.000408978
2 *2738:A1 0.000262207
3 *2288:ZN 0
4 *218:4 0.000671185
5 *2490:A1 *2476:A1 4.96342e-05
6 *2490:A1 *2489:A1 5.83222e-05
7 *2490:A1 *2489:A2 1.0415e-05
8 *2490:A1 *2738:A2 1.18797e-05
9 *2490:A1 *3027:CLK 2.65444e-06
10 *2490:A1 *295:80 6.44898e-05
11 *2490:A1 *704:91 2.12098e-05
12 *2490:A1 *914:14 7.98933e-06
13 *2738:A1 *2288:I 1.50763e-05
14 *2738:A1 *2738:A2 1.56779e-05
15 *2738:A1 *2738:C 1.4382e-06
16 *2738:A1 *502:172 1.0415e-05
17 *2738:A1 *704:91 0.000375176
18 *2492:A1 *2490:A1 0.000205803
19 *2962:D *2490:A1 9.30289e-05
20 *3027:D *2738:A1 2.65444e-06
21 *10:20 *2490:A1 6.98034e-05
22 *10:55 *2490:A1 1.0415e-05
23 *10:55 *2738:A1 8.43202e-05
*RES
1 *2288:ZN *218:4 4.5 
2 *218:4 *2738:A1 15.66 
3 *218:4 *2490:A1 17.01 
*END

*D_NET *219 0.00319387
*CONN
*I *2484:A1 I *D gf180mcu_fd_sc_mcu7t5v0__aoi211_1
*I *2726:A1 I *D gf180mcu_fd_sc_mcu7t5v0__aoi211_1
*I *2289:ZN O *D gf180mcu_fd_sc_mcu7t5v0__clkinv_1
*CAP
1 *2484:A1 0.000250399
2 *2726:A1 0.000198981
3 *2289:ZN 0.000153813
4 *219:10 0.000603193
5 *2484:A1 *2474:C 7.41234e-06
6 *2484:A1 *2483:A2 0.000727449
7 *2484:A1 *2484:B 0.000197431
8 *2484:A1 *2725:A1 9.12635e-05
9 *2484:A1 *2725:A2 0.000222357
10 *2484:A1 *2725:B2 3.81553e-06
11 *2484:A1 *295:166 3.55118e-05
12 *2726:A1 *2289:I 9.19654e-06
13 *2726:A1 *2474:C 6.81021e-05
14 *2726:A1 *2676:A3 7.45535e-06
15 *2726:A1 *2725:B1 0.000214618
16 *2726:A1 *2725:B2 0.000220606
17 *2726:A1 *912:16 4.67557e-05
18 *219:10 *2289:I 3.75591e-05
19 *219:10 *2474:C 4.3181e-05
20 *219:10 *2725:A2 5.47698e-05
*RES
1 *2289:ZN *219:10 10.08 
2 *219:10 *2726:A1 10.62 
3 *219:10 *2484:A1 12.24 
*END

*D_NET *220 0.00905996
*CONN
*I *2718:A1 I *D gf180mcu_fd_sc_mcu7t5v0__aoi211_1
*I *2715:A1 I *D gf180mcu_fd_sc_mcu7t5v0__nor2_1
*I *2672:A1 I *D gf180mcu_fd_sc_mcu7t5v0__aoi21_1
*I *2480:A1 I *D gf180mcu_fd_sc_mcu7t5v0__aoi211_1
*I *2723:A1 I *D gf180mcu_fd_sc_mcu7t5v0__nor4_1
*I *2290:ZN O *D gf180mcu_fd_sc_mcu7t5v0__clkinv_1
*CAP
1 *2718:A1 9.65574e-05
2 *2715:A1 0
3 *2672:A1 0
4 *2480:A1 0.00207079
5 *2723:A1 3.44897e-05
6 *2290:ZN 0
7 *220:37 0.000218189
8 *220:15 0.00222998
9 *220:6 0.000319023
10 *220:4 0.000246973
11 *2480:A1 *2307:I 0.000198568
12 *2480:A1 *2480:B 0.000127548
13 *2480:A1 *2481:A1 0
14 *2480:A1 *2482:A1 5.79059e-06
15 *2480:A1 *2482:A2 0.000189245
16 *2480:A1 *2482:B 0.000156101
17 *2480:A1 *2672:A2 6.1368e-06
18 *2480:A1 *2826:B2 0.000284918
19 *2480:A1 *2827:A1 0.000193234
20 *2480:A1 *2834:B2 9.07674e-05
21 *2480:A1 *3181:I 0.00052822
22 *2480:A1 *656:14 2.93184e-05
23 *2480:A1 *712:10 0
24 *2480:A1 *712:57 3.08083e-05
25 *2480:A1 *713:6 6.89669e-05
26 *2480:A1 *713:104 6.77603e-05
27 *2480:A1 *756:187 2.14748e-05
28 *2480:A1 *778:38 3.12843e-06
29 *2480:A1 *778:47 0
30 *2480:A1 *779:18 0.000133251
31 *2480:A1 *946:10 0
32 *2718:A1 *2290:I 9.84908e-05
33 *2718:A1 *2473:A1 0.00011452
34 *2718:A1 *2715:A2 2.36813e-05
35 *2718:A1 *372:103 0.000518371
36 *220:6 *2672:A2 7.96049e-05
37 *220:15 *2672:A2 2.8215e-05
38 *220:15 *2672:B 0.000111645
39 *220:15 *2723:A2 1.62685e-05
40 *220:15 *531:10 6.08177e-05
41 *220:37 *2290:I 0.000293026
42 *220:37 *2672:A2 1.23607e-05
43 *220:37 *2711:A1 0
44 *220:37 *2713:B2 0
45 *220:37 *2715:A2 5.82191e-05
46 *220:37 *2724:A3 0
47 *220:37 *523:6 1.19333e-05
48 *2956:D *2480:A1 0
49 *2957:D *2480:A1 0.000106536
50 *2958:D *2480:A1 9.04539e-05
51 *2967:D *2480:A1 8.45762e-05
*RES
1 *2290:ZN *220:4 4.5 
2 *220:4 *220:6 0.99 
3 *220:6 *2723:A1 4.77 
4 *220:6 *220:15 1.35 
5 *220:15 *2480:A1 20.97 
6 *220:15 *2672:A1 4.5 
7 *220:4 *220:37 1.35 
8 *220:37 *2715:A1 4.5 
9 *220:37 *2718:A1 15.12 
*END

*D_NET *221 0.0100814
*CONN
*I *2723:A2 I *D gf180mcu_fd_sc_mcu7t5v0__nor4_1
*I *2711:A1 I *D gf180mcu_fd_sc_mcu7t5v0__nor2_1
*I *2714:A1 I *D gf180mcu_fd_sc_mcu7t5v0__aoi211_1
*I *2478:A1 I *D gf180mcu_fd_sc_mcu7t5v0__aoi211_1
*I *2291:ZN O *D gf180mcu_fd_sc_mcu7t5v0__clkinv_1
*CAP
1 *2723:A2 0.000207204
2 *2711:A1 0.000226953
3 *2714:A1 0.000419163
4 *2478:A1 0.00188885
5 *2291:ZN 0
6 *221:38 0.000540454
7 *221:25 0.000770838
8 *221:4 0.00213423
9 *2478:A1 *2478:C 2.40933e-06
10 *2478:A1 *2482:A1 0
11 *2478:A1 *2482:A2 0
12 *2478:A1 *3114:I 0.000341658
13 *2478:A1 *694:102 6.1883e-05
14 *2478:A1 *694:138 2.31089e-05
15 *2478:A1 *713:6 0
16 *2478:A1 *713:18 6.95227e-05
17 *2478:A1 *779:30 3.01487e-05
18 *2478:A1 *779:148 0
19 *2478:A1 *779:159 0
20 *2478:A1 *946:10 2.84111e-05
21 *2478:A1 *951:12 0.000496785
22 *2711:A1 *2671:B 0
23 *2711:A1 *2672:A2 3.6719e-05
24 *2711:A1 *2713:B2 0.000565127
25 *2711:A1 *2723:A3 3.25134e-05
26 *2711:A1 *932:17 5.47698e-05
27 *2714:A1 *2472:A1 0
28 *2714:A1 *2714:B 4.8087e-05
29 *2714:A1 *3022:CLK 6.06134e-05
30 *2723:A2 *2472:A1 0
31 *2723:A2 *2672:A2 0.000282783
32 *2723:A2 *2723:A3 5.42945e-05
33 *2723:A2 *2723:A4 7.8967e-06
34 *2723:A2 *531:10 0.000166941
35 *221:25 *2291:I 0.000368571
36 *221:25 *3022:CLK 0
37 *221:25 *932:17 0.000262985
38 *221:38 *2472:A1 0
39 *221:38 *2723:A4 4.49168e-06
40 *2956:D *2478:A1 0.000700334
41 *2958:D *2478:A1 0.000116442
42 *3021:D *2714:A1 6.09211e-05
43 *220:15 *2723:A2 1.62685e-05
44 *220:37 *2711:A1 0
*RES
1 *2291:ZN *221:4 4.5 
2 *221:4 *2478:A1 19.62 
3 *221:4 *221:25 6.75 
4 *221:25 *2714:A1 11.7 
5 *221:25 *221:38 0.63 
6 *221:38 *2711:A1 11.25 
7 *221:38 *2723:A2 10.98 
*END

*D_NET *222 0.0180484
*CONN
*I *2476:A1 I *D gf180mcu_fd_sc_mcu7t5v0__aoi211_1
*I *2710:A1 I *D gf180mcu_fd_sc_mcu7t5v0__aoi211_1
*I *2292:ZN O *D gf180mcu_fd_sc_mcu7t5v0__clkinv_1
*CAP
1 *2476:A1 0.00182529
2 *2710:A1 0.000276204
3 *2292:ZN 1.87551e-05
4 *222:8 0.00212025
5 *2476:A1 *2474:B 0.000528649
6 *2476:A1 *2476:A2 0.000298777
7 *2476:A1 *2476:C 1.51153e-05
8 *2476:A1 *2490:C 0.00014341
9 *2476:A1 *2686:B 0.00279203
10 *2476:A1 *2738:A2 6.43544e-05
11 *2476:A1 *2858:B2 0.00131303
12 *2476:A1 *295:80 6.41295e-05
13 *2476:A1 *295:96 2.75959e-05
14 *2476:A1 *502:214 4.47711e-05
15 *2476:A1 *503:117 0.00287085
16 *2476:A1 *503:119 0.000203791
17 *2476:A1 *503:121 0.00154646
18 *2476:A1 *503:131 0.000649787
19 *2476:A1 *538:10 1.0571e-05
20 *2476:A1 *756:54 5.95604e-05
21 *2476:A1 *784:52 0
22 *2476:A1 *784:69 0.00135328
23 *2476:A1 *954:10 0.000270628
24 *2710:A1 *2686:B 0.000791913
25 *222:8 *3022:CLK 8.49143e-05
26 *222:8 *931:8 8.49143e-05
27 *2490:A1 *2476:A1 4.96342e-05
28 *2955:D *2476:A1 0.000302466
29 *3020:D *2710:A1 0.000237306
30 *10:20 *2476:A1 0
*RES
1 *2292:ZN *222:8 9.27 
2 *222:8 *2710:A1 11.7 
3 *222:8 *2476:A1 37.44 
*END

*D_NET *223 0.0125739
*CONN
*I *2472:A1 I *D gf180mcu_fd_sc_mcu7t5v0__aoi21_1
*I *2670:A1 I *D gf180mcu_fd_sc_mcu7t5v0__nand2_1
*I *2293:ZN O *D gf180mcu_fd_sc_mcu7t5v0__clkinv_1
*CAP
1 *2472:A1 0.00275531
2 *2670:A1 0.000199122
3 *2293:ZN 0
4 *223:6 0.00295443
5 *2472:A1 *2485:A1 0.00052864
6 *2472:A1 *2500:B 0
7 *2472:A1 *2676:A3 0.000384868
8 *2472:A1 *2834:A1 0.000737018
9 *2472:A1 *2858:A2 1.18076e-06
10 *2472:A1 *2860:A1 0.000487272
11 *2472:A1 *2951:CLK 0
12 *2472:A1 *3022:CLK 0.000187771
13 *2472:A1 *3134:I 0.00123129
14 *2472:A1 *295:67 1.61174e-05
15 *2472:A1 *295:76 0.00019484
16 *2472:A1 *496:24 0.000126524
17 *2472:A1 *778:49 0
18 *2472:A1 *778:53 0
19 *2472:A1 *778:55 0
20 *2472:A1 *778:253 0
21 *2472:A1 *778:301 0.00172815
22 *2472:A1 *778:312 6.28197e-05
23 *2670:A1 *2293:I 0.000505948
24 *2670:A1 *2467:A1 0
25 *2670:A1 *2670:A2 0.000429224
26 *2670:A1 *2951:CLK 0
27 *2670:A1 *713:57 5.79792e-06
28 *2714:A1 *2472:A1 0
29 *2723:A2 *2472:A1 0
30 *2742:A1 *2472:A1 3.75727e-05
31 *2951:D *2472:A1 0
32 *221:38 *2472:A1 0
*RES
1 *2293:ZN *223:6 9 
2 *223:6 *2670:A1 11.34 
3 *223:6 *2472:A1 37.62 
*END

*D_NET *224 0.00313925
*CONN
*I *2590:A1 I *D gf180mcu_fd_sc_mcu7t5v0__oai221_1
*I *2598:A1 I *D gf180mcu_fd_sc_mcu7t5v0__aoi221_1
*I *2294:ZN O *D gf180mcu_fd_sc_mcu7t5v0__clkinv_1
*CAP
1 *2590:A1 0.000222825
2 *2598:A1 0.000117951
3 *2294:ZN 0.000356712
4 *224:10 0.000697488
5 *2590:A1 *2590:A2 4.35253e-05
6 *2590:A1 *2590:C 7.54425e-05
7 *2590:A1 *2595:A2 5.29961e-06
8 *2590:A1 *2602:A1 0.000235076
9 *2590:A1 *2603:A2 0.000372735
10 *2590:A1 *2606:A1 6.84426e-05
11 *2590:A1 *2607:A1 3.22122e-05
12 *2590:A1 *2607:A4 1.00177e-05
13 *2598:A1 *2598:A2 1.0415e-05
14 *2598:A1 *2598:B1 8.68281e-06
15 *2598:A1 *2603:A2 3.84844e-06
16 *2598:A1 *2609:A4 2.917e-05
17 *224:10 *2592:A2 1.60094e-05
18 *224:10 *2603:A1 2.64352e-05
19 *224:10 *2603:A2 0.000775001
20 *224:10 *736:74 3.19635e-05
*RES
1 *2294:ZN *224:10 11.88 
2 *224:10 *2598:A1 9.63 
3 *224:10 *2590:A1 11.7 
*END

*D_NET *225 0.00757623
*CONN
*I *2624:A4 I *D gf180mcu_fd_sc_mcu7t5v0__and4_1
*I *2617:A1 I *D gf180mcu_fd_sc_mcu7t5v0__aoi21_1
*I *2514:A1 I *D gf180mcu_fd_sc_mcu7t5v0__nor2_1
*I *2515:A1 I *D gf180mcu_fd_sc_mcu7t5v0__and2_1
*I *2520:A1 I *D gf180mcu_fd_sc_mcu7t5v0__and4_1
*I *2295:ZN O *D gf180mcu_fd_sc_mcu7t5v0__clkinv_1
*CAP
1 *2624:A4 0.000332416
2 *2617:A1 8.55552e-05
3 *2514:A1 0
4 *2515:A1 4.82285e-05
5 *2520:A1 0.000251491
6 *2295:ZN 0.000179407
7 *225:47 0.000695579
8 *225:14 0.000358691
9 *225:10 0.000122942
10 *225:8 0.000520985
11 *2515:A1 *2515:A2 2.93938e-05
12 *2515:A1 *2516:A2 2.89427e-06
13 *2515:A1 *726:16 0
14 *2515:A1 *862:23 6.2979e-05
15 *2520:A1 *2514:A2 2.13441e-06
16 *2520:A1 *2516:A2 4.68565e-05
17 *2520:A1 *2520:A4 1.85284e-05
18 *2520:A1 *3136:I 9.39061e-05
19 *2520:A1 *375:12 4.79098e-05
20 *2520:A1 *726:41 0
21 *2520:A1 *862:8 9.04462e-05
22 *2520:A1 *862:23 0.000294431
23 *2617:A1 *2617:A2 0
24 *2617:A1 *2624:A1 2.70026e-05
25 *2624:A4 *2624:A1 6.2083e-05
26 *2624:A4 *2624:A2 0.000425761
27 *2624:A4 *2626:A3 0.000362328
28 *2624:A4 *486:20 0.000195949
29 *2624:A4 *734:16 0.000117116
30 *225:8 *2619:A2 0.000145765
31 *225:8 *2621:A3 3.0177e-06
32 *225:8 *3136:I 0.000100163
33 *225:8 *453:10 0.000372606
34 *225:8 *455:10 2.76794e-05
35 *225:8 *774:14 2.70125e-05
36 *225:10 *3136:I 5.31404e-05
37 *225:10 *774:14 8.66027e-05
38 *225:14 *2514:A2 0.000247389
39 *225:14 *3136:I 7.84385e-05
40 *225:14 *774:14 3.60134e-05
41 *225:47 *2383:B2 0.00071362
42 *225:47 *2617:A2 8.59949e-05
43 *225:47 *2624:A1 0.000531929
44 *225:47 *2626:A1 3.01487e-05
45 *225:47 *726:16 0.000372037
46 *2997:D *2617:A1 9.26419e-06
47 *2999:D *2624:A4 2.13441e-06
48 *3117:I *2617:A1 7.46569e-05
49 *3117:I *2624:A4 0.000103606
*RES
1 *2295:ZN *225:8 11.07 
2 *225:8 *225:10 0.81 
3 *225:10 *225:14 5.49 
4 *225:14 *2520:A1 16.02 
5 *225:14 *2515:A1 4.95 
6 *225:10 *2514:A1 9 
7 *225:8 *225:47 13.77 
8 *225:47 *2617:A1 9.99 
9 *225:47 *2624:A4 12.6 
*END

*D_NET *226 0.00683897
*CONN
*I *2410:A1 I *D gf180mcu_fd_sc_mcu7t5v0__aoi21_1
*I *2538:A1 I *D gf180mcu_fd_sc_mcu7t5v0__nor3_1
*I *2548:A1 I *D gf180mcu_fd_sc_mcu7t5v0__nor4_1
*I *2296:ZN O *D gf180mcu_fd_sc_mcu7t5v0__clkinv_1
*CAP
1 *2410:A1 0.00101447
2 *2538:A1 0.000418115
3 *2548:A1 0.000455159
4 *2296:ZN 0
5 *226:19 0.00143258
6 *226:4 0.000455159
7 *2410:A1 *2410:B 1.61174e-05
8 *2410:A1 *2534:A2 0
9 *2410:A1 *3167:I 0.000244944
10 *2410:A1 *3190:I 0.00027267
11 *2410:A1 *227:8 0
12 *2410:A1 *227:10 0
13 *2410:A1 *244:480 1.69023e-06
14 *2410:A1 *711:14 9.21301e-05
15 *2410:A1 *711:18 0.000312562
16 *2410:A1 *711:127 0.000146454
17 *2410:A1 *713:26 8.43202e-05
18 *2538:A1 *2534:A2 0
19 *2538:A1 *2537:A2 0
20 *2538:A1 *2538:A3 0
21 *2538:A1 *2543:B 1.02293e-05
22 *2538:A1 *711:18 0.000786865
23 *2538:A1 *819:10 2.1228e-05
24 *2538:A1 *884:10 0.000183662
25 *2548:A1 *2536:A2 2.5177e-05
26 *2548:A1 *2536:A3 1.79237e-05
27 *2548:A1 *2537:A2 0.000344514
28 *2548:A1 *2548:A2 0.000151417
29 *2548:A1 *227:35 6.49056e-05
30 *2548:A1 *385:45 0.000182498
31 *2548:A1 *711:14 3.45613e-05
32 *2548:A1 *885:8 2.06277e-05
33 *2932:D *2410:A1 4.89921e-05
34 *2979:D *2548:A1 0
*RES
1 *2296:ZN *226:4 4.5 
2 *226:4 *2548:A1 9 
3 *226:4 *226:19 4.5 
4 *226:19 *2538:A1 12.42 
5 *226:19 *2410:A1 17.28 
*END

*D_NET *227 0.00759064
*CONN
*I *2408:A1 I *D gf180mcu_fd_sc_mcu7t5v0__aoi21_1
*I *2534:A1 I *D gf180mcu_fd_sc_mcu7t5v0__and2_1
*I *2535:A1 I *D gf180mcu_fd_sc_mcu7t5v0__nor2_1
*I *2548:A2 I *D gf180mcu_fd_sc_mcu7t5v0__nor4_1
*I *2538:A2 I *D gf180mcu_fd_sc_mcu7t5v0__nor3_1
*I *2297:ZN O *D gf180mcu_fd_sc_mcu7t5v0__clkinv_1
*CAP
1 *2408:A1 0.000176099
2 *2534:A1 0.000129034
3 *2535:A1 0
4 *2548:A2 9.46944e-05
5 *2538:A2 0.00028663
6 *2297:ZN 9.25289e-05
7 *227:35 0.000495813
8 *227:21 0.000530152
9 *227:10 0.000487676
10 *227:8 0.000469674
11 *2408:A1 *778:73 0
12 *2534:A1 *2534:A2 0.000129689
13 *2534:A1 *711:8 0.000338924
14 *2534:A1 *778:73 0.00102768
15 *2538:A2 *2534:A2 0.000693065
16 *2538:A2 *2536:A1 0.000321384
17 *2538:A2 *2538:A3 0.00040513
18 *2538:A2 *2543:B 2.19964e-05
19 *2538:A2 *711:14 2.76794e-05
20 *2538:A2 *711:127 6.0354e-06
21 *2548:A2 *385:35 0.000151417
22 *227:8 *2408:B 6.65362e-05
23 *227:10 *2408:B 2.84815e-05
24 *227:10 *711:127 0.000102966
25 *227:35 *2535:A2 2.93938e-05
26 *227:35 *2536:A1 0.000598962
27 *227:35 *2536:A3 1.0415e-05
28 *227:35 *2548:A3 0
29 *227:35 *385:35 1.0415e-05
30 *227:35 *385:45 2.70026e-05
31 *227:35 *711:8 0.000286386
32 *227:35 *778:73 0.000286386
33 *2410:A1 *227:8 0
34 *2410:A1 *227:10 0
35 *2548:A1 *2548:A2 0.000151417
36 *2548:A1 *227:35 6.49056e-05
37 *2979:D *2534:A1 4.20783e-05
*RES
1 *2297:ZN *227:8 9.99 
2 *227:8 *227:10 1.89 
3 *227:10 *2538:A2 12.87 
4 *227:10 *227:21 4.5 
5 *227:21 *227:35 12.69 
6 *227:35 *2548:A2 5.76 
7 *227:35 *2535:A1 4.5 
8 *227:21 *2534:A1 7.29 
9 *227:8 *2408:A1 9.99 
*END

*D_NET *228 0.00336489
*CONN
*I *2510:A1 I *D gf180mcu_fd_sc_mcu7t5v0__aoi211_1
*I *2298:ZN O *D gf180mcu_fd_sc_mcu7t5v0__clkinv_1
*CAP
1 *2510:A1 0.000214274
2 *2298:ZN 0.000214274
3 *2510:A1 *2298:I 0.000404299
4 *2510:A1 *2873:A2 0.001339
5 *2510:A1 *2882:B 0
6 *2510:A1 *705:8 0.000404299
7 *2510:A1 *756:118 0.000109323
8 *2510:A1 *756:292 0.000679419
*RES
1 *2298:ZN *2510:A1 22.68 
*END

*D_NET *229 0.00362725
*CONN
*I *2508:A1 I *D gf180mcu_fd_sc_mcu7t5v0__aoi211_1
*I *2299:ZN O *D gf180mcu_fd_sc_mcu7t5v0__clkinv_1
*CAP
1 *2508:A1 0.000668699
2 *2299:ZN 0.000668699
3 *2508:A1 *2322:A2 0.000149891
4 *2508:A1 *2475:A1 0.000101398
5 *2508:A1 *2476:B 5.93689e-05
6 *2508:A1 *2503:A1 0.000156292
7 *2508:A1 *2504:A1 9.04462e-05
8 *2508:A1 *2867:B2 1.48687e-05
9 *2508:A1 *2867:C1 0.000201324
10 *2508:A1 *756:42 0.000256237
11 *2508:A1 *756:44 0.000229822
12 *2508:A1 *778:420 0.000947695
13 *2508:A1 *778:429 5.97457e-06
14 *3057:D *2508:A1 7.65324e-05
*RES
1 *2299:ZN *2508:A1 26.01 
*END

*D_NET *230 0.00219213
*CONN
*I *2506:A1 I *D gf180mcu_fd_sc_mcu7t5v0__aoi211_1
*I *2300:ZN O *D gf180mcu_fd_sc_mcu7t5v0__clkinv_1
*CAP
1 *2506:A1 0.000347641
2 *2300:ZN 0.000347641
3 *2506:A1 *2299:I 0.000133934
4 *2506:A1 *2300:I 8.03845e-05
5 *2506:A1 *2322:A3 0.000247389
6 *2506:A1 *2506:B 7.84041e-05
7 *2506:A1 *2506:C 1.56942e-05
8 *2506:A1 *2889:A2 6.98034e-05
9 *2506:A1 *756:12 0.000204537
10 *2506:A1 *756:104 0.000666705
*RES
1 *2300:ZN *2506:A1 22.5 
*END

*D_NET *231 0.0022449
*CONN
*I *2504:A1 I *D gf180mcu_fd_sc_mcu7t5v0__aoi211_1
*I *2301:ZN O *D gf180mcu_fd_sc_mcu7t5v0__clkinv_1
*CAP
1 *2504:A1 0.000393505
2 *2301:ZN 0.000393505
3 *2504:A1 *2301:I 4.74921e-05
4 *2504:A1 *2322:A1 6.85726e-05
5 *2504:A1 *2322:A2 2.89295e-05
6 *2504:A1 *2504:A2 3.97987e-05
7 *2504:A1 *2504:C 1.07374e-05
8 *2504:A1 *2508:B 0.000414452
9 *2504:A1 *2508:C 2.13062e-05
10 *2504:A1 *251:12 3.22122e-05
11 *2504:A1 *756:108 2.28831e-05
12 *2504:A1 *778:377 0.000175528
13 *2504:A1 *778:420 0.000217954
14 *2504:A1 *782:121 0
15 *2508:A1 *2504:A1 9.04462e-05
16 *2971:D *2504:A1 0.000287576
*RES
1 *2301:ZN *2504:A1 22.32 
*END

*D_NET *232 0.00051159
*CONN
*I *2500:A1 I *D gf180mcu_fd_sc_mcu7t5v0__aoi211_1
*I *2302:ZN O *D gf180mcu_fd_sc_mcu7t5v0__clkinv_1
*CAP
1 *2500:A1 4.33935e-05
2 *2302:ZN 4.33935e-05
3 *2500:A1 *2302:I 3.01487e-05
4 *2500:A1 *2959:CLK 0.000294431
5 *2500:A1 *778:38 0.000100224
*RES
1 *2302:ZN *2500:A1 9.81 
*END

*D_NET *233 0.00157299
*CONN
*I *2498:A1 I *D gf180mcu_fd_sc_mcu7t5v0__aoi211_1
*I *2303:ZN O *D gf180mcu_fd_sc_mcu7t5v0__clkinv_1
*CAP
1 *2498:A1 0.000168567
2 *2303:ZN 0.000168567
3 *2498:A1 *2480:B 6.12689e-05
4 *2498:A1 *2826:A1 0.000293026
5 *2498:A1 *2834:A2 0.000284927
6 *2498:A1 *2878:B2 0.000559138
7 *2498:A1 *656:14 3.74991e-05
*RES
1 *2303:ZN *2498:A1 20.34 
*END

*D_NET *234 0.00162057
*CONN
*I *2494:A1 I *D gf180mcu_fd_sc_mcu7t5v0__aoi211_1
*I *2304:ZN O *D gf180mcu_fd_sc_mcu7t5v0__clkinv_1
*CAP
1 *2494:A1 0.000239733
2 *2304:ZN 0.000239733
3 *2494:A1 *630:24 0.000101664
4 *2494:A1 *705:45 0.000711467
5 *2494:A1 *756:134 0.00032797
*RES
1 *2304:ZN *2494:A1 21.24 
*END

*D_NET *235 0.000987476
*CONN
*I *2488:A1 I *D gf180mcu_fd_sc_mcu7t5v0__aoi211_1
*I *2305:ZN O *D gf180mcu_fd_sc_mcu7t5v0__clkinv_1
*CAP
1 *2488:A1 0.000220275
2 *2305:ZN 0.000220275
3 *2488:A1 *2488:A2 2.00048e-05
4 *2488:A1 *2850:A1 4.34199e-06
5 *2488:A1 *496:24 0.000382875
6 *2488:A1 *706:12 0
7 *2488:A1 *778:353 2.47509e-05
8 *2488:A1 *783:107 9.81648e-05
9 *2953:D *2488:A1 1.67882e-05
*RES
1 *2305:ZN *2488:A1 19.8 
*END

*D_NET *236 0.00189504
*CONN
*I *2486:A1 I *D gf180mcu_fd_sc_mcu7t5v0__aoi211_1
*I *2306:ZN O *D gf180mcu_fd_sc_mcu7t5v0__clkinv_1
*CAP
1 *2486:A1 0.000177963
2 *2306:ZN 0.000177963
3 *2486:A1 *502:18 5.28485e-05
4 *2486:A1 *503:36 0.000734123
5 *2486:A1 *656:14 0.000238428
6 *2486:A1 *779:10 0.000165741
7 *2968:D *2486:A1 0.00034797
*RES
1 *2306:ZN *2486:A1 21.42 
*END

*D_NET *237 0.000653141
*CONN
*I *2482:A1 I *D gf180mcu_fd_sc_mcu7t5v0__aoi211_1
*I *2307:ZN O *D gf180mcu_fd_sc_mcu7t5v0__clkinv_1
*CAP
1 *2482:A1 0.000205108
2 *2307:ZN 0.000205108
3 *2482:A1 *2307:I 0
4 *2482:A1 *946:10 0.000118113
5 *2482:A1 *951:12 2.4935e-05
6 *2478:A1 *2482:A1 0
7 *2480:A1 *2482:A1 5.79059e-06
8 *2958:D *2482:A1 9.40873e-05
*RES
1 *2307:ZN *2482:A1 19.8 
*END

*D_NET *238 0.00183021
*CONN
*I *2474:A1 I *D gf180mcu_fd_sc_mcu7t5v0__aoi211_1
*I *2308:ZN O *D gf180mcu_fd_sc_mcu7t5v0__clkinv_1
*CAP
1 *2474:A1 0.000721584
2 *2308:ZN 0.000721584
3 *2474:A1 *2308:I 0
4 *2474:A1 *2473:A2 1.32662e-05
5 *2474:A1 *2474:C 5.97457e-06
6 *2474:A1 *2954:CLK 1.59125e-05
7 *2474:A1 *778:268 1.61174e-05
8 *2954:D *2474:A1 0.000335771
*RES
1 *2308:ZN *2474:A1 14.22 
*END

*D_NET *239 0.0112091
*CONN
*I *2383:B2 I *D gf180mcu_fd_sc_mcu7t5v0__aoi221_1
*I *2796:A2 I *D gf180mcu_fd_sc_mcu7t5v0__and3_1
*I *2309:ZN O *D gf180mcu_fd_sc_mcu7t5v0__clkinv_1
*CAP
1 *2383:B2 0.00150946
2 *2796:A2 0.000295391
3 *2309:ZN 0
4 *239:6 0.00180485
5 *2383:B2 *2385:A1 3.60134e-05
6 *2383:B2 *2385:A2 0.000109332
7 *2383:B2 *2620:A1 0
8 *2383:B2 *2626:A1 0.000685623
9 *2383:B2 *2626:A2 0.000461264
10 *2383:B2 *2628:A1 3.34193e-05
11 *2383:B2 *2628:A2 0.000163256
12 *2383:B2 *2632:A4 0.000286386
13 *2383:B2 *2667:A1 0
14 *2383:B2 *2667:A2 5.79059e-06
15 *2383:B2 *2923:CLK 9.65355e-06
16 *2383:B2 *2924:CLK 2.03791e-05
17 *2383:B2 *2925:CLK 0.000141012
18 *2383:B2 *3092:I 0.000119182
19 *2383:B2 *244:101 0.000141317
20 *2383:B2 *453:10 0.000345504
21 *2383:B2 *455:10 3.58953e-05
22 *2383:B2 *458:12 0.00044647
23 *2383:B2 *458:14 6.02974e-05
24 *2383:B2 *460:6 8.69576e-05
25 *2383:B2 *722:22 0.00103142
26 *2383:B2 *722:33 4.34597e-05
27 *2383:B2 *723:18 1.25563e-06
28 *2383:B2 *725:10 0.000375564
29 *2383:B2 *725:21 4.29496e-05
30 *2383:B2 *726:16 3.31332e-05
31 *2383:B2 *774:14 0.00144879
32 *2796:A2 *371:68 3.22122e-05
33 *2796:A2 *708:20 3.97987e-05
34 *2796:A2 *722:33 0.000467639
35 *2796:A2 *723:18 1.30531e-05
36 *2796:A2 *723:24 1.6879e-05
37 *2923:D *2383:B2 4.34199e-06
38 *2924:D *2383:B2 0
39 *2999:D *2383:B2 0.000147507
40 *225:47 *2383:B2 0.00071362
*RES
1 *2309:ZN *239:6 9 
2 *239:6 *2796:A2 11.88 
3 *239:6 *2383:B2 39.69 
*END

*D_NET *240 0.00606923
*CONN
*I *2328:A1 I *D gf180mcu_fd_sc_mcu7t5v0__oai21_1
*I *2590:B1 I *D gf180mcu_fd_sc_mcu7t5v0__oai221_1
*I *2598:B1 I *D gf180mcu_fd_sc_mcu7t5v0__aoi221_1
*I *2310:ZN O *D gf180mcu_fd_sc_mcu7t5v0__clkinv_1
*CAP
1 *2328:A1 0
2 *2590:B1 0
3 *2598:B1 8.86029e-05
4 *2310:ZN 7.32802e-05
5 *240:14 0.00116152
6 *240:8 0.0011462
7 *2598:B1 *2590:A2 2.63343e-05
8 *2598:B1 *2590:B2 0.000591262
9 *2598:B1 *2590:C 2.31089e-05
10 *2598:B1 *2592:A2 2.30981e-05
11 *2598:B1 *2598:C 3.01487e-05
12 *2598:B1 *2603:A2 0.000671844
13 *2598:B1 *2609:A4 2.08301e-05
14 *240:8 *2876:A1 7.71766e-05
15 *240:8 *752:36 0.000212085
16 *240:14 *2590:C 2.30981e-05
17 *240:14 *2598:A2 1.4382e-06
18 *240:14 *2599:A1 5.40551e-05
19 *240:14 *2822:B2 0.000410404
20 *240:14 *2838:B2 1.5706e-05
21 *240:14 *2876:A1 0.000125629
22 *240:14 *2920:A2 0.000109559
23 *240:14 *255:14 3.81872e-05
24 *240:14 *752:36 0.000695605
25 *240:14 *857:31 0.000441364
26 *2598:A1 *2598:B1 8.68281e-06
*RES
1 *2310:ZN *240:8 10.17 
2 *240:8 *240:14 14.4 
3 *240:14 *2598:B1 15.75 
4 *240:14 *2590:B1 4.5 
5 *240:8 *2328:A1 9 
*END

*D_NET *241 0.00710083
*CONN
*I *2340:A2 I *D gf180mcu_fd_sc_mcu7t5v0__or2_1
*I *2316:A2 I *D gf180mcu_fd_sc_mcu7t5v0__nand2_1
*I *2311:ZN O *D gf180mcu_fd_sc_mcu7t5v0__clkinv_1
*CAP
1 *2340:A2 0
2 *2316:A2 0.00080486
3 *2311:ZN 0.000141943
4 *241:12 0.000946803
5 *2316:A2 *2341:A2 4.39622e-05
6 *2316:A2 *2594:A1 0.000352069
7 *2316:A2 *2829:A2 0.00022286
8 *2316:A2 *2862:B2 0.000123276
9 *2316:A2 *2890:A1 0.00124455
10 *2316:A2 *2908:A2 1.34934e-05
11 *2316:A2 *2908:A3 0.000486059
12 *2316:A2 *3102:I 5.38916e-06
13 *2316:A2 *605:39 0.000210579
14 *2316:A2 *605:41 0.000209297
15 *2316:A2 *605:43 0.000274529
16 *2316:A2 *665:12 0
17 *2316:A2 *701:8 0.000255088
18 *2316:A2 *743:68 9.34521e-05
19 *2316:A2 *756:352 0.00113918
20 *2316:A2 *756:364 9.71964e-06
21 *2316:A2 *850:27 0.000127133
22 *241:12 *2319:A1 5.82191e-05
23 *241:12 *2364:A2 5.97457e-06
24 *241:12 *2829:A2 6.14867e-05
25 *241:12 *743:68 0.000106536
26 *241:12 *756:352 0.000164374
*RES
1 *2311:ZN *241:12 6.48 
2 *241:12 *2316:A2 24.3 
3 *241:12 *2340:A2 4.5 
*END

*D_NET *242 0.00123162
*CONN
*I *2318:A2 I *D gf180mcu_fd_sc_mcu7t5v0__or3_1
*I *2312:ZN O *D gf180mcu_fd_sc_mcu7t5v0__clkinv_1
*CAP
1 *2318:A2 0.000409759
2 *2312:ZN 0.000409759
3 *2318:A2 *2313:I 3.08806e-05
4 *2318:A2 *2318:A1 2.93938e-05
5 *2318:A2 *2318:A3 0.000148576
6 *2318:A2 *2807:A1 1.849e-05
7 *2318:A2 *2808:A1 2.98938e-05
8 *2318:A2 *2811:A3 1.61174e-05
9 *2318:A2 *732:12 2.81127e-05
10 *2318:A2 *780:13 0.000110639
*RES
1 *2312:ZN *2318:A2 21.24 
*END

*D_NET *243 0.00159131
*CONN
*I *2317:A1 I *D gf180mcu_fd_sc_mcu7t5v0__or4_1
*I *2313:ZN O *D gf180mcu_fd_sc_mcu7t5v0__clkinv_1
*CAP
1 *2317:A1 0.000633102
2 *2313:ZN 0.000633102
3 *2317:A1 *2312:I 2.84365e-05
4 *2317:A1 *732:12 0.000253399
5 *2317:A1 *733:8 0
6 *2317:A1 *769:12 3.07722e-05
7 *2317:A1 *780:13 0
8 *3205:I *2317:A1 1.24972e-05
9 *3206:I *2317:A1 0
*RES
1 *2313:ZN *2317:A1 22.68 
*END

*D_NET *244 0.0958769
*CONN
*I *2466:B I *D gf180mcu_fd_sc_mcu7t5v0__oai21_1
*I *2463:B I *D gf180mcu_fd_sc_mcu7t5v0__oai21_1
*I *2469:B I *D gf180mcu_fd_sc_mcu7t5v0__oai21_1
*I *2460:B I *D gf180mcu_fd_sc_mcu7t5v0__oai21_1
*I *2409:B I *D gf180mcu_fd_sc_mcu7t5v0__oai21_1
*I *2407:B I *D gf180mcu_fd_sc_mcu7t5v0__oai21_1
*I *2399:B I *D gf180mcu_fd_sc_mcu7t5v0__oai21_1
*I *2433:B I *D gf180mcu_fd_sc_mcu7t5v0__oai21_1
*I *2415:B I *D gf180mcu_fd_sc_mcu7t5v0__oai21_1
*I *2418:B I *D gf180mcu_fd_sc_mcu7t5v0__oai21_1
*I *2412:B I *D gf180mcu_fd_sc_mcu7t5v0__oai21_1
*I *2421:B I *D gf180mcu_fd_sc_mcu7t5v0__oai21_1
*I *2436:B I *D gf180mcu_fd_sc_mcu7t5v0__oai21_1
*I *2424:B I *D gf180mcu_fd_sc_mcu7t5v0__oai21_1
*I *2439:B I *D gf180mcu_fd_sc_mcu7t5v0__oai21_1
*I *2442:B I *D gf180mcu_fd_sc_mcu7t5v0__oai21_1
*I *2457:B I *D gf180mcu_fd_sc_mcu7t5v0__oai21_1
*I *2402:B I *D gf180mcu_fd_sc_mcu7t5v0__oai21_1
*I *2405:B I *D gf180mcu_fd_sc_mcu7t5v0__oai21_1
*I *2445:B I *D gf180mcu_fd_sc_mcu7t5v0__oai21_1
*I *2451:B I *D gf180mcu_fd_sc_mcu7t5v0__oai21_1
*I *2448:B I *D gf180mcu_fd_sc_mcu7t5v0__oai21_1
*I *2454:B I *D gf180mcu_fd_sc_mcu7t5v0__oai21_1
*I *2427:B I *D gf180mcu_fd_sc_mcu7t5v0__oai21_1
*I *2430:B I *D gf180mcu_fd_sc_mcu7t5v0__oai21_1
*I *2350:B I *D gf180mcu_fd_sc_mcu7t5v0__oai21_1
*I *2356:B I *D gf180mcu_fd_sc_mcu7t5v0__oai21_1
*I *2353:B I *D gf180mcu_fd_sc_mcu7t5v0__oai21_1
*I *2359:B I *D gf180mcu_fd_sc_mcu7t5v0__oai21_1
*I *2339:A1 I *D gf180mcu_fd_sc_mcu7t5v0__nand3_1
*I *2330:B I *D gf180mcu_fd_sc_mcu7t5v0__oai21_1
*I *2334:A1 I *D gf180mcu_fd_sc_mcu7t5v0__nand3_1
*I *2336:C I *D gf180mcu_fd_sc_mcu7t5v0__oai211_1
*I *2390:B I *D gf180mcu_fd_sc_mcu7t5v0__oai21_1
*I *2396:B I *D gf180mcu_fd_sc_mcu7t5v0__oai21_1
*I *2393:B I *D gf180mcu_fd_sc_mcu7t5v0__oai21_1
*I *2362:B I *D gf180mcu_fd_sc_mcu7t5v0__oai21_1
*I *2347:B I *D gf180mcu_fd_sc_mcu7t5v0__oai21_1
*I *2322:A2 I *D gf180mcu_fd_sc_mcu7t5v0__nand3_1
*I *2471:B I *D gf180mcu_fd_sc_mcu7t5v0__oai21_1
*I *2314:ZN O *D gf180mcu_fd_sc_mcu7t5v0__clkinv_2
*CAP
1 *2466:B 6.17975e-05
2 *2463:B 0.000185401
3 *2469:B 0
4 *2460:B 0.000144369
5 *2409:B 0
6 *2407:B 0
7 *2399:B 0.000357255
8 *2433:B 3.96127e-05
9 *2415:B 0.000360456
10 *2418:B 0
11 *2412:B 0.00114186
12 *2421:B 0
13 *2436:B 0.000170145
14 *2424:B 4.41731e-05
15 *2439:B 0
16 *2442:B 0
17 *2457:B 0.000258981
18 *2402:B 0.00012934
19 *2405:B 0.000124237
20 *2445:B 3.69119e-05
21 *2451:B 0
22 *2448:B 0
23 *2454:B 0.000214976
24 *2427:B 0.000527507
25 *2430:B 0
26 *2350:B 0.000581325
27 *2356:B 9.7323e-05
28 *2353:B 0
29 *2359:B 0
30 *2339:A1 7.30735e-05
31 *2330:B 0
32 *2334:A1 0.000165244
33 *2336:C 0.00012228
34 *2390:B 0
35 *2396:B 0.000402558
36 *2393:B 2.63086e-05
37 *2362:B 2.06805e-05
38 *2347:B 0.000132016
39 *2322:A2 0.000646836
40 *2471:B 0.0011339
41 *2314:ZN 0
42 *244:513 0.000499533
43 *244:491 0.000437133
44 *244:489 0.000700008
45 *244:480 0.00103021
46 *244:463 0.00128218
47 *244:422 0.000390361
48 *244:398 0.000734979
49 *244:387 0.000644739
50 *244:376 0.000967498
51 *244:370 0.00122717
52 *244:345 0.00084425
53 *244:339 0.000799758
54 *244:332 0.000899372
55 *244:277 0.000351901
56 *244:271 0.000417405
57 *244:269 0.000317392
58 *244:251 0.000593556
59 *244:245 0.000109156
60 *244:243 0.000187145
61 *244:241 0.000237607
62 *244:239 0.000444064
63 *244:237 0.000776075
64 *244:233 0.00103381
65 *244:186 0.00110236
66 *244:143 0.000580812
67 *244:128 0.000579205
68 *244:105 0.000295234
69 *244:101 0.00102173
70 *244:97 0.00192119
71 *244:82 0.00111224
72 *244:78 0.000559611
73 *244:76 0.000599931
74 *244:61 0.00129682
75 *244:51 0.0009991
76 *244:49 0.00119037
77 *244:4 0.00109683
78 *2322:A2 *2301:I 3.99898e-05
79 *2322:A2 *2314:I 6.2979e-05
80 *2322:A2 *2322:A1 5.18351e-05
81 *2322:A2 *2503:A1 0.000261783
82 *2322:A2 *2508:B 2.76761e-05
83 *2322:A2 *2867:A2 6.06563e-05
84 *2322:A2 *2867:B1 0.000328934
85 *2322:A2 *251:12 3.43442e-05
86 *2322:A2 *778:353 2.04721e-05
87 *2322:A2 *778:364 2.50624e-05
88 *2322:A2 *783:107 0.000106663
89 *2334:A1 *2337:A1 0.000309993
90 *2334:A1 *2339:A2 5.79557e-05
91 *2334:A1 *2822:A1 0.000844723
92 *2334:A1 *3071:CLK 0
93 *2334:A1 *254:39 0
94 *2334:A1 *254:60 5.05894e-05
95 *2334:A1 *254:68 0.000445488
96 *2334:A1 *755:29 7.80963e-05
97 *2334:A1 *755:35 0.00015133
98 *2334:A1 *859:10 0.000143204
99 *2339:A1 *2339:A3 4.6613e-06
100 *2339:A1 *284:34 0
101 *2339:A1 *694:169 5.68658e-06
102 *2347:B *2352:A2 0.000364897
103 *2347:B *2367:I1 0.000562997
104 *2347:B *3078:CLK 1.13986e-05
105 *2347:B *720:12 4.54901e-05
106 *2350:B *2356:A1 0.000288831
107 *2350:B *2368:S 0.00100492
108 *2350:B *2845:A1 0.000408322
109 *2350:B *2846:A1 4.5501e-05
110 *2350:B *2847:A1 0.000168938
111 *2350:B *2847:B 7.98551e-05
112 *2350:B *2847:C 0.000153272
113 *2350:B *2848:B2 0.000826718
114 *2350:B *2881:A1 0.00175738
115 *2350:B *3077:CLK 0.000169927
116 *2350:B *284:14 2.28956e-05
117 *2350:B *689:18 9.39061e-05
118 *2350:B *759:40 0.00114636
119 *2350:B *783:16 4.843e-05
120 *2356:B *2356:A1 0.000226143
121 *2356:B *2357:A1 0
122 *2356:B *2881:A1 0.00021045
123 *2356:B *689:18 7.949e-05
124 *2362:B *631:16 3.60189e-05
125 *2362:B *721:18 0.000174497
126 *2393:B *2391:A1 3.97987e-05
127 *2393:B *2400:A1 0
128 *2396:B *2391:A1 0.000187305
129 *2396:B *2393:A1 0.00020331
130 *2396:B *2400:A1 0
131 *2396:B *2814:B2 0.000436478
132 *2399:B *2400:A1 1.59306e-05
133 *2399:B *2827:C1 0.000112732
134 *2399:B *781:162 0.000261818
135 *2402:B *2403:A2 8.32982e-05
136 *2402:B *2440:A1 0.000530105
137 *2405:B *2402:A1 0.00073861
138 *2405:B *2403:A1 5.38599e-05
139 *2405:B *2403:A2 0.000348361
140 *2405:B *781:128 2.65444e-06
141 *2412:B *2413:A2 3.98088e-05
142 *2412:B *2421:A1 0.000150016
143 *2412:B *2843:B1 2.98728e-05
144 *2412:B *2843:B2 0
145 *2412:B *2843:C2 0.000197442
146 *2412:B *779:56 4.6613e-06
147 *2412:B *781:67 0
148 *2412:B *888:10 0.000465988
149 *2415:B *694:102 0.000545211
150 *2415:B *779:30 3.90136e-05
151 *2415:B *779:36 8.09465e-05
152 *2415:B *779:49 2.30981e-05
153 *2415:B *779:84 0.000969778
154 *2424:B *2866:A1 0.000507492
155 *2424:B *2940:CLK 0.000215887
156 *2427:B *2428:A2 3.57187e-05
157 *2427:B *2843:C2 0.000222963
158 *2427:B *2866:C1 0.000353303
159 *2427:B *781:60 1.64006e-05
160 *2427:B *890:8 2.89427e-06
161 *2427:B *891:10 0.000213046
162 *2427:B *896:8 0.000202354
163 *2433:B *600:51 1.66859e-06
164 *2433:B *694:29 2.49079e-05
165 *2436:B *2422:A2 0.000177834
166 *2436:B *2436:A1 6.10381e-05
167 *2436:B *2818:C2 3.08806e-06
168 *2445:B *2851:C1 0.000224296
169 *2445:B *2859:C1 4.81429e-05
170 *2454:B *2452:A2 0.000101516
171 *2454:B *2454:A1 0.000210731
172 *2454:B *2458:A1 0
173 *2454:B *3118:I 0
174 *2454:B *296:58 7.55765e-06
175 *2454:B *898:10 0.000425742
176 *2457:B *2403:A1 0
177 *2457:B *2879:C2 0.000409046
178 *2457:B *901:14 7.46964e-06
179 *2460:B *2460:A1 0.000591262
180 *2460:B *2464:A1 3.98088e-05
181 *2460:B *2469:A2 2.89427e-06
182 *2463:B *2463:A1 0.000119878
183 *2463:B *2464:A1 4.34121e-06
184 *2463:B *2464:A2 0.000526079
185 *2463:B *2466:A2 1.77397e-05
186 *2463:B *2818:A1 0.000559755
187 *2463:B *779:148 0
188 *2463:B *779:159 0.000448049
189 *2466:B *2466:A2 3.38498e-05
190 *2466:B *2818:A1 0.000286386
191 *2471:B *2314:I 9.30289e-05
192 *2471:B *2471:A1 0.000607886
193 *2471:B *2850:B2 0.000388845
194 *2471:B *2867:B1 9.7676e-05
195 *2471:B *3123:I 1.86887e-06
196 *2471:B *630:24 0.000519327
197 *2471:B *782:79 0
198 *2471:B *783:107 0.000248441
199 *244:49 *2354:A1 5.01359e-05
200 *244:49 *2354:A2 0.000673772
201 *244:49 *2493:A1 4.33781e-05
202 *244:49 *2964:CLK 1.18222e-05
203 *244:49 *630:24 0.00123548
204 *244:49 *645:22 0
205 *244:49 *705:16 0.000113667
206 *244:49 *756:144 0.000769514
207 *244:49 *917:19 5.96096e-05
208 *244:51 *2353:A2 0.000119878
209 *244:51 *782:18 0.00052864
210 *244:51 *783:24 4.26733e-05
211 *244:61 *2352:A2 0.00020197
212 *244:61 *2367:I1 0.000655346
213 *244:61 *2371:I1 0.000226958
214 *244:61 *3076:CLK 0.000348427
215 *244:61 *284:28 4.94831e-05
216 *244:61 *284:34 5.78854e-06
217 *244:61 *690:17 0.000196159
218 *244:61 *694:201 0
219 *244:61 *703:20 5.30751e-05
220 *244:61 *703:31 6.98034e-05
221 *244:61 *720:10 2.84883e-05
222 *244:61 *720:12 6.0354e-06
223 *244:61 *782:18 0.00115377
224 *244:61 *783:24 6.15707e-05
225 *244:76 *2352:A2 9.04462e-05
226 *244:76 *2359:A1 0.000578516
227 *244:76 *284:34 0
228 *244:76 *694:201 0.000184756
229 *244:78 *284:34 0
230 *244:78 *694:169 0.000191944
231 *244:78 *694:201 4.16188e-07
232 *244:82 *267:21 0.000169917
233 *244:82 *631:16 0.000121104
234 *244:82 *721:12 0.000942826
235 *244:82 *721:18 7.03219e-05
236 *244:97 *2372:I0 5.30888e-06
237 *244:97 *3070:CLK 0.000554493
238 *244:97 *266:75 0.00187176
239 *244:97 *714:21 0
240 *244:97 *714:51 7.191e-07
241 *244:101 *2383:B1 1.63556e-05
242 *244:101 *2869:A1 0.000101607
243 *244:101 *2876:A1 0.000116802
244 *244:101 *709:25 0.00020517
245 *244:101 *709:38 0.000161402
246 *244:101 *723:8 0
247 *244:101 *723:18 0
248 *244:101 *755:35 0.000625725
249 *244:105 *2390:A1 1.23523e-05
250 *244:105 *2390:A2 0.0001102
251 *244:105 *709:25 0.000212914
252 *244:128 *2876:A1 3.04847e-05
253 *244:128 *755:35 3.60134e-05
254 *244:143 *2329:A1 0.000591253
255 *244:143 *2600:A2 0.000118966
256 *244:143 *2870:A1 3.12872e-05
257 *244:143 *2876:A1 0.00017918
258 *244:143 *755:35 0.000123239
259 *244:186 *2353:A2 0.000462424
260 *244:186 *2356:A1 6.08431e-05
261 *244:186 *2370:S 8.53098e-05
262 *244:186 *2878:B1 0.000447082
263 *244:186 *2881:A1 2.36813e-05
264 *244:186 *3083:CLK 2.87839e-05
265 *244:186 *251:30 0.000109988
266 *244:186 *689:18 0.000284594
267 *244:186 *756:313 5.05894e-05
268 *244:186 *782:14 0.000245369
269 *244:186 *782:18 0.00113577
270 *244:233 *2393:A1 0.000204168
271 *244:233 *2400:A1 0.000635495
272 *244:233 *3229:I 0
273 *244:233 *781:162 0.000150498
274 *244:233 *781:170 4.6613e-06
275 *244:233 *886:8 0
276 *244:237 *3229:I 0.00158486
277 *244:239 *3229:I 0.000512144
278 *244:239 *901:14 0
279 *244:241 *2440:A1 6.4382e-05
280 *244:241 *3229:I 0.000553459
281 *244:241 *901:14 0
282 *244:243 *2440:A1 0.000262851
283 *244:243 *3229:I 0.000288831
284 *244:245 *2440:A1 0.00072417
285 *244:245 *3229:I 0.000755472
286 *244:251 *2440:A1 0.000628504
287 *244:251 *2866:C1 9.49368e-05
288 *244:251 *3229:I 0.000623176
289 *244:251 *896:8 0.000224296
290 *244:271 *2851:C1 0.00156733
291 *244:271 *2859:C1 0.000307964
292 *244:271 *2948:CLK 3.08083e-05
293 *244:277 *2458:A1 0
294 *244:277 *2851:C1 0.000176487
295 *244:277 *781:93 0.000164228
296 *244:277 *899:12 0.000292006
297 *244:332 *2443:A2 4.78286e-05
298 *244:332 *2879:C2 0
299 *244:332 *694:29 0.000101216
300 *244:332 *781:37 1.51153e-05
301 *244:332 *781:43 5.78854e-06
302 *244:339 *2442:A1 0.00026179
303 *244:339 *600:20 2.41275e-05
304 *244:339 *600:51 1.60354e-05
305 *244:339 *694:29 0.000267405
306 *244:339 *781:37 7.55765e-06
307 *244:345 *2440:A2 0.00037097
308 *244:345 *601:29 0.000272679
309 *244:370 *2418:A1 0.000426485
310 *244:370 *2433:A1 6.46011e-06
311 *244:370 *2439:A2 0.000367588
312 *244:370 *2440:A2 3.64412e-05
313 *244:370 *2827:A2 0
314 *244:370 *2835:B2 0
315 *244:370 *2836:A2 7.30854e-05
316 *244:370 *2879:B2 0.000169362
317 *244:370 *600:66 0.000182866
318 *244:370 *694:13 0.000108239
319 *244:370 *694:102 3.05421e-05
320 *244:370 *712:72 0.000112928
321 *244:370 *779:95 0
322 *244:370 *892:8 0.00013069
323 *244:376 *2418:A1 0.000161838
324 *244:376 *2819:A2 0
325 *244:376 *2866:A1 0.000266418
326 *244:376 *2940:CLK 1.0415e-05
327 *244:376 *601:85 9.96406e-06
328 *244:376 *712:72 0.000194418
329 *244:387 *2424:A2 0
330 *244:387 *2425:A2 0
331 *244:387 *2818:C2 6.98063e-05
332 *244:422 *694:102 2.60586e-05
333 *244:422 *779:84 8.49208e-05
334 *244:463 *2408:A2 2.65444e-06
335 *244:463 *2843:A1 0
336 *244:463 *779:56 5.04949e-05
337 *244:480 *2407:A1 6.317e-05
338 *244:480 *2408:A2 0
339 *244:480 *2409:A2 5.97457e-06
340 *244:480 *2410:B 0.000261875
341 *244:480 *2469:A1 9.84908e-05
342 *244:480 *2843:A1 5.92193e-05
343 *244:480 *3135:I 4.24123e-05
344 *244:480 *3190:I 0
345 *244:480 *713:26 0.000144039
346 *244:480 *713:46 0.000487282
347 *244:480 *952:10 1.07281e-05
348 *244:489 *2409:A2 5.79059e-06
349 *244:489 *2469:A1 0
350 *244:489 *713:46 0.00049538
351 *244:489 *713:53 6.2979e-05
352 *244:491 *2460:A1 0.000429585
353 *244:491 *2464:A1 0.00010161
354 *244:491 *2467:A2 3.0177e-06
355 *244:491 *2818:A1 0
356 *244:513 *2464:A1 2.26987e-05
357 *244:513 *2466:A1 3.60189e-05
358 *244:513 *2467:A2 6.7943e-05
359 *244:513 *2818:A1 0
360 *244:513 *779:159 0
361 *2383:A1 *244:101 3.42213e-05
362 *2383:B2 *244:101 0.000141317
363 *2410:A1 *244:480 1.69023e-06
364 *2504:A1 *2322:A2 2.89295e-05
365 *2508:A1 *2322:A2 0.000149891
366 *2923:D *244:101 0.00023712
367 *2924:D *244:101 0.000510662
368 *2925:D *244:101 0
369 *2925:D *244:105 0
370 *2928:D *2399:B 0.000213046
371 *2929:D *2402:B 4.68887e-05
372 *2930:D *244:271 0.000100112
373 *2932:D *244:480 0.000824027
374 *2935:D *244:376 0
375 *2943:D *244:241 7.48093e-05
376 *2950:D *2463:B 6.31783e-05
377 *2964:D *244:49 0.000302466
378 *3076:D *244:49 1.61174e-05
379 *3077:D *2356:B 3.55118e-05
380 *3082:D *244:49 4.90141e-05
381 *3084:D *244:61 2.44579e-05
382 *209:36 *2336:C 0.000495719
383 *209:36 *244:97 7.89158e-05
384 *209:36 *244:101 5.39521e-05
*RES
1 *2314:ZN *244:4 4.5 
2 *244:4 *2471:B 10.08 
3 *244:4 *2322:A2 18.99 
4 *2471:B *244:49 18.09 
5 *244:49 *244:51 1.35 
6 *244:51 *244:61 19.53 
7 *244:61 *2347:B 10.89 
8 *244:61 *244:76 7.38 
9 *244:76 *244:78 2.43 
10 *244:78 *244:82 7.11 
11 *244:82 *2362:B 9.45 
12 *244:82 *244:97 17.91 
13 *244:97 *244:101 10.62 
14 *244:101 *244:105 6.21 
15 *244:105 *2393:B 4.77 
16 *244:105 *2396:B 6.93 
17 *244:101 *2390:B 9 
18 *244:97 *244:128 0.45 
19 *244:128 *2336:C 10.35 
20 *244:128 *244:143 8.28 
21 *244:143 *2334:A1 17.19 
22 *244:143 *2330:B 4.5 
23 *244:78 *2339:A1 5.04 
24 *244:76 *2359:B 4.5 
25 *244:51 *2353:B 9 
26 *244:49 *244:186 11.88 
27 *244:186 *2356:B 5.85 
28 *244:186 *2350:B 34.29 
29 *2396:B *244:233 16.56 
30 *244:233 *244:237 8.73 
31 *244:237 *244:239 1.35 
32 *244:239 *244:241 1.53 
33 *244:241 *244:243 0.81 
34 *244:243 *244:245 2.07 
35 *244:245 *244:251 6.84 
36 *244:251 *2430:B 4.5 
37 *244:251 *2427:B 9.99 
38 *244:245 *244:269 4.5 
39 *244:269 *244:271 4.59 
40 *244:271 *244:277 10.53 
41 *244:277 *2454:B 7.11 
42 *244:277 *2448:B 4.5 
43 *244:271 *2451:B 4.5 
44 *244:269 *2445:B 5.13 
45 *244:243 *2405:B 11.07 
46 *244:241 *2402:B 10.53 
47 *244:239 *2457:B 11.07 
48 *244:237 *244:332 6.21 
49 *244:332 *2442:B 4.5 
50 *244:332 *244:339 4.77 
51 *244:339 *244:345 6.3 
52 *244:345 *2439:B 9 
53 *244:345 *244:370 25.47 
54 *244:370 *244:376 8.1 
55 *244:376 *2424:B 5.85 
56 *244:376 *244:387 8.01 
57 *244:387 *2436:B 10.89 
58 *244:387 *244:398 4.5 
59 *244:398 *2421:B 4.5 
60 *244:398 *2412:B 10.89 
61 *244:370 *244:422 4.77 
62 *244:422 *2418:B 4.5 
63 *244:422 *2415:B 9.54 
64 *244:339 *2433:B 4.77 
65 *244:233 *2399:B 7.92 
66 *2412:B *244:463 7.11 
67 *244:463 *2407:B 4.5 
68 *244:463 *244:480 17.82 
69 *244:480 *2409:B 4.5 
70 *244:480 *244:489 6.03 
71 *244:489 *244:491 2.97 
72 *244:491 *2460:B 10.8 
73 *244:491 *2469:B 9 
74 *244:489 *244:513 6.21 
75 *244:513 *2463:B 17.1 
76 *244:513 *2466:B 5.31 
*END

*D_NET *245 0.00709353
*CONN
*I *2319:A1 I *D gf180mcu_fd_sc_mcu7t5v0__nor2_1
*I *2817:A1 I *D gf180mcu_fd_sc_mcu7t5v0__nor2_1
*I *2316:ZN O *D gf180mcu_fd_sc_mcu7t5v0__nand2_1
*CAP
1 *2319:A1 0.000878007
2 *2817:A1 0
3 *2316:ZN 0.000473823
4 *245:12 0.00135183
5 *2319:A1 *2341:A2 0
6 *2319:A1 *2364:A2 0.000332075
7 *2319:A1 *2365:A1 6.06986e-05
8 *2319:A1 *2825:A2 0.000174981
9 *2319:A1 *2829:A2 0.000688634
10 *2319:A1 *2830:A1 0.000496776
11 *2319:A1 *3062:CLK 4.91761e-05
12 *2319:A1 *3185:I 0.00030409
13 *2319:A1 *264:25 0.000372831
14 *2319:A1 *282:23 0
15 *2319:A1 *283:14 6.31533e-05
16 *2319:A1 *599:16 0
17 *2319:A1 *756:352 5.97457e-06
18 *245:12 *2830:A1 0.000720626
19 *245:12 *2871:A1 0.000462783
20 *245:12 *2876:A2 0.000136976
21 *245:12 *3062:CLK 4.938e-05
22 *245:12 *265:10 4.39928e-05
23 *245:12 *605:39 0.000244121
24 *245:12 *605:43 2.35003e-05
25 *245:12 *850:27 0.000101881
26 *241:12 *2319:A1 5.82191e-05
*RES
1 *2316:ZN *245:12 18.18 
2 *245:12 *2817:A1 4.5 
3 *245:12 *2319:A1 31.95 
*END

*D_NET *246 0.00115552
*CONN
*I *2318:A3 I *D gf180mcu_fd_sc_mcu7t5v0__or3_1
*I *2811:A3 I *D gf180mcu_fd_sc_mcu7t5v0__or3_1
*I *2317:Z O *D gf180mcu_fd_sc_mcu7t5v0__or4_1
*CAP
1 *2318:A3 0.000112292
2 *2811:A3 9.82523e-05
3 *2317:Z 3.44897e-05
4 *246:6 0.000245034
5 *2318:A3 *2808:A2 0
6 *2318:A3 *730:39 0
7 *2811:A3 *2660:A1 8.49143e-05
8 *2811:A3 *2661:A1 0.000350019
9 *2811:A3 *2808:A2 0
10 *2811:A3 *780:13 6.58213e-05
11 *2318:A2 *2318:A3 0.000148576
12 *2318:A2 *2811:A3 1.61174e-05
*RES
1 *2317:Z *246:6 4.77 
2 *246:6 *2811:A3 5.85 
3 *246:6 *2318:A3 5.49 
*END

*D_NET *247 0.0296335
*CONN
*I *2803:A3 I *D gf180mcu_fd_sc_mcu7t5v0__nor3_1
*I *2887:B I *D gf180mcu_fd_sc_mcu7t5v0__oai21_1
*I *2319:A2 I *D gf180mcu_fd_sc_mcu7t5v0__nor2_1
*I *2365:A1 I *D gf180mcu_fd_sc_mcu7t5v0__nor2_1
*I *2821:A3 I *D gf180mcu_fd_sc_mcu7t5v0__nor3_1
*I *2341:A1 I *D gf180mcu_fd_sc_mcu7t5v0__nor2_1
*I *2318:Z O *D gf180mcu_fd_sc_mcu7t5v0__or3_1
*CAP
1 *2803:A3 0.000124191
2 *2887:B 2.58077e-05
3 *2319:A2 0
4 *2365:A1 0.000150042
5 *2821:A3 6.15354e-05
6 *2341:A1 0.000138688
7 *2318:Z 0.0017932
8 *247:80 0.00453588
9 *247:67 0.00455416
10 *247:54 0.00103872
11 *247:37 0.00112703
12 *247:24 0.00227698
13 *2341:A1 *2871:A1 4.09043e-05
14 *2341:A1 *743:47 0.000775224
15 *2341:A1 *753:27 8.03845e-05
16 *2341:A1 *850:12 0.000730576
17 *2365:A1 *2364:A2 3.77846e-05
18 *2365:A1 *2833:A1 0
19 *2365:A1 *282:23 0.00022972
20 *2803:A3 *2320:A1 0.00081331
21 *2803:A3 *2804:A1 0.00118092
22 *2803:A3 *770:30 0.00081331
23 *2803:A3 *924:10 0.00115186
24 *2821:A3 *2871:A2 4.31832e-06
25 *2821:A3 *595:28 1.66379e-06
26 *2887:B *2804:A1 5.54143e-05
27 *2887:B *2887:A1 0.000164219
28 *2887:B *924:10 0.000219633
29 *247:24 *2317:A4 0.000183652
30 *247:24 *2807:A1 5.54944e-05
31 *247:24 *2807:A4 0.000177559
32 *247:24 *2871:A1 7.64901e-05
33 *247:24 *2892:A2 4.02724e-05
34 *247:24 *2893:B 0.000189063
35 *247:24 *2894:A2 0.000502066
36 *247:24 *2899:A2 1.27836e-05
37 *247:24 *2900:A3 3.70912e-05
38 *247:24 *2911:A1 0
39 *247:24 *2913:A1 9.30128e-05
40 *247:24 *2913:A2 0.000133792
41 *247:24 *2913:A3 1.23607e-05
42 *247:24 *591:30 0
43 *247:24 *750:10 1.19491e-05
44 *247:24 *756:364 0.000142195
45 *247:24 *756:370 0.000760031
46 *247:24 *756:380 0.000247152
47 *247:24 *824:6 0.000338163
48 *247:24 *850:12 0.000266407
49 *247:37 *2810:A3 0.000127858
50 *247:37 *595:14 0.000299402
51 *247:37 *595:20 0.000339608
52 *247:37 *605:20 0.000902918
53 *247:54 *2364:A1 0
54 *247:54 *2833:A1 0
55 *247:54 *2872:B2 0.000351203
56 *247:54 *282:23 1.4496e-05
57 *247:54 *595:20 0.000137849
58 *247:54 *605:20 0.000144351
59 *247:54 *743:62 9.61049e-05
60 *247:67 *2364:A1 0.000104427
61 *247:67 *2872:B2 0
62 *247:80 *2812:I 0
63 *247:80 *2864:A1 0.000718704
64 *247:80 *2872:B2 0
65 *247:80 *502:111 0
66 *247:80 *702:66 0
67 *2319:A1 *2365:A1 6.06986e-05
68 *3048:D *247:54 0.000319294
69 *3065:D *247:24 3.22849e-05
70 *209:20 *247:24 0.000579303
*RES
1 *2318:Z *247:24 26.73 
2 *247:24 *2341:A1 11.79 
3 *247:24 *247:37 8.55 
4 *247:37 *2821:A3 13.77 
5 *247:37 *247:54 10.8 
6 *247:54 *2365:A1 10.53 
7 *247:54 *247:67 5.67 
8 *247:67 *2319:A2 13.5 
9 *247:67 *247:80 28.71 
10 *247:80 *2887:B 9.63 
11 *247:80 *2803:A3 14.4 
*END

*D_NET *248 0.0219887
*CONN
*I *2830:A2 I *D gf180mcu_fd_sc_mcu7t5v0__aoi22_1
*I *2845:A2 I *D gf180mcu_fd_sc_mcu7t5v0__aoi22_1
*I *2875:A2 I *D gf180mcu_fd_sc_mcu7t5v0__aoi22_1
*I *2870:A2 I *D gf180mcu_fd_sc_mcu7t5v0__aoi221_1
*I *2325:A1 I *D gf180mcu_fd_sc_mcu7t5v0__and2_1
*I *2326:A1 I *D gf180mcu_fd_sc_mcu7t5v0__nand2_1
*I *2822:A2 I *D gf180mcu_fd_sc_mcu7t5v0__aoi22_1
*I *2861:A2 I *D gf180mcu_fd_sc_mcu7t5v0__aoi22_1
*I *2854:A2 I *D gf180mcu_fd_sc_mcu7t5v0__aoi221_1
*I *2837:A2 I *D gf180mcu_fd_sc_mcu7t5v0__aoi22_1
*I *2319:ZN O *D gf180mcu_fd_sc_mcu7t5v0__nor2_1
*CAP
1 *2830:A2 0.00143521
2 *2845:A2 0.000357017
3 *2875:A2 3.86649e-05
4 *2870:A2 0.000122033
5 *2325:A1 0.000137245
6 *2326:A1 1.67088e-05
7 *2822:A2 4.60158e-05
8 *2861:A2 0
9 *2854:A2 0.000112973
10 *2837:A2 6.69623e-06
11 *2319:ZN 0.000184462
12 *248:88 0.000160698
13 *248:66 0.000296689
14 *248:55 0.000258218
15 *248:46 0.000265055
16 *248:40 0.000903977
17 *248:25 0.00101608
18 *248:12 0.000669891
19 *248:10 0.00119933
20 *248:8 0.00199352
21 *2325:A1 *2325:A2 0.000352049
22 *2325:A1 *2877:A1 2.36954e-05
23 *2325:A1 *2877:A2 2.0458e-05
24 *2325:A1 *253:30 9.39061e-05
25 *2325:A1 *255:8 1.51153e-05
26 *2325:A1 *605:47 0.000127778
27 *2326:A1 *2325:A2 9.85004e-05
28 *2326:A1 *2837:A1 1.27919e-05
29 *2326:A1 *255:8 1.0415e-05
30 *2822:A2 *2822:B1 2.14748e-05
31 *2822:A2 *2823:C 0.000183652
32 *2822:A2 *750:60 0.000507492
33 *2830:A2 *2830:A1 9.8755e-05
34 *2830:A2 *3185:I 8.49208e-05
35 *2830:A2 *600:16 8.67164e-05
36 *2837:A2 *2823:C 2.14748e-05
37 *2837:A2 *2839:B 3.55118e-05
38 *2837:A2 *605:75 9.84908e-05
39 *2845:A2 *253:16 3.53824e-05
40 *2845:A2 *284:14 0.000179209
41 *2845:A2 *751:45 0
42 *2854:A2 *2820:A1 0.000283714
43 *2854:A2 *2820:B2 7.84068e-05
44 *2854:A2 *2823:B 9.19699e-05
45 *2854:A2 *2854:C 3.93916e-05
46 *2854:A2 *283:33 4.37987e-05
47 *2870:A2 *2860:A2 0.000536348
48 *2870:A2 *2870:B1 3.42509e-05
49 *2870:A2 *2871:A2 0.00085369
50 *2870:A2 *601:16 0.000156902
51 *2875:A2 *2875:A1 3.12451e-05
52 *2875:A2 *750:60 1.39839e-05
53 *248:8 *2364:A1 0.000129885
54 *248:8 *2824:A1 4.78068e-05
55 *248:8 *2833:A1 0.000379025
56 *248:8 *3077:CLK 0
57 *248:8 *283:14 0.000385973
58 *248:8 *702:81 0
59 *248:10 *2364:A1 3.42783e-05
60 *248:10 *2853:A1 0
61 *248:10 *2853:B1 2.86926e-05
62 *248:10 *2853:B2 0
63 *248:10 *282:10 0
64 *248:10 *283:14 0.00127453
65 *248:12 *2824:B2 1.41416e-05
66 *248:12 *2853:A1 0
67 *248:12 *283:14 0.000167298
68 *248:12 *283:33 0.000319267
69 *248:12 *605:81 0.00017749
70 *248:25 *2823:B 0.000322986
71 *248:25 *2824:B2 6.84426e-06
72 *248:25 *2854:C 6.53099e-05
73 *248:25 *2855:A2 1.54019e-05
74 *248:25 *283:33 7.13936e-05
75 *248:40 *2854:A1 0.00298074
76 *248:40 *750:60 0.000134014
77 *248:46 *2854:A1 0.00058217
78 *248:46 *2877:A1 3.61578e-05
79 *248:55 *2877:A1 0.000101406
80 *248:66 *2822:B1 0.00023968
81 *248:66 *2877:A1 0.000414132
82 *248:66 *605:47 0.000568134
*RES
1 *2319:ZN *248:8 11.25 
2 *248:8 *248:10 3.51 
3 *248:10 *248:12 4.41 
4 *248:12 *2837:A2 9.27 
5 *248:12 *248:25 1.98 
6 *248:25 *2854:A2 10.44 
7 *248:25 *248:40 12.33 
8 *248:40 *248:46 6.3 
9 *248:46 *2861:A2 9 
10 *248:46 *248:55 0.63 
11 *248:55 *2822:A2 10.35 
12 *248:55 *248:66 2.61 
13 *248:66 *2326:A1 9.27 
14 *248:66 *2325:A1 10.62 
15 *248:40 *248:88 4.5 
16 *248:88 *2870:A2 11.43 
17 *248:88 *2875:A2 9.27 
18 *248:10 *2845:A2 20.07 
19 *248:8 *2830:A2 24.39 
*END

*D_NET *249 0.0125014
*CONN
*I *2885:A2 I *D gf180mcu_fd_sc_mcu7t5v0__nand2_1
*I *2321:A2 I *D gf180mcu_fd_sc_mcu7t5v0__nor2_1
*I *2888:A2 I *D gf180mcu_fd_sc_mcu7t5v0__aoi22_1
*I *2320:ZN O *D gf180mcu_fd_sc_mcu7t5v0__nand2_1
*CAP
1 *2885:A2 5.53709e-05
2 *2321:A2 0.000464313
3 *2888:A2 0.000136999
4 *2320:ZN 0.000958166
5 *249:27 0.000789604
6 *249:10 0.00136509
7 *2321:A2 *2812:I 1.75376e-05
8 *2321:A2 *2872:A1 0.000185705
9 *2321:A2 *2883:A3 0
10 *2321:A2 *2884:A3 0
11 *2321:A2 *250:12 9.20679e-05
12 *2321:A2 *253:16 0.000171735
13 *2321:A2 *502:84 0.000573172
14 *2321:A2 *599:18 0.00212396
15 *2321:A2 *756:116 4.99985e-05
16 *2321:A2 *759:36 6.23828e-05
17 *2321:A2 *778:392 0.000107798
18 *2885:A2 *2872:A1 2.65444e-06
19 *2885:A2 *2874:A1 0.000213967
20 *2885:A2 *252:30 9.34521e-05
21 *2888:A2 *2889:A2 7.54325e-05
22 *249:10 *2889:A2 5.18457e-05
23 *249:10 *3162:I 0.0005023
24 *249:10 *3223:I 6.63348e-05
25 *249:10 *252:16 0.000267813
26 *249:10 *760:14 0.000881653
27 *249:10 *770:17 0.000459031
28 *249:10 *924:10 0.000249014
29 *249:27 *2806:A1 0
30 *249:27 *2872:A1 0.000681736
31 *249:27 *2874:A1 7.12242e-07
32 *249:27 *2885:A1 0.000167534
33 *249:27 *588:18 1.90868e-05
34 *249:27 *759:26 0.00149678
35 *249:27 *759:36 1.73761e-05
36 DAT_O[7] *249:10 5.19612e-05
37 *3202:I *249:10 0
38 *3211:I *249:10 4.88208e-05
*RES
1 *2320:ZN *249:10 18.9 
2 *249:10 *2888:A2 9.81 
3 *249:10 *249:27 13.5 
4 *249:27 *2321:A2 17.1 
5 *249:27 *2885:A2 9.72 
*END

*D_NET *250 0.0176572
*CONN
*I *2805:A1 I *D gf180mcu_fd_sc_mcu7t5v0__nand2_1
*I *2376:B I *D gf180mcu_fd_sc_mcu7t5v0__aoi21_1
*I *2382:B2 I *D gf180mcu_fd_sc_mcu7t5v0__oai221_1
*I *2321:ZN O *D gf180mcu_fd_sc_mcu7t5v0__nor2_1
*CAP
1 *2805:A1 0.00114033
2 *2376:B 4.26651e-05
3 *2382:B2 0.000208064
4 *2321:ZN 0.000799698
5 *250:18 0.0024519
6 *250:12 0.0041412
7 *2376:B *2346:A1 0.000183652
8 *2376:B *2376:A1 0.000436469
9 *2382:B2 *2839:A2 0.000196197
10 *2382:B2 *286:10 0
11 *2805:A1 *2857:A2 0
12 *2805:A1 *2882:A2 9.58064e-05
13 *2805:A1 *3221:I 0
14 *2805:A1 *3222:I 0.000125038
15 *250:12 *253:16 0.000250372
16 *250:12 *756:116 3.33082e-05
17 *250:18 *2367:I0 0.000370036
18 *250:18 *2820:A1 0.00165931
19 *250:18 *2823:A1 0.000583199
20 *250:18 *2838:B1 1.93892e-05
21 *250:18 *2839:A2 0.000209401
22 *250:18 *2855:A2 1.82629e-05
23 *250:18 *3078:CLK 0
24 *250:18 *3171:I 0.000178736
25 *250:18 *253:16 0.000607675
26 *250:18 *253:22 8.68398e-06
27 *250:18 *283:27 7.5807e-05
28 *250:18 *686:10 7.94868e-06
29 *250:18 *716:10 0.00144531
30 *250:18 *751:45 0.000636442
31 *250:18 *759:42 0.000533419
32 *250:18 *759:44 0.000333274
33 DAT_O[6] *2805:A1 0.000442919
34 *2321:A2 *250:12 9.20679e-05
35 *3054:D *2805:A1 0
36 *3080:D *250:18 0.000330635
*RES
1 *2321:ZN *250:12 18.72 
2 *250:12 *250:18 27.54 
3 *250:18 *2382:B2 10.35 
4 *250:18 *2376:B 10.17 
5 *250:12 *2805:A1 20.79 
*END

*D_NET *251 0.0300371
*CONN
*I *2323:A3 I *D gf180mcu_fd_sc_mcu7t5v0__nor3_1
*I *2345:A1 I *D gf180mcu_fd_sc_mcu7t5v0__nand2_1
*I *2381:A1 I *D gf180mcu_fd_sc_mcu7t5v0__nand2_1
*I *2322:ZN O *D gf180mcu_fd_sc_mcu7t5v0__nand3_1
*CAP
1 *2323:A3 0.000978225
2 *2345:A1 0
3 *2381:A1 0.000170868
4 *2322:ZN 0.000140188
5 *251:34 0.000197554
6 *251:30 0.00312233
7 *251:12 0.00421405
8 *2323:A3 *2320:A1 0.00340056
9 *2323:A3 *2320:A2 0.000117194
10 *2323:A3 *2323:A2 0.000945714
11 *2323:A3 *2804:A2 0.000137171
12 *2323:A3 *2867:C2 4.01448e-05
13 *2323:A3 *3224:I 2.95194e-05
14 *2323:A3 *252:16 0.000360077
15 *2323:A3 *756:104 0.000114409
16 *2323:A3 *760:23 0.000682935
17 *2323:A3 *770:17 2.04721e-05
18 *2323:A3 *770:30 0.00113108
19 *2323:A3 *924:16 0.000164466
20 *2381:A1 *2345:A2 0.000285137
21 *2381:A1 *2346:A2 5.28827e-05
22 *2381:A1 *2496:C 2.78423e-05
23 *2381:A1 *2847:A2 2.72817e-05
24 *2381:A1 *371:22 9.20698e-05
25 *2381:A1 *372:24 2.78496e-05
26 *2381:A1 *372:60 1.15806e-05
27 *2381:A1 *689:24 0
28 *251:12 *2301:I 0.000229573
29 *251:12 *2322:A1 0.000406719
30 *251:12 *2503:A1 6.01042e-05
31 *251:12 *2508:B 1.23447e-05
32 *251:30 *2348:A2 0.000591253
33 *251:30 *2353:A2 2.16833e-05
34 *251:30 *2354:A1 0.000226782
35 *251:30 *2370:I1 0.000334499
36 *251:30 *2371:I1 0.000107591
37 *251:30 *2496:C 0.000500384
38 *251:30 *2510:A2 0
39 *251:30 *2510:B 3.30181e-05
40 *251:30 *2765:A1 0.000336846
41 *251:30 *2840:B2 0
42 *251:30 *2847:A2 0
43 *251:30 *2880:A1 3.9928e-05
44 *251:30 *2881:A2 0.000219008
45 *251:30 *2882:B 0.000406329
46 *251:30 *3083:CLK 0.000101624
47 *251:30 *3089:I 0.000129923
48 *251:30 *3107:I 0.000195939
49 *251:30 *3140:I 0
50 *251:30 *3143:I 1.20673e-05
51 *251:30 *3186:I 4.45215e-05
52 *251:30 *3214:I 6.28197e-05
53 *251:30 *284:16 0.00134534
54 *251:30 *284:22 0.00129182
55 *251:30 *656:14 0.000286158
56 *251:30 *688:12 0.000289427
57 *251:30 *688:14 0.000716201
58 *251:30 *689:24 0.000762346
59 *251:30 *706:10 0
60 *251:30 *706:61 0.000102839
61 *251:30 *706:65 0.000147107
62 *251:30 *756:104 0.000541991
63 *251:30 *756:294 0.000339721
64 *251:30 *756:313 3.02812e-05
65 *251:30 *783:16 0.000205859
66 *251:30 *783:80 0.000546356
67 *251:30 *783:92 0
68 *251:30 *926:16 0.000478024
69 *251:30 *941:6 0.000101318
70 *251:34 *2496:C 2.92051e-05
71 *251:34 *372:60 1.39839e-05
72 ERR_O *2323:A3 0.00183543
73 *2322:A2 *251:12 3.43442e-05
74 *2504:A1 *251:12 3.22122e-05
75 *2971:D *2323:A3 5.28867e-05
76 *2972:D *251:30 0
77 *3037:D *251:30 8.31166e-05
78 *3052:D *251:30 6.26074e-05
79 *3083:D *251:30 3.01487e-05
80 *3202:I *251:30 0
81 *3211:I *2323:A3 3.80169e-06
82 *244:186 *251:30 0.000109988
*RES
1 *2322:ZN *251:12 15.3 
2 *251:12 *251:30 46.8 
3 *251:30 *251:34 4.77 
4 *251:34 *2381:A1 15.3 
5 *251:34 *2345:A1 4.5 
6 *251:12 *2323:A3 39.78 
*END

*D_NET *252 0.0110339
*CONN
*I *2888:B1 I *D gf180mcu_fd_sc_mcu7t5v0__aoi22_1
*I *2324:A2 I *D gf180mcu_fd_sc_mcu7t5v0__and2_1
*I *2806:A1 I *D gf180mcu_fd_sc_mcu7t5v0__and2_1
*I *2323:ZN O *D gf180mcu_fd_sc_mcu7t5v0__nor3_1
*CAP
1 *2888:B1 0
2 *2324:A2 0
3 *2806:A1 0.000221059
4 *2323:ZN 0.0013256
5 *252:30 0.000623629
6 *252:16 0.00172817
7 *2806:A1 *2805:A2 0.000154638
8 *2806:A1 *2872:A1 2.10982e-05
9 *2806:A1 *2872:B2 0
10 *2806:A1 *2874:A1 0.000425761
11 *2806:A1 *759:36 1.04665e-05
12 *252:16 *2320:A2 3.81737e-05
13 *252:16 *2804:A2 0.000344002
14 *252:16 *2886:A2 0.000385048
15 *252:16 *2888:A1 0.000160103
16 *252:16 *3223:I 0.000193761
17 *252:16 *3224:I 0
18 *252:16 *760:23 0.00032821
19 *252:16 *770:30 3.28313e-05
20 *252:16 *924:10 0.000620062
21 *252:16 *925:10 0.000232503
22 *252:30 *2874:A1 2.91742e-05
23 *252:30 *2884:A1 1.50885e-05
24 *252:30 *2884:A2 0.000169515
25 *252:30 *2884:B 0.000555563
26 *252:30 *2885:A1 0.00013877
27 *252:30 *2886:A1 3.58114e-05
28 *252:30 *2886:A2 0.000795049
29 *252:30 *2888:A1 1.61174e-05
30 *252:30 *253:16 0.000161479
31 *252:30 *502:84 0
32 *252:30 *596:8 4.01779e-06
33 *2323:A3 *252:16 0.000360077
34 *2885:A2 *252:30 9.34521e-05
35 *3036:D *252:30 1.85285e-05
36 *3202:I *252:16 0.00152831
37 *3211:I *252:16 0
38 *249:10 *252:16 0.000267813
39 *249:27 *2806:A1 0
*RES
1 *2323:ZN *252:16 27.36 
2 *252:16 *252:30 13.95 
3 *252:30 *2806:A1 15.48 
4 *252:30 *2324:A2 4.5 
5 *252:16 *2888:B1 4.5 
*END

*D_NET *253 0.0248973
*CONN
*I *2884:B I *D gf180mcu_fd_sc_mcu7t5v0__oai31_1
*I *2366:A1 I *D gf180mcu_fd_sc_mcu7t5v0__and2_1
*I *2342:A1 I *D gf180mcu_fd_sc_mcu7t5v0__and2_1
*I *2343:A1 I *D gf180mcu_fd_sc_mcu7t5v0__nand2_1
*I *2326:A2 I *D gf180mcu_fd_sc_mcu7t5v0__nand2_1
*I *2325:A2 I *D gf180mcu_fd_sc_mcu7t5v0__and2_1
*I *2890:A1 I *D gf180mcu_fd_sc_mcu7t5v0__and2_1
*I *2891:A1 I *D gf180mcu_fd_sc_mcu7t5v0__nand2_1
*I *2324:Z O *D gf180mcu_fd_sc_mcu7t5v0__and2_1
*CAP
1 *2884:B 0.000362342
2 *2366:A1 9.18008e-05
3 *2342:A1 0
4 *2343:A1 2.1495e-05
5 *2326:A2 0
6 *2325:A2 0.000127707
7 *2890:A1 0.000705741
8 *2891:A1 0
9 *2324:Z 0
10 *253:30 0.000860877
11 *253:26 0.00095178
12 *253:24 0.00082192
13 *253:22 0.000404919
14 *253:16 0.00267381
15 *253:4 0.00267092
16 *2325:A2 *255:8 7.01878e-05
17 *2343:A1 *2831:A1 0.000301325
18 *2343:A1 *266:27 0.000291047
19 *2366:A1 *2845:B1 5.97457e-06
20 *2366:A1 *3077:CLK 8.49143e-05
21 *2366:A1 *266:111 9.53567e-06
22 *2366:A1 *283:21 0.000205509
23 *2884:B *2872:A1 3.356e-05
24 *2884:B *2884:A1 4.77403e-05
25 *2884:B *2885:A1 3.21834e-05
26 *2884:B *2886:A1 3.55118e-05
27 *2884:B *2886:A2 2.1446e-05
28 *2884:B *502:84 1.8336e-05
29 *2884:B *596:8 1.34588e-05
30 *2890:A1 *2810:A1 2.41996e-05
31 *2890:A1 *2829:A2 0.000102953
32 *2890:A1 *2831:B 0.000122318
33 *2890:A1 *2871:A2 3.71188e-06
34 *2890:A1 *2881:A1 6.51736e-05
35 *2890:A1 *605:43 0.000229756
36 *2890:A1 *701:8 1.90142e-05
37 *2890:A1 *758:16 0.000239704
38 *253:16 *2872:A1 3.54696e-05
39 *253:16 *284:14 0.000244161
40 *253:16 *599:18 0.00184431
41 *253:16 *751:45 1.80883e-05
42 *253:16 *759:36 0.00128046
43 *253:16 *784:158 0.000408906
44 *253:22 *2355:A2 0.000173237
45 *253:22 *2855:A2 0.000290701
46 *253:22 *3077:CLK 9.39061e-05
47 *253:22 *283:27 0.000682482
48 *253:22 *283:33 0.000735188
49 *253:22 *759:68 0.000425198
50 *253:22 *759:72 2.36813e-05
51 *253:24 *2342:A2 0.000100101
52 *253:24 *2355:A2 2.94719e-05
53 *253:24 *2837:A1 3.92172e-06
54 *253:24 *759:72 0.000204502
55 *253:26 *2342:A2 9.3226e-06
56 *253:26 *2349:A2 0.000225332
57 *253:26 *2837:A1 0.00013768
58 *253:26 *3075:CLK 0.000617399
59 *253:26 *3081:CLK 0.00034797
60 *253:26 *267:6 0.000243871
61 *253:30 *2831:B 4.05659e-05
62 *253:30 *2871:A2 2.13441e-06
63 *253:30 *2877:A1 0.000818888
64 *253:30 *2881:A1 0.000234541
65 *253:30 *605:45 0.000160708
66 *253:30 *605:47 0.000214337
67 *2316:A2 *2890:A1 0.00124455
68 *2321:A2 *253:16 0.000171735
69 *2325:A1 *2325:A2 0.000352049
70 *2325:A1 *253:30 9.39061e-05
71 *2326:A1 *2325:A2 9.85004e-05
72 *2845:A2 *253:16 3.53824e-05
73 *250:12 *253:16 0.000250372
74 *250:18 *253:16 0.000607675
75 *250:18 *253:22 8.68398e-06
76 *252:30 *2884:B 0.000555563
77 *252:30 *253:16 0.000161479
*RES
1 *2324:Z *253:4 4.5 
2 *253:4 *253:16 34.65 
3 *253:16 *253:22 9.72 
4 *253:22 *253:24 1.53 
5 *253:24 *253:26 6.03 
6 *253:26 *253:30 7.47 
7 *253:30 *2891:A1 9 
8 *253:30 *2890:A1 24.84 
9 *253:26 *2325:A2 5.94 
10 *253:26 *2326:A2 4.5 
11 *253:24 *2343:A1 14.31 
12 *253:22 *2342:A1 4.5 
13 *253:16 *2366:A1 9.9 
14 *253:4 *2884:B 16.47 
*END

*D_NET *254 0.0104684
*CONN
*I *2333:A2 I *D gf180mcu_fd_sc_mcu7t5v0__nand2_1
*I *2338:A2 I *D gf180mcu_fd_sc_mcu7t5v0__nand2_1
*I *2330:A2 I *D gf180mcu_fd_sc_mcu7t5v0__oai21_1
*I *2915:A2 I *D gf180mcu_fd_sc_mcu7t5v0__nor2_1
*I *2921:A2 I *D gf180mcu_fd_sc_mcu7t5v0__nor2_1
*I *2328:A2 I *D gf180mcu_fd_sc_mcu7t5v0__oai21_1
*I *2918:A2 I *D gf180mcu_fd_sc_mcu7t5v0__nor2_1
*I *2327:A2 I *D gf180mcu_fd_sc_mcu7t5v0__aoi21_1
*I *2325:Z O *D gf180mcu_fd_sc_mcu7t5v0__and2_1
*CAP
1 *2333:A2 0.000122361
2 *2338:A2 0
3 *2330:A2 0
4 *2915:A2 7.34755e-05
5 *2921:A2 0.00039792
6 *2328:A2 0
7 *2918:A2 0
8 *2327:A2 8.6665e-05
9 *2325:Z 2.75874e-05
10 *254:68 0.000194512
11 *254:60 0.000338277
12 *254:43 0.000706645
13 *254:39 0.000529465
14 *254:10 0.000208022
15 *254:8 0.000216008
16 *254:6 0.000437858
17 *2327:A2 *2328:B 1.19491e-05
18 *2327:A2 *2837:A1 0.000177559
19 *2327:A2 *2876:A1 0.000122626
20 *2327:A2 *2919:A3 2.31089e-05
21 *2327:A2 *750:29 2.54638e-05
22 *2327:A2 *853:14 0.000299724
23 *2333:A2 *2333:A1 0.000155486
24 *2333:A2 *2861:A1 6.60809e-05
25 *2333:A2 *2875:A1 0.000145204
26 *2333:A2 *859:10 3.22348e-05
27 *2915:A2 *2600:A2 0.000121817
28 *2915:A2 *744:37 0.000345225
29 *2921:A2 *2592:A2 0.000136121
30 *2921:A2 *2922:A3 0
31 *2921:A2 *750:60 3.88477e-05
32 *2921:A2 *859:10 0.000161479
33 *254:6 *2837:A1 0.000466636
34 *254:6 *255:8 0.000496785
35 *254:8 *2837:A1 0.000634302
36 *254:8 *2876:A1 0
37 *254:8 *255:8 0.000346693
38 *254:10 *2328:B 3.45088e-05
39 *254:10 *2837:A1 0.000449491
40 *254:10 *2876:A1 0
41 *254:39 *2861:A1 3.10415e-05
42 *254:39 *3071:CLK 4.34691e-05
43 *254:39 *753:27 0.000167724
44 *254:39 *857:10 0.000254698
45 *254:43 *2334:A2 5.97457e-06
46 *254:43 *2875:A1 0
47 *254:43 *750:60 2.40933e-06
48 *254:43 *859:10 0.000264282
49 *254:60 *2337:A1 0.000135666
50 *254:60 *2339:A2 0.000164228
51 *254:60 *2870:A1 2.93938e-05
52 *254:60 *3071:CLK 5.38632e-05
53 *254:60 *752:61 9.04462e-05
54 *254:60 *859:10 6.98034e-05
55 *254:68 *2331:A2 4.34691e-05
56 *254:68 *2339:A2 0.000455757
57 *254:68 *2870:A1 3.12451e-05
58 *254:68 *714:10 0
59 *254:68 *752:61 9.04462e-05
60 *254:68 *755:35 6.10887e-05
61 *2334:A1 *254:39 0
62 *2334:A1 *254:60 5.05894e-05
63 *2334:A1 *254:68 0.000445488
64 *3068:D *2921:A2 0
65 *3069:D *254:8 0.000109541
66 *3069:D *254:10 1.0415e-05
67 *3071:D *2333:A2 3.54696e-05
68 *3071:D *254:39 0.000159362
69 *3071:D *254:43 3.23768e-05
*RES
1 *2325:Z *254:6 5.85 
2 *254:6 *254:8 1.89 
3 *254:8 *254:10 1.35 
4 *254:10 *2327:A2 15.12 
5 *254:10 *2918:A2 4.5 
6 *254:8 *2328:A2 4.5 
7 *254:6 *254:39 12.51 
8 *254:39 *254:43 1.08 
9 *254:43 *2921:A2 7.2 
10 *254:43 *254:60 11.34 
11 *254:60 *254:68 11.16 
12 *254:68 *2915:A2 5.49 
13 *254:68 *2330:A2 4.5 
14 *254:60 *2338:A2 4.5 
15 *254:39 *2333:A2 6.03 
*END

*D_NET *255 0.0119145
*CONN
*I *2917:A2 I *D gf180mcu_fd_sc_mcu7t5v0__nor2_1
*I *2332:A2 I *D gf180mcu_fd_sc_mcu7t5v0__nand2_1
*I *2337:A2 I *D gf180mcu_fd_sc_mcu7t5v0__nand2_1
*I *2335:A2 I *D gf180mcu_fd_sc_mcu7t5v0__nand2_1
*I *2914:A2 I *D gf180mcu_fd_sc_mcu7t5v0__nor2_1
*I *2336:A2 I *D gf180mcu_fd_sc_mcu7t5v0__oai211_1
*I *2329:A2 I *D gf180mcu_fd_sc_mcu7t5v0__nor2_1
*I *2920:A2 I *D gf180mcu_fd_sc_mcu7t5v0__nor2_1
*I *2326:ZN O *D gf180mcu_fd_sc_mcu7t5v0__nand2_1
*CAP
1 *2917:A2 0.000648648
2 *2332:A2 0
3 *2337:A2 0.000210759
4 *2335:A2 0
5 *2914:A2 0
6 *2336:A2 0
7 *2329:A2 0.000217895
8 *2920:A2 5.16165e-05
9 *2326:ZN 0.000371898
10 *255:43 0.000268696
11 *255:39 0.000131876
12 *255:37 0.000387837
13 *255:27 0.000706847
14 *255:14 0.000356236
15 *255:12 0.000338304
16 *255:8 0.00124356
17 *2329:A2 *2329:A1 0.000118113
18 *2329:A2 *2916:A3 9.2472e-05
19 *2329:A2 *714:51 0.000678907
20 *2329:A2 *744:37 3.0673e-05
21 *2337:A2 *2592:A2 8.35604e-05
22 *2337:A2 *2822:A1 1.56137e-05
23 *2337:A2 *752:61 1.92961e-05
24 *2337:A2 *846:23 4.04767e-05
25 *2917:A2 *2327:B 6.95119e-05
26 *2917:A2 *2328:B 0
27 *2917:A2 *2876:A1 0.000101917
28 *2917:A2 *749:28 3.12451e-05
29 *2917:A2 *749:39 0.000492242
30 *2917:A2 *753:27 0
31 *2917:A2 *755:29 0.000155681
32 *2917:A2 *857:10 0.000248974
33 *2920:A2 *857:31 0.000284981
34 *255:8 *2837:A1 0.000250137
35 *255:8 *2876:A1 0
36 *255:8 *857:10 0
37 *255:12 *2822:A1 3.67526e-05
38 *255:12 *755:29 0.000122029
39 *255:12 *857:10 0.00038157
40 *255:14 *2822:A1 9.05569e-05
41 *255:14 *2822:B2 8.68926e-06
42 *255:14 *857:25 0.000106536
43 *255:14 *857:31 0.000446317
44 *255:27 *2869:A1 0.000130857
45 *255:27 *2876:A1 0.000235614
46 *255:27 *752:36 0.000438611
47 *255:37 *2592:A2 6.931e-05
48 *255:37 *2876:A1 0.000146193
49 *255:37 *846:23 6.76969e-05
50 *255:39 *2336:B 0.000145765
51 *255:39 *2876:A1 0.000118567
52 *255:43 *2336:B 0.000453197
53 *255:43 *2876:A1 0.000130994
54 *2325:A1 *255:8 1.51153e-05
55 *2325:A2 *255:8 7.01878e-05
56 *2326:A1 *255:8 1.0415e-05
57 *3072:D *2329:A2 0
58 *209:26 *255:37 3.94217e-05
59 *209:26 *255:39 1.09026e-05
60 *240:14 *2920:A2 0.000109559
61 *240:14 *255:14 3.81872e-05
62 *254:6 *255:8 0.000496785
63 *254:8 *255:8 0.000346693
*RES
1 *2326:ZN *255:8 12.87 
2 *255:8 *255:12 6.93 
3 *255:12 *255:14 1.53 
4 *255:14 *2920:A2 5.31 
5 *255:14 *255:27 11.61 
6 *255:27 *255:37 7.38 
7 *255:37 *255:39 0.99 
8 *255:39 *255:43 5.67 
9 *255:43 *2329:A2 7.38 
10 *255:43 *2336:A2 4.5 
11 *255:39 *2914:A2 9 
12 *255:37 *2335:A2 9 
13 *255:27 *2337:A2 5.85 
14 *255:12 *2332:A2 4.5 
15 *255:8 *2917:A2 15.12 
*END

*D_NET *256 0.000969749
*CONN
*I *2328:B I *D gf180mcu_fd_sc_mcu7t5v0__oai21_1
*I *2327:ZN O *D gf180mcu_fd_sc_mcu7t5v0__aoi21_1
*CAP
1 *2328:B 0.000375445
2 *2327:ZN 0.000375445
3 *2328:B *2327:B 2.0219e-05
4 *2328:B *2876:A1 3.64152e-05
5 *2328:B *2919:A3 0.000115767
6 *2327:A2 *2328:B 1.19491e-05
7 *2917:A2 *2328:B 0
8 *3067:D *2328:B 0
9 *254:10 *2328:B 3.45088e-05
*RES
1 *2327:ZN *2328:B 11.97 
*END

*D_NET *257 0.0011164
*CONN
*I *2331:A1 I *D gf180mcu_fd_sc_mcu7t5v0__nor2_1
*I *2329:ZN O *D gf180mcu_fd_sc_mcu7t5v0__nor2_1
*CAP
1 *2331:A1 0.000313754
2 *2329:ZN 0.000313754
3 *2331:A1 *266:75 0.000102422
4 *2331:A1 *714:51 0.000273004
5 *2331:A1 *744:37 9.22107e-05
6 *3070:D *2331:A1 2.12536e-05
*RES
1 *2329:ZN *2331:A1 12.69 
*END

*D_NET *258 0.000980868
*CONN
*I *2331:A2 I *D gf180mcu_fd_sc_mcu7t5v0__nor2_1
*I *2330:ZN O *D gf180mcu_fd_sc_mcu7t5v0__oai21_1
*CAP
1 *2331:A2 0.000306566
2 *2330:ZN 0.000306566
3 *2331:A2 *266:75 7.84068e-05
4 *2331:A2 *714:10 3.56105e-05
5 *2331:A2 *714:14 1.49477e-05
6 *2331:A2 *714:51 0.000119192
7 *2331:A2 *755:35 7.61095e-05
8 *254:68 *2331:A2 4.34691e-05
*RES
1 *2330:ZN *2331:A2 20.7 
*END

*D_NET *259 0.000207649
*CONN
*I *2334:A2 I *D gf180mcu_fd_sc_mcu7t5v0__nand3_1
*I *2332:ZN O *D gf180mcu_fd_sc_mcu7t5v0__nand2_1
*CAP
1 *2334:A2 0.000100837
2 *2332:ZN 0.000100837
3 *254:43 *2334:A2 5.97457e-06
*RES
1 *2332:ZN *2334:A2 9.81 
*END

*D_NET *260 0.00129769
*CONN
*I *2334:A3 I *D gf180mcu_fd_sc_mcu7t5v0__nand3_1
*I *2333:ZN O *D gf180mcu_fd_sc_mcu7t5v0__nand2_1
*CAP
1 *2334:A3 0.000224172
2 *2333:ZN 0.000224172
3 *2334:A3 *2870:A1 2.67052e-05
4 *2334:A3 *2875:A1 0.000388845
5 *2334:A3 *752:61 0
6 *2334:A3 *859:10 0.000433797
*RES
1 *2333:ZN *2334:A3 11.25 
*END

*D_NET *261 0.00137494
*CONN
*I *2336:B I *D gf180mcu_fd_sc_mcu7t5v0__oai211_1
*I *2335:ZN O *D gf180mcu_fd_sc_mcu7t5v0__nand2_1
*CAP
1 *2336:B 7.78163e-05
2 *2335:ZN 7.78163e-05
3 *2336:B *2876:A1 5.05815e-05
4 *209:26 *2336:B 0.000460439
5 *209:36 *2336:B 0.000109323
6 *255:39 *2336:B 0.000145765
7 *255:43 *2336:B 0.000453197
*RES
1 *2335:ZN *2336:B 20.07 
*END

*D_NET *262 0.00491762
*CONN
*I *2339:A2 I *D gf180mcu_fd_sc_mcu7t5v0__nand3_1
*I *2337:ZN O *D gf180mcu_fd_sc_mcu7t5v0__nand2_1
*CAP
1 *2339:A2 0.000600516
2 *2337:ZN 0.000600516
3 *2339:A2 *2339:A3 0.00133267
4 *2339:A2 *2600:A2 1.61174e-05
5 *2339:A2 *3071:CLK 0
6 *2339:A2 *714:8 0.00088562
7 *2339:A2 *714:10 0
8 *2339:A2 *856:12 0.000435427
9 *2334:A1 *2339:A2 5.79557e-05
10 *3073:D *2339:A2 0.00036881
11 *254:60 *2339:A2 0.000164228
12 *254:68 *2339:A2 0.000455757
*RES
1 *2337:ZN *2339:A2 26.82 
*END

*D_NET *263 0.00407626
*CONN
*I *2339:A3 I *D gf180mcu_fd_sc_mcu7t5v0__nand3_1
*I *2338:ZN O *D gf180mcu_fd_sc_mcu7t5v0__nand2_1
*CAP
1 *2339:A3 0.000738549
2 *2338:ZN 0.000738549
3 *2339:A3 *2870:A1 0.000638833
4 *2339:A3 *3116:I 7.20436e-05
5 *2339:A3 *284:34 8.08569e-05
6 *2339:A3 *694:169 0
7 *2339:A3 *714:8 0.000359563
8 *2339:A3 *752:61 0.00011053
9 *2339:A1 *2339:A3 4.6613e-06
10 *2339:A2 *2339:A3 0.00133267
*RES
1 *2338:ZN *2339:A3 17.28 
*END

*D_NET *264 0.00749095
*CONN
*I *2810:A1 I *D gf180mcu_fd_sc_mcu7t5v0__nor3_1
*I *2341:A2 I *D gf180mcu_fd_sc_mcu7t5v0__nor2_1
*I *2816:A1 I *D gf180mcu_fd_sc_mcu7t5v0__nor2_1
*I *2340:Z O *D gf180mcu_fd_sc_mcu7t5v0__or2_1
*CAP
1 *2810:A1 0.000313324
2 *2341:A2 0.000198984
3 *2816:A1 0.000124553
4 *2340:Z 0.000184253
5 *264:25 0.000604685
6 *264:12 0.000401182
7 *2341:A2 *2829:A2 2.36914e-05
8 *2341:A2 *2830:A1 0.000799748
9 *2341:A2 *2908:A3 1.38253e-05
10 *2341:A2 *850:27 7.59101e-05
11 *2810:A1 *2279:I 1.33545e-05
12 *2810:A1 *2809:A2 0.000200128
13 *2810:A1 *2810:A3 0.000144873
14 *2810:A1 *2829:A2 0.000200115
15 *2810:A1 *2871:A1 9.85004e-05
16 *2810:A1 *2871:A2 0.000320165
17 *2810:A1 *3233:I 1.07374e-05
18 *2810:A1 *591:30 2.36914e-05
19 *2810:A1 *701:8 0
20 *2816:A1 *595:28 7.95083e-05
21 *2816:A1 *599:16 2.33295e-05
22 *2816:A1 *600:16 0.000100657
23 *2816:A1 *702:66 7.3967e-06
24 *264:12 *3132:I 9.85004e-05
25 *264:12 *595:28 0.000538614
26 *264:12 *599:16 4.84315e-05
27 *264:12 *743:68 0.000117791
28 *264:12 *756:352 0.000416321
29 *264:12 *758:44 0.000122836
30 *264:25 *2817:A2 0.000223398
31 *264:25 *2829:A2 0.000884334
32 *264:25 *2830:A1 5.77878e-05
33 *2316:A2 *2341:A2 4.39622e-05
34 *2319:A1 *2341:A2 0
35 *2319:A1 *264:25 0.000372831
36 *2890:A1 *2810:A1 2.41996e-05
37 *3063:D *2810:A1 0.000579333
*RES
1 *2340:Z *264:12 11.97 
2 *264:12 *2816:A1 9.81 
3 *264:12 *264:25 6.93 
4 *264:25 *2341:A2 7.02 
5 *264:25 *2810:A1 17.46 
*END

*D_NET *265 0.0193872
*CONN
*I *2869:A2 I *D gf180mcu_fd_sc_mcu7t5v0__aoi22_1
*I *2830:B1 I *D gf180mcu_fd_sc_mcu7t5v0__aoi22_1
*I *2853:A2 I *D gf180mcu_fd_sc_mcu7t5v0__aoi22_1
*I *2846:A2 I *D gf180mcu_fd_sc_mcu7t5v0__aoi22_1
*I *2343:A2 I *D gf180mcu_fd_sc_mcu7t5v0__nand2_1
*I *2342:A2 I *D gf180mcu_fd_sc_mcu7t5v0__and2_1
*I *2862:A2 I *D gf180mcu_fd_sc_mcu7t5v0__aoi22_1
*I *2837:B1 I *D gf180mcu_fd_sc_mcu7t5v0__aoi22_1
*I *2820:A2 I *D gf180mcu_fd_sc_mcu7t5v0__aoi22_1
*I *2876:A2 I *D gf180mcu_fd_sc_mcu7t5v0__aoi22_1
*I *2341:ZN O *D gf180mcu_fd_sc_mcu7t5v0__nor2_1
*CAP
1 *2869:A2 0
2 *2830:B1 9.17011e-05
3 *2853:A2 0
4 *2846:A2 0.000209754
5 *2343:A2 5.12221e-05
6 *2342:A2 0.0001569
7 *2862:A2 0.000114435
8 *2837:B1 0
9 *2820:A2 0.000114516
10 *2876:A2 0.000488891
11 *2341:ZN 0.000119589
12 *265:102 0.000446874
13 *265:47 0.000283639
14 *265:41 0.000373274
15 *265:39 0.000277386
16 *265:37 0.000444891
17 *265:35 0.000977504
18 *265:29 0.000923574
19 *265:21 0.000454388
20 *265:10 0.00060848
21 *2342:A2 *2355:A2 0.000279794
22 *2342:A2 *266:14 3.53632e-05
23 *2342:A2 *267:6 8.49208e-05
24 *2343:A2 *2831:A2 1.06861e-05
25 *2343:A2 *266:14 1.27919e-05
26 *2820:A2 *2853:A1 2.18833e-05
27 *2820:A2 *283:33 0.000425244
28 *2830:B1 *2830:A1 2.94163e-05
29 *2830:B1 *717:6 1.29418e-05
30 *2846:A2 *2846:B1 3.12451e-05
31 *2846:A2 *2846:B2 3.08083e-05
32 *2846:A2 *2853:A1 0.000164219
33 *2846:A2 *2853:B1 0.000296162
34 *2846:A2 *2853:B2 0.00015651
35 *2846:A2 *2864:B2 0.000852537
36 *2862:A2 *2823:C 0.00076134
37 *2862:A2 *2863:C 0.00042308
38 *2862:A2 *605:62 1.07374e-05
39 *2862:A2 *605:75 0.000105898
40 *2876:A2 *2316:A1 0.000113254
41 *2876:A2 *2594:A1 4.14647e-05
42 *2876:A2 *605:43 3.98038e-05
43 *2876:A2 *605:45 3.46602e-05
44 *2876:A2 *605:47 1.54257e-05
45 *2876:A2 *743:47 0.000100647
46 *2876:A2 *753:27 7.53928e-05
47 *2876:A2 *849:10 0.000572307
48 *265:10 *2830:A1 3.12451e-05
49 *265:10 *2871:A1 0.000394852
50 *265:10 *3062:CLK 8.68281e-06
51 *265:10 *743:47 0.00049503
52 *265:29 *2829:A1 8.68281e-06
53 *265:29 *2829:B1 0.000415026
54 *265:29 *2829:B2 0.000852989
55 *265:29 *2830:A1 5.99095e-05
56 *265:29 *2846:B2 2.3492e-06
57 *265:29 *2862:B2 0.000580283
58 *265:29 *2869:B1 4.68448e-05
59 *265:29 *2881:A1 0
60 *265:29 *3062:CLK 7.65946e-06
61 *265:29 *3185:I 1.7611e-05
62 *265:29 *702:10 2.31089e-05
63 *265:35 *2830:B2 1.17652e-05
64 *265:35 *2846:B2 0.000387025
65 *265:35 *2864:B2 0.000146364
66 *265:35 *3173:I 3.77715e-05
67 *265:35 *717:6 3.01975e-05
68 *265:37 *2350:A1 0.000108137
69 *265:37 *2351:A2 4.28191e-05
70 *265:37 *2368:I1 0
71 *265:37 *2831:A1 1.66988e-05
72 *265:37 *2831:A2 9.17834e-05
73 *265:37 *2832:B2 0.000118725
74 *265:37 *2864:B2 4.04876e-05
75 *265:37 *266:27 0.00028874
76 *265:39 *2831:A2 4.70564e-05
77 *265:39 *266:27 0.000146059
78 *265:41 *2831:A2 0.000410201
79 *265:41 *266:27 0.000951103
80 *265:47 *2823:C 0.000544971
81 *265:47 *2831:A2 0.000101406
82 *265:47 *2854:C 0.000223398
83 *265:47 *266:27 0.000226227
84 *265:47 *631:16 0.000196928
85 *265:47 *750:60 3.22122e-05
86 *265:47 *759:78 0.000223399
87 *265:102 *2831:C 0
88 *265:102 *2832:B2 4.78358e-05
89 *265:102 *2853:A1 9.04462e-05
90 *265:102 *2864:B2 0.000705345
91 *265:102 *282:10 9.89629e-06
92 *245:12 *2876:A2 0.000136976
93 *245:12 *265:10 4.39928e-05
94 *253:24 *2342:A2 0.000100101
95 *253:26 *2342:A2 9.3226e-06
*RES
1 *2341:ZN *265:10 10.8 
2 *265:10 *2876:A2 13.41 
3 *265:10 *265:21 4.5 
4 *265:21 *265:29 5.22 
5 *265:29 *265:35 7.92 
6 *265:35 *265:37 3.33 
7 *265:37 *265:39 0.45 
8 *265:39 *265:41 2.61 
9 *265:41 *265:47 7.92 
10 *265:47 *2820:A2 14.67 
11 *265:47 *2837:B1 4.5 
12 *265:41 *2862:A2 11.43 
13 *265:39 *2342:A2 10.8 
14 *265:37 *2343:A2 9.45 
15 *265:35 *265:102 7.02 
16 *265:102 *2846:A2 16.83 
17 *265:102 *2853:A2 4.5 
18 *265:29 *2830:B1 5.22 
19 *265:21 *2869:A2 4.5 
*END

*D_NET *266 0.0283383
*CONN
*I *2353:A2 I *D gf180mcu_fd_sc_mcu7t5v0__oai21_1
*I *2356:A2 I *D gf180mcu_fd_sc_mcu7t5v0__oai21_1
*I *2359:A2 I *D gf180mcu_fd_sc_mcu7t5v0__oai21_1
*I *2362:A2 I *D gf180mcu_fd_sc_mcu7t5v0__oai21_1
*I *2383:A2 I *D gf180mcu_fd_sc_mcu7t5v0__aoi221_1
*I *2384:A2 I *D gf180mcu_fd_sc_mcu7t5v0__aoi22_1
*I *2346:B I *D gf180mcu_fd_sc_mcu7t5v0__aoi21_1
*I *2382:A1 I *D gf180mcu_fd_sc_mcu7t5v0__oai221_1
*I *2350:A2 I *D gf180mcu_fd_sc_mcu7t5v0__oai21_1
*I *2342:Z O *D gf180mcu_fd_sc_mcu7t5v0__and2_1
*CAP
1 *2353:A2 0.000378463
2 *2356:A2 0.000205185
3 *2359:A2 0
4 *2362:A2 0
5 *2383:A2 0.000267341
6 *2384:A2 0
7 *2346:B 2.27883e-05
8 *2382:A1 0.000636216
9 *2350:A2 0.000110037
10 *2342:Z 0
11 *266:111 0.00136576
12 *266:75 0.00116936
13 *266:65 0.00105608
14 *266:41 0.00102993
15 *266:35 0.000840026
16 *266:27 0.000992502
17 *266:14 0.00105304
18 *266:4 0.00104765
19 *2346:B *2346:A1 0.00023506
20 *2346:B *2348:A1 9.90941e-05
21 *2350:A2 *2831:A2 0.000205859
22 *2350:A2 *2831:C 1.91603e-05
23 *2353:A2 *2370:I1 0.000135084
24 *2353:A2 *2370:S 0
25 *2353:A2 *2845:B2 9.99576e-05
26 *2353:A2 *2878:B1 0.0004548
27 *2353:A2 *782:14 0.000482897
28 *2353:A2 *783:24 0.00059633
29 *2356:A2 *2357:A2 0.000246411
30 *2356:A2 *2840:B2 6.51057e-05
31 *2356:A2 *284:16 0.000126227
32 *2382:A1 *2381:A2 4.12943e-05
33 *2382:A1 *2382:B1 4.843e-05
34 *2382:A1 *2387:A2 0.000297134
35 *2382:A1 *3212:I 1.73225e-05
36 *2382:A1 *286:10 0.000142129
37 *2382:A1 *372:24 4.89196e-07
38 *2382:A1 *499:20 0.00028672
39 *2382:A1 *720:12 0
40 *2383:A2 *2378:A1 9.04462e-05
41 *2383:A2 *2385:A2 0.000571394
42 *2383:A2 *2621:A1 9.85004e-05
43 *266:14 *2355:A2 0.000394996
44 *266:14 *2368:I1 5.88986e-05
45 *266:14 *2831:A1 0.000410086
46 *266:14 *2831:C 5.79792e-06
47 *266:14 *2845:A1 1.4382e-06
48 *266:27 *2831:A1 0.000178139
49 *266:27 *2831:A2 0.000471687
50 *266:27 *2853:A1 0
51 *266:27 *720:10 0
52 *266:27 *759:78 0.000387788
53 *266:35 *2831:A2 0.000354312
54 *266:35 *3079:CLK 0.000161838
55 *266:35 *694:167 0.000230157
56 *266:35 *720:10 0
57 *266:35 *720:12 0
58 *266:41 *2363:A2 0.000569421
59 *266:41 *3078:CLK 1.18477e-05
60 *266:41 *715:58 0.00132728
61 *266:41 *720:12 0
62 *266:65 *2363:A2 0.000263528
63 *266:65 *715:37 0.00068683
64 *266:65 *715:58 8.42181e-05
65 *266:75 *2361:A1 7.56882e-05
66 *266:75 *2372:I1 0
67 *266:75 *3131:I 0.000413567
68 *266:75 *714:14 0
69 *266:75 *714:51 2.16688e-05
70 *266:75 *715:13 6.2979e-05
71 *266:75 *715:37 0.000438425
72 *266:111 *2355:A2 0.000236251
73 *266:111 *2370:I1 0.000119192
74 *266:111 *2838:A2 0
75 *266:111 *2845:A1 0
76 *266:111 *2845:B2 0.000339604
77 *266:111 *3077:CLK 4.78006e-05
78 *266:111 *3186:I 2.14848e-05
79 *266:111 *283:14 1.26644e-05
80 *266:111 *283:21 3.12497e-06
81 *2331:A1 *266:75 0.000102422
82 *2331:A2 *266:75 7.84068e-05
83 *2342:A2 *266:14 3.53632e-05
84 *2343:A1 *266:27 0.000291047
85 *2343:A2 *266:14 1.27919e-05
86 *2366:A1 *266:111 9.53567e-06
87 *3070:D *266:75 0.000119192
88 *3077:D *2356:A2 2.5071e-05
89 *3078:D *266:27 9.32475e-05
90 *3078:D *266:35 2.52908e-05
91 *3081:D *266:14 5.19239e-06
92 *10:55 *266:41 0.000214919
93 *209:36 *2383:A2 4.78068e-05
94 *209:36 *266:75 0.00126517
95 *244:51 *2353:A2 0.000119878
96 *244:97 *266:75 0.00187176
97 *244:186 *2353:A2 0.000462424
98 *251:30 *2353:A2 2.16833e-05
99 *265:37 *266:27 0.00028874
100 *265:39 *266:27 0.000146059
101 *265:41 *266:27 0.000951103
102 *265:47 *266:27 0.000226227
*RES
1 *2342:Z *266:4 4.5 
2 *266:4 *266:14 11.97 
3 *266:14 *2350:A2 5.4 
4 *266:14 *266:27 13.41 
5 *266:27 *266:35 7.83 
6 *266:35 *266:41 9.72 
7 *266:41 *2382:A1 14.22 
8 *266:41 *2346:B 9.63 
9 *266:35 *266:65 2.34 
10 *266:65 *266:75 15.84 
11 *266:75 *2384:A2 9 
12 *266:75 *2383:A2 11.79 
13 *266:65 *2362:A2 4.5 
14 *266:27 *2359:A2 9 
15 *266:4 *266:111 6.12 
16 *266:111 *2356:A2 15.57 
17 *266:111 *2353:A2 19.8 
*END

*D_NET *267 0.0140449
*CONN
*I *2355:A2 I *D gf180mcu_fd_sc_mcu7t5v0__nor2_1
*I *2358:A2 I *D gf180mcu_fd_sc_mcu7t5v0__nor2_1
*I *2347:A2 I *D gf180mcu_fd_sc_mcu7t5v0__oai21_1
*I *2352:A2 I *D gf180mcu_fd_sc_mcu7t5v0__nor2_1
*I *2361:A2 I *D gf180mcu_fd_sc_mcu7t5v0__nor2_1
*I *2349:A2 I *D gf180mcu_fd_sc_mcu7t5v0__nor2_1
*I *2343:ZN O *D gf180mcu_fd_sc_mcu7t5v0__nand2_1
*CAP
1 *2355:A2 0.00053251
2 *2358:A2 0
3 *2347:A2 0
4 *2352:A2 0.000530836
5 *2361:A2 0
6 *2349:A2 8.51029e-05
7 *2343:ZN 0.000683712
8 *267:28 0.00071702
9 *267:21 0.000316682
10 *267:17 0.000733599
11 *267:6 0.000839406
12 *2349:A2 *2351:A1 0.00048874
13 *2349:A2 *749:39 0
14 *2352:A2 *694:201 0.000355391
15 *2352:A2 *720:12 7.02619e-05
16 *2355:A2 *2838:A2 0.000242968
17 *2355:A2 *283:33 0.000788181
18 *267:6 *2351:A1 0.000425761
19 *267:6 *2831:A2 3.55625e-06
20 *267:17 *2862:A1 0.000318826
21 *267:17 *2864:B2 0.000188029
22 *267:17 *2868:B 0.000356352
23 *267:17 *600:16 0.000155555
24 *267:17 *631:16 0.000514236
25 *267:21 *2862:A1 3.53802e-05
26 *267:21 *631:16 0.000504483
27 *267:21 *721:12 0.000202387
28 *267:28 *3078:CLK 0.000354728
29 *267:28 *694:169 0.000269734
30 *267:28 *694:201 0.000215874
31 *267:28 *744:37 0.00162049
32 *2342:A2 *2355:A2 0.000279794
33 *2342:A2 *267:6 8.49208e-05
34 *2347:B *2352:A2 0.000364897
35 *244:61 *2352:A2 0.00020197
36 *244:76 *2352:A2 9.04462e-05
37 *244:82 *267:21 0.000169917
38 *253:22 *2355:A2 0.000173237
39 *253:24 *2355:A2 2.94719e-05
40 *253:26 *2349:A2 0.000225332
41 *253:26 *267:6 0.000243871
42 *266:14 *2355:A2 0.000394996
43 *266:111 *2355:A2 0.000236251
*RES
1 *2343:ZN *267:6 6.39 
2 *267:6 *2349:A2 6.03 
3 *267:6 *267:17 10.89 
4 *267:17 *267:21 7.47 
5 *267:21 *2361:A2 4.5 
6 *267:21 *267:28 4.41 
7 *267:28 *2352:A2 18.36 
8 *267:28 *2347:A2 4.5 
9 *267:17 *2358:A2 9 
10 *2343:ZN *2355:A2 15.21 
*END

*D_NET *268 0.0142835
*CONN
*I *2345:A2 I *D gf180mcu_fd_sc_mcu7t5v0__nand2_1
*I *2376:A2 I *D gf180mcu_fd_sc_mcu7t5v0__aoi21_1
*I *2766:A1 I *D gf180mcu_fd_sc_mcu7t5v0__oai21_1
*I *2767:A2 I *D gf180mcu_fd_sc_mcu7t5v0__oai31_1
*I *2769:A1 I *D gf180mcu_fd_sc_mcu7t5v0__nor2_1
*I *2344:ZN O *D gf180mcu_fd_sc_mcu7t5v0__nor2_1
*CAP
1 *2345:A2 0.000279382
2 *2376:A2 0
3 *2766:A1 0
4 *2767:A2 0.000149926
5 *2769:A1 9.73053e-05
6 *2344:ZN 0
7 *268:45 0.000763336
8 *268:23 0.000459592
9 *268:8 0.000546784
10 *268:6 0.000623767
11 *2345:A2 *2381:A2 2.38983e-05
12 *2345:A2 *2382:B1 0.000208323
13 *2345:A2 *2495:A1 0
14 *2345:A2 *2496:C 3.01487e-05
15 *2345:A2 *371:22 0.000794614
16 *2345:A2 *372:24 0.000225506
17 *2345:A2 *499:20 0
18 *2767:A2 *694:13 4.97029e-05
19 *2767:A2 *781:14 0.000737008
20 *2769:A1 *2769:A2 0.000150153
21 *2769:A1 *2773:A2 2.37216e-05
22 *2769:A1 *2814:B2 0.000248583
23 *2769:A1 *2831:A2 1.07354e-05
24 *2769:A1 *296:35 0
25 *2769:A1 *562:10 0.000508074
26 *2769:A1 *631:16 0.000905531
27 *268:8 *2683:A1 0.000234541
28 *268:8 *2769:A2 0.000142255
29 *268:8 *631:16 0.00160199
30 *268:8 *721:26 0.00109421
31 *268:23 *2767:A1 2.18208e-05
32 *268:23 *2767:B 0.000106536
33 *268:23 *2773:B 0.000161479
34 *268:23 *296:35 1.69023e-06
35 *268:23 *723:68 1.0415e-05
36 *268:23 *723:78 0.00011785
37 *268:45 *2382:B1 0.000194879
38 *268:45 *2831:A2 2.55518e-05
39 *268:45 *3212:I 3.08083e-05
40 *268:45 *294:8 2.18933e-05
41 *268:45 *371:22 0.00204803
42 *268:45 *631:16 0.000672573
43 *268:45 *720:42 0
44 *268:45 *721:18 6.34901e-05
45 *268:45 *721:22 0.000243301
46 *268:45 *721:26 3.64412e-05
47 *2381:A1 *2345:A2 0.000285137
48 *2664:A1 *268:23 8.31233e-05
49 *2665:A1 *268:23 9.04462e-05
50 *214:22 *268:23 0.000159
*RES
1 *2344:ZN *268:6 9 
2 *268:6 *268:8 4.41 
3 *268:8 *2769:A1 12.06 
4 *268:8 *268:23 7.47 
5 *268:23 *2767:A2 15.39 
6 *268:23 *2766:A1 4.5 
7 *268:6 *268:45 11.88 
8 *268:45 *2376:A2 4.5 
9 *268:45 *2345:A2 8.55 
*END

*D_NET *269 0.0027558
*CONN
*I *2346:A2 I *D gf180mcu_fd_sc_mcu7t5v0__aoi21_1
*I *2345:ZN O *D gf180mcu_fd_sc_mcu7t5v0__nand2_1
*CAP
1 *2346:A2 0.000357275
2 *2345:ZN 0.000357275
3 *2346:A2 *2346:A1 7.91006e-05
4 *2346:A2 *2376:A1 0.00015691
5 *2346:A2 *3074:CLK 0.000117854
6 *2346:A2 *371:22 0.00113711
7 *2346:A2 *372:60 0.000497395
8 *2381:A1 *2346:A2 5.28827e-05
*RES
1 *2345:ZN *2346:A2 14.4 
*END

*D_NET *270 0.00251828
*CONN
*I *2348:A1 I *D gf180mcu_fd_sc_mcu7t5v0__nor2_1
*I *2346:ZN O *D gf180mcu_fd_sc_mcu7t5v0__aoi21_1
*CAP
1 *2348:A1 0.000537744
2 *2346:ZN 0.000537744
3 *2348:A1 *2346:A1 0.000200308
4 *2348:A1 *3214:I 6.68593e-05
5 *2348:A1 *371:22 0
6 *2348:A1 *784:16 2.88229e-05
7 *2346:B *2348:A1 9.90941e-05
8 *3074:D *2348:A1 0.000734655
9 *10:55 *2348:A1 0.000313048
*RES
1 *2346:ZN *2348:A1 14.94 
*END

*D_NET *271 0.00311873
*CONN
*I *2348:A2 I *D gf180mcu_fd_sc_mcu7t5v0__nor2_1
*I *2347:ZN O *D gf180mcu_fd_sc_mcu7t5v0__oai21_1
*CAP
1 *2348:A2 0.000735708
2 *2347:ZN 0.000735708
3 *2348:A2 *2363:A1 0
4 *2348:A2 *2847:A2 0
5 *2348:A2 *3078:CLK 0.000101967
6 *2348:A2 *3080:CLK 3.99224e-05
7 *2348:A2 *3214:I 6.2083e-06
8 *2348:A2 *694:201 0.000223566
9 *2348:A2 *715:58 6.1714e-05
10 *2348:A2 *744:37 1.79237e-05
11 *2348:A2 *784:16 6.1578e-05
12 *3080:D *2348:A2 0.000402291
13 *10:55 *2348:A2 0.00014089
14 *251:30 *2348:A2 0.000591253
*RES
1 *2347:ZN *2348:A2 25.38 
*END

*D_NET *272 0.00166032
*CONN
*I *2351:A1 I *D gf180mcu_fd_sc_mcu7t5v0__nor2_1
*I *2349:ZN O *D gf180mcu_fd_sc_mcu7t5v0__nor2_1
*CAP
1 *2351:A1 0.00014415
2 *2349:ZN 0.00014415
3 *2351:A1 *2349:A1 9.20698e-05
4 *2349:A2 *2351:A1 0.00048874
5 *3075:D *2351:A1 0.000365445
6 *267:6 *2351:A1 0.000425761
*RES
1 *2349:ZN *2351:A1 11.43 
*END

*D_NET *273 0.000680007
*CONN
*I *2351:A2 I *D gf180mcu_fd_sc_mcu7t5v0__nor2_1
*I *2350:ZN O *D gf180mcu_fd_sc_mcu7t5v0__oai21_1
*CAP
1 *2351:A2 3.5049e-05
2 *2350:ZN 3.5049e-05
3 *2351:A2 *2831:A2 0.000110698
4 *2351:A2 *2864:B2 0.000456392
5 *265:37 *2351:A2 4.28191e-05
*RES
1 *2350:ZN *2351:A2 19.17 
*END

*D_NET *274 0.00522792
*CONN
*I *2354:A1 I *D gf180mcu_fd_sc_mcu7t5v0__nor2_1
*I *2352:ZN O *D gf180mcu_fd_sc_mcu7t5v0__nor2_1
*CAP
1 *2354:A1 0.00102219
2 *2352:ZN 0.00102219
3 *2354:A1 *2352:A1 0.000300325
4 *2354:A1 *2371:I1 0.000653866
5 *2354:A1 *2838:B1 4.53628e-05
6 *2354:A1 *2847:A2 4.24734e-05
7 *2354:A1 *630:24 0.000154888
8 *2354:A1 *688:14 1.91584e-05
9 *3076:D *2354:A1 0.00169055
10 *244:49 *2354:A1 5.01359e-05
11 *251:30 *2354:A1 0.000226782
*RES
1 *2352:ZN *2354:A1 29.25 
*END

*D_NET *275 0.00216979
*CONN
*I *2354:A2 I *D gf180mcu_fd_sc_mcu7t5v0__nor2_1
*I *2353:ZN O *D gf180mcu_fd_sc_mcu7t5v0__oai21_1
*CAP
1 *2354:A2 0.000233435
2 *2353:ZN 0.000233435
3 *2354:A2 *2353:A1 5.29035e-05
4 *2354:A2 *2369:I1 0
5 *3076:D *2354:A2 0.000936433
6 *3082:D *2354:A2 3.98088e-05
7 *244:49 *2354:A2 0.000673772
*RES
1 *2353:ZN *2354:A2 12.87 
*END

*D_NET *276 0.00141399
*CONN
*I *2357:A1 I *D gf180mcu_fd_sc_mcu7t5v0__nor2_1
*I *2355:ZN O *D gf180mcu_fd_sc_mcu7t5v0__nor2_1
*CAP
1 *2357:A1 0.000189963
2 *2355:ZN 0.000189963
3 *2357:A1 *2356:A1 0
4 *2357:A1 *2840:B2 0.000281393
5 *2357:A1 *2845:B2 0.000557083
6 *2357:A1 *2847:A2 0.000105138
7 *2357:A1 *3077:CLK 9.04462e-05
8 *2356:B *2357:A1 0
9 *3077:D *2357:A1 0
*RES
1 *2355:ZN *2357:A1 20.34 
*END

*D_NET *277 0.000603156
*CONN
*I *2357:A2 I *D gf180mcu_fd_sc_mcu7t5v0__nor2_1
*I *2356:ZN O *D gf180mcu_fd_sc_mcu7t5v0__oai21_1
*CAP
1 *2357:A2 1.76322e-05
2 *2356:ZN 1.76322e-05
3 *2357:A2 *2840:B2 5.06884e-06
4 *2356:A2 *2357:A2 0.000246411
5 *3077:D *2357:A2 0.000316412
*RES
1 *2356:ZN *2357:A2 18.81 
*END

*D_NET *278 0.00140304
*CONN
*I *2360:A1 I *D gf180mcu_fd_sc_mcu7t5v0__nor2_1
*I *2358:ZN O *D gf180mcu_fd_sc_mcu7t5v0__nor2_1
*CAP
1 *2360:A1 0.000108386
2 *2358:ZN 0.000108386
3 *2360:A1 *2371:I1 8.93635e-05
4 *2360:A1 *284:34 0.000743573
5 *2360:A1 *721:10 0.000353333
*RES
1 *2358:ZN *2360:A1 11.07 
*END

*D_NET *279 0.000206938
*CONN
*I *2360:A2 I *D gf180mcu_fd_sc_mcu7t5v0__nor2_1
*I *2359:ZN O *D gf180mcu_fd_sc_mcu7t5v0__oai21_1
*CAP
1 *2360:A2 0.000103469
2 *2359:ZN 0.000103469
*RES
1 *2359:ZN *2360:A2 9.81 
*END

*D_NET *280 0.0021191
*CONN
*I *2363:A1 I *D gf180mcu_fd_sc_mcu7t5v0__nor2_1
*I *2361:ZN O *D gf180mcu_fd_sc_mcu7t5v0__nor2_1
*CAP
1 *2363:A1 0.000239921
2 *2361:ZN 0.000239921
3 *2363:A1 *715:37 0.000166465
4 *2363:A1 *715:58 0.000130703
5 *2363:A1 *744:37 0.000558262
6 *2348:A2 *2363:A1 0
7 *3079:D *2363:A1 0.00078383
*RES
1 *2361:ZN *2363:A1 13.41 
*END

*D_NET *281 0.00170326
*CONN
*I *2363:A2 I *D gf180mcu_fd_sc_mcu7t5v0__nor2_1
*I *2362:ZN O *D gf180mcu_fd_sc_mcu7t5v0__oai21_1
*CAP
1 *2363:A2 0.000311335
2 *2362:ZN 0.000311335
3 *2363:A2 *3079:CLK 8.76708e-05
4 *10:55 *2363:A2 0.00015997
5 *266:41 *2363:A2 0.000569421
6 *266:65 *2363:A2 0.000263528
*RES
1 *2362:ZN *2363:A2 12.6 
*END

*D_NET *282 0.00768869
*CONN
*I *2809:A1 I *D gf180mcu_fd_sc_mcu7t5v0__nor3_1
*I *2813:A1 I *D gf180mcu_fd_sc_mcu7t5v0__nor2_1
*I *2365:A2 I *D gf180mcu_fd_sc_mcu7t5v0__nor2_1
*I *2364:ZN O *D gf180mcu_fd_sc_mcu7t5v0__nand2_1
*CAP
1 *2809:A1 4.84033e-05
2 *2813:A1 0.000524652
3 *2365:A2 0
4 *2364:ZN 0.000342329
5 *282:23 0.00115531
6 *282:10 0.000924579
7 *2809:A1 *2809:A3 0
8 *2813:A1 *2809:A2 1.70328e-05
9 *2813:A1 *2809:A3 0.000700445
10 *2813:A1 *3132:I 0.000203127
11 *2813:A1 *591:30 0.000746138
12 *2813:A1 *597:22 8.49143e-05
13 *2813:A1 *599:16 9.30128e-05
14 *2813:A1 *605:20 0.000106536
15 *2813:A1 *756:364 0.000210458
16 *2813:A1 *758:25 0.0002318
17 *2813:A1 *758:44 0.000345288
18 *282:10 *2364:A1 3.07288e-06
19 *282:10 *2832:B2 0.000491318
20 *282:10 *2853:A1 8.12856e-06
21 *282:10 *2853:B2 9.5155e-05
22 *282:10 *2855:A1 4.78286e-05
23 *282:10 *2864:B2 7.191e-07
24 *282:23 *2364:A2 0
25 *282:23 *2809:A2 1.06178e-05
26 *282:23 *2809:A3 5.97457e-06
27 *282:23 *3233:I 0
28 *282:23 *3234:I 2.59366e-05
29 *282:23 *756:352 6.84043e-05
30 *282:23 *758:44 0.000566486
31 *282:23 *782:14 0.000119182
32 *2319:A1 *282:23 0
33 *2365:A1 *282:23 0.00022972
34 *3048:D *282:23 0.000247379
35 *3061:D *2813:A1 0
36 *3063:D *2813:A1 1.03575e-05
37 *247:54 *282:23 1.4496e-05
38 *248:10 *282:10 0
39 *265:102 *282:10 9.89629e-06
*RES
1 *2364:ZN *282:10 11.52 
2 *282:10 *2365:A2 9 
3 *282:10 *282:23 9.9 
4 *282:23 *2813:A1 11.52 
5 *282:23 *2809:A1 4.95 
*END

*D_NET *283 0.0233637
*CONN
*I *2829:A2 I *D gf180mcu_fd_sc_mcu7t5v0__aoi22_1
*I *2845:B1 I *D gf180mcu_fd_sc_mcu7t5v0__aoi22_1
*I *2838:A2 I *D gf180mcu_fd_sc_mcu7t5v0__aoi22_1
*I *2820:B1 I *D gf180mcu_fd_sc_mcu7t5v0__aoi22_1
*I *2861:B1 I *D gf180mcu_fd_sc_mcu7t5v0__aoi22_1
*I *2875:B1 I *D gf180mcu_fd_sc_mcu7t5v0__aoi22_1
*I *2870:B1 I *D gf180mcu_fd_sc_mcu7t5v0__aoi221_1
*I *2854:B1 I *D gf180mcu_fd_sc_mcu7t5v0__aoi221_1
*I *2366:A2 I *D gf180mcu_fd_sc_mcu7t5v0__and2_1
*I *2365:ZN O *D gf180mcu_fd_sc_mcu7t5v0__nor2_1
*CAP
1 *2829:A2 0.000820577
2 *2845:B1 4.632e-05
3 *2838:A2 0.00032754
4 *2820:B1 0
5 *2861:B1 0.000116889
6 *2875:B1 0
7 *2870:B1 3.18817e-05
8 *2854:B1 0.000126744
9 *2366:A2 0
10 *2365:ZN 0.00163475
11 *283:75 0.000161235
12 *283:64 0.00121495
13 *283:46 0.00113872
14 *283:33 0.000504395
15 *283:27 0.000887994
16 *283:21 0.000344406
17 *283:14 0.000929454
18 *2829:A2 *2832:B2 0
19 *2829:A2 *2871:A2 0.000141842
20 *2829:A2 *3185:I 3.72424e-05
21 *2829:A2 *743:68 9.2472e-05
22 *2838:A2 *2840:B2 9.04462e-05
23 *2838:A2 *3186:I 0.000185523
24 *2838:A2 *630:24 0.00037955
25 *2838:A2 *688:12 3.12451e-05
26 *2838:A2 *759:68 0.000188729
27 *2845:B1 *2845:A1 9.30289e-05
28 *2845:B1 *3077:CLK 2.76752e-05
29 *2854:B1 *2820:B2 0.000515537
30 *2854:B1 *2854:C 6.40664e-06
31 *2854:B1 *3171:I 0
32 *2854:B1 *645:22 0.000586561
33 *2854:B1 *686:10 0
34 *2854:B1 *720:10 4.02636e-05
35 *2854:B1 *750:60 0
36 *2861:B1 *2863:B 9.20698e-05
37 *2861:B1 *2871:A2 0.000182206
38 *2861:B1 *2877:A1 0.000236433
39 *2861:B1 *750:60 1.6462e-05
40 *2870:B1 *2860:A2 7.13936e-05
41 *2870:B1 *2871:A2 0.000382875
42 *2870:B1 *2875:B2 0.000744726
43 *2870:B1 *284:34 1.71254e-05
44 *283:14 *2364:A1 1.69842e-06
45 *283:14 *2364:A2 5.60661e-06
46 *283:14 *2824:B2 0.00011342
47 *283:14 *2825:A2 2.97809e-05
48 *283:14 *2832:B2 5.77941e-06
49 *283:14 *2833:A2 1.0415e-05
50 *283:14 *2845:A1 8.69576e-05
51 *283:14 *605:81 0.000117627
52 *283:21 *2845:A1 0.000199989
53 *283:21 *3077:CLK 1.39313e-05
54 *283:27 *3077:CLK 2.36954e-05
55 *283:27 *759:42 6.35588e-05
56 *283:33 *2823:B 0.000180104
57 *283:33 *2837:A1 0.000505512
58 *283:33 *2852:B 2.57662e-05
59 *283:33 *2853:A1 0
60 *283:33 *2854:C 6.17613e-06
61 *283:33 *630:24 5.22248e-06
62 *283:33 *720:10 1.36885e-05
63 *283:33 *759:68 1.23558e-05
64 *283:64 *2860:A2 0.000287303
65 *283:64 *2868:A1 0.00022436
66 *283:64 *2868:B 4.83522e-05
67 *283:64 *2870:A1 2.89427e-06
68 *283:64 *2870:C 3.30181e-05
69 *283:64 *2875:A1 4.16602e-05
70 *283:64 *2875:B2 3.01487e-05
71 *283:64 *601:16 0.000301253
72 *283:64 *631:16 0
73 *283:64 *645:22 0.000365832
74 *283:64 *694:254 6.63171e-05
75 *283:64 *750:60 6.67857e-05
76 *283:64 *752:61 5.5527e-06
77 *283:75 *2871:A2 0.000226832
78 *283:75 *2875:B2 6.51736e-05
79 *2316:A2 *2829:A2 0.00022286
80 *2319:A1 *2829:A2 0.000688634
81 *2319:A1 *283:14 6.31533e-05
82 *2341:A2 *2829:A2 2.36914e-05
83 *2355:A2 *2838:A2 0.000242968
84 *2355:A2 *283:33 0.000788181
85 *2366:A1 *2845:B1 5.97457e-06
86 *2366:A1 *283:21 0.000205509
87 *2810:A1 *2829:A2 0.000200115
88 *2820:A2 *283:33 0.000425244
89 *2854:A2 *283:33 4.37987e-05
90 *2870:A2 *2870:B1 3.42509e-05
91 *2890:A1 *2829:A2 0.000102953
92 *3049:D *283:14 1.0415e-05
93 *241:12 *2829:A2 6.14867e-05
94 *248:8 *283:14 0.000385973
95 *248:10 *283:14 0.00127453
96 *248:12 *283:14 0.000167298
97 *248:12 *283:33 0.000319267
98 *248:25 *283:33 7.13936e-05
99 *250:18 *283:27 7.5807e-05
100 *253:22 *283:27 0.000682482
101 *253:22 *283:33 0.000735188
102 *264:25 *2829:A2 0.000884334
103 *266:111 *2838:A2 0
104 *266:111 *283:14 1.26644e-05
105 *266:111 *283:21 3.12497e-06
*RES
1 *2365:ZN *283:14 20.97 
2 *283:14 *2366:A2 4.5 
3 *283:14 *283:21 1.17 
4 *283:21 *283:27 11.07 
5 *283:27 *283:33 11.16 
6 *283:33 *2854:B1 11.16 
7 *283:33 *283:46 4.5 
8 *283:46 *283:64 22.86 
9 *283:64 *2870:B1 10.89 
10 *283:64 *283:75 0.63 
11 *283:75 *2875:B1 9 
12 *283:75 *2861:B1 10.35 
13 *283:46 *2820:B1 4.5 
14 *283:27 *2838:A2 8.55 
15 *283:21 *2845:B1 5.04 
16 *2365:ZN *2829:A2 26.82 
*END

*D_NET *284 0.023207
*CONN
*I *2368:S I *D gf180mcu_fd_sc_mcu7t5v0__mux2_2
*I *2370:S I *D gf180mcu_fd_sc_mcu7t5v0__mux2_2
*I *2369:S I *D gf180mcu_fd_sc_mcu7t5v0__mux2_2
*I *2371:S I *D gf180mcu_fd_sc_mcu7t5v0__mux2_2
*I *2367:S I *D gf180mcu_fd_sc_mcu7t5v0__mux2_2
*I *2375:S I *D gf180mcu_fd_sc_mcu7t5v0__mux2_2
*I *2372:S I *D gf180mcu_fd_sc_mcu7t5v0__mux2_2
*I *2374:A2 I *D gf180mcu_fd_sc_mcu7t5v0__aoi21_1
*I *2373:A2 I *D gf180mcu_fd_sc_mcu7t5v0__nor2_1
*I *2366:Z O *D gf180mcu_fd_sc_mcu7t5v0__and2_1
*CAP
1 *2368:S 0.00017694
2 *2370:S 0.000211216
3 *2369:S 5.13857e-05
4 *2371:S 0
5 *2367:S 0
6 *2375:S 0
7 *2372:S 0.000337042
8 *2374:A2 0.000240214
9 *2373:A2 1.80414e-05
10 *2366:Z 0
11 *284:58 0.000368589
12 *284:36 0.000294672
13 *284:34 0.00122245
14 *284:28 0.00157488
15 *284:22 0.000516856
16 *284:16 0.000388017
17 *284:14 0.000910662
18 *284:4 0.00063621
19 *2368:S *2845:A1 0.000389016
20 *2369:S *2369:I1 3.7795e-05
21 *2370:S *2356:A1 0.000282246
22 *2372:S *2372:I1 7.55765e-06
23 *2372:S *2375:I1 0
24 *2372:S *2875:B2 3.12451e-05
25 *2372:S *3070:CLK 0
26 *2372:S *693:29 3.98088e-05
27 *2372:S *714:21 0.000213046
28 *2373:A2 *2860:A2 0.000228444
29 *2373:A2 *371:22 0.000228444
30 *2374:A2 *2375:I1 0.000229365
31 *2374:A2 *371:22 3.73774e-06
32 *2374:A2 *723:68 0.00042224
33 *284:14 *2845:A1 9.20698e-05
34 *284:16 *2840:B2 0
35 *284:16 *689:24 0.000559276
36 *284:16 *751:45 3.07288e-06
37 *284:16 *783:16 0.000913
38 *284:22 *2371:I0 2.93938e-05
39 *284:22 *2860:A1 2.1573e-06
40 *284:22 *3089:I 0.000125393
41 *284:22 *689:24 0.000586161
42 *284:28 *2367:I1 2.36813e-05
43 *284:28 *2371:I0 3.7795e-05
44 *284:28 *2371:I1 9.22e-05
45 *284:28 *2860:A1 1.44759e-05
46 *284:28 *3076:CLK 0.000144397
47 *284:34 *2359:A1 1.83325e-05
48 *284:34 *2367:I1 0.000391985
49 *284:34 *2371:I1 0.000386419
50 *284:34 *2860:A2 0.00217767
51 *284:34 *2870:B2 0.000895713
52 *284:34 *2870:C 0.000497998
53 *284:34 *2875:B2 3.53802e-05
54 *284:34 *3116:I 7.20436e-05
55 *284:34 *721:10 3.22348e-05
56 *284:34 *752:61 1.80969e-05
57 *284:36 *2860:A2 0.0008022
58 *284:36 *2870:B2 0.000187043
59 *284:36 *371:22 0.000343873
60 *284:58 *3070:CLK 0
61 *284:58 *693:29 2.36813e-05
62 *2339:A1 *284:34 0
63 *2339:A3 *284:34 8.08569e-05
64 *2350:B *2368:S 0.00100492
65 *2350:B *284:14 2.28956e-05
66 *2353:A2 *2370:S 0
67 *2356:A2 *284:16 0.000126227
68 *2360:A1 *284:34 0.000743573
69 *2845:A2 *284:14 0.000179209
70 *2870:B1 *284:34 1.71254e-05
71 *3076:D *2369:S 5.8625e-05
72 *3077:D *284:16 0.000310627
73 *3078:D *284:34 3.57187e-05
74 *3086:D *2372:S 3.94564e-05
75 *244:61 *284:28 4.94831e-05
76 *244:61 *284:34 5.78854e-06
77 *244:76 *284:34 0
78 *244:78 *284:34 0
79 *244:186 *2370:S 8.53098e-05
80 *251:30 *284:16 0.00134534
81 *251:30 *284:22 0.00129182
82 *253:16 *284:14 0.000244161
*RES
1 *2366:Z *284:4 4.5 
2 *284:4 *284:14 17.28 
3 *284:14 *284:16 5.85 
4 *284:16 *284:22 8.1 
5 *284:22 *284:28 3.15 
6 *284:28 *284:34 19.98 
7 *284:34 *284:36 2.07 
8 *284:36 *2373:A2 9.63 
9 *284:36 *2374:A2 11.79 
10 *284:34 *284:58 4.77 
11 *284:58 *2372:S 7.11 
12 *284:58 *2375:S 4.5 
13 *284:28 *2367:S 4.5 
14 *284:22 *2371:S 4.5 
15 *284:16 *2369:S 9.45 
16 *284:14 *2370:S 10.62 
17 *284:4 *2368:S 7.56 
*END

*D_NET *285 0.000950222
*CONN
*I *2374:B I *D gf180mcu_fd_sc_mcu7t5v0__aoi21_1
*I *2373:ZN O *D gf180mcu_fd_sc_mcu7t5v0__nor2_1
*CAP
1 *2374:B 0.000118212
2 *2373:ZN 0.000118212
3 *2374:B *2378:A1 0.000356899
4 *2374:B *723:68 0.000356899
*RES
1 *2373:ZN *2374:B 11.25 
*END

*D_NET *286 0.0027386
*CONN
*I *2382:A2 I *D gf180mcu_fd_sc_mcu7t5v0__oai221_1
*I *2386:A1 I *D gf180mcu_fd_sc_mcu7t5v0__nand2_1
*I *2376:ZN O *D gf180mcu_fd_sc_mcu7t5v0__aoi21_1
*CAP
1 *2382:A2 0.000137317
2 *2386:A1 0.000247647
3 *2376:ZN 0.000214226
4 *286:10 0.00059919
5 *2382:A2 *292:12 0.000419249
6 *2386:A1 *292:12 0.000777472
7 *2386:A1 *296:35 1.51308e-05
8 *2386:A1 *720:12 3.1302e-05
9 *2386:A1 *720:14 9.29483e-05
10 *286:10 *2839:A2 0
11 *286:10 *372:24 6.19867e-05
12 *2382:A1 *286:10 0.000142129
13 *2382:B2 *286:10 0
*RES
1 *2376:ZN *286:10 15.21 
2 *286:10 *2386:A1 15.84 
3 *286:10 *2382:A2 14.85 
*END

*D_NET *287 0.000720632
*CONN
*I *2378:A2 I *D gf180mcu_fd_sc_mcu7t5v0__nand2_1
*I *2377:ZN O *D gf180mcu_fd_sc_mcu7t5v0__nand2_1
*CAP
1 *2378:A2 0.000310695
2 *2377:ZN 0.000310695
3 *2378:A2 *2379:A2 2.1402e-05
4 *2378:A2 *721:18 7.78397e-05
*RES
1 *2377:ZN *2378:A2 11.07 
*END

*D_NET *288 0.00217227
*CONN
*I *2379:A2 I *D gf180mcu_fd_sc_mcu7t5v0__nand2_1
*I *2378:ZN O *D gf180mcu_fd_sc_mcu7t5v0__nand2_1
*CAP
1 *2379:A2 0.000380852
2 *2378:ZN 0.000380852
3 *2379:A2 *2344:A2 7.58409e-06
4 *2379:A2 *2378:A1 1.61174e-05
5 *2379:A2 *2621:A1 0.00124184
6 *2379:A2 *289:12 4.45837e-05
7 *2379:A2 *720:42 7.90366e-05
8 *2378:A2 *2379:A2 2.1402e-05
*RES
1 *2378:ZN *2379:A2 13.14 
*END

*D_NET *289 0.00313974
*CONN
*I *2382:B1 I *D gf180mcu_fd_sc_mcu7t5v0__oai221_1
*I *2386:A2 I *D gf180mcu_fd_sc_mcu7t5v0__nand2_1
*I *2379:ZN O *D gf180mcu_fd_sc_mcu7t5v0__nand2_1
*CAP
1 *2382:B1 0.000378258
2 *2386:A2 0
3 *2379:ZN 0.000150955
4 *289:12 0.000529213
5 *2382:B1 *2387:A2 0.000113807
6 *2382:B1 *2388:A1 0.00015426
7 *2382:B1 *2621:A1 3.92172e-06
8 *2382:B1 *3212:I 0.000487345
9 *2382:B1 *294:8 4.45165e-05
10 *2382:B1 *296:35 0.00014711
11 *2382:B1 *372:24 0.000297533
12 *2382:B1 *499:20 0.000128628
13 *2382:B1 *720:42 1.0415e-05
14 *289:12 *2380:A2 1.71254e-05
15 *289:12 *2621:A1 9.90362e-06
16 *289:12 *2771:A1 0
17 *289:12 *720:14 7.48093e-05
18 *289:12 *720:42 9.57249e-05
19 *2345:A2 *2382:B1 0.000208323
20 *2379:A2 *289:12 4.45837e-05
21 *2382:A1 *2382:B1 4.843e-05
22 *268:45 *2382:B1 0.000194879
*RES
1 *2379:ZN *289:12 14.94 
2 *289:12 *2386:A2 4.5 
3 *289:12 *2382:B1 18.63 
*END

*D_NET *290 0.00632807
*CONN
*I *2388:A1 I *D gf180mcu_fd_sc_mcu7t5v0__or2_2
*I *2387:A1 I *D gf180mcu_fd_sc_mcu7t5v0__nor2_1
*I *2381:A2 I *D gf180mcu_fd_sc_mcu7t5v0__nand2_1
*I *2380:ZN O *D gf180mcu_fd_sc_mcu7t5v0__nor2_1
*CAP
1 *2388:A1 6.38793e-05
2 *2387:A1 1.45989e-05
3 *2381:A2 0.000361213
4 *2380:ZN 2.62785e-05
5 *290:14 0.000557682
6 *290:8 0.000272028
7 *2381:A2 *2382:C 0.000414829
8 *2381:A2 *2839:A2 6.08232e-05
9 *2381:A2 *372:24 0.000568733
10 *2381:A2 *499:20 6.62799e-05
11 *2387:A1 *2387:A2 3.46409e-05
12 *2387:A1 *778:10 6.88878e-05
13 *2388:A1 *2387:A2 8.03944e-05
14 *2388:A1 *2768:A1 4.34597e-05
15 *2388:A1 *296:35 0.000532006
16 *290:8 *2768:A1 0.000938385
17 *290:8 *296:35 0.00102599
18 *290:14 *2387:A2 1.63488e-05
19 *290:14 *2621:A1 9.84908e-05
20 *290:14 *2768:A1 1.71254e-05
21 *290:14 *2842:B2 0
22 *290:14 *372:24 0.00061297
23 *290:14 *778:10 0.000233578
24 *2345:A2 *2381:A2 2.38983e-05
25 *2382:A1 *2381:A2 4.12943e-05
26 *2382:B1 *2388:A1 0.00015426
*RES
1 *2380:ZN *290:8 11.61 
2 *290:8 *290:14 6.84 
3 *290:14 *2381:A2 17.1 
4 *290:14 *2387:A1 4.77 
5 *290:8 *2388:A1 10.53 
*END

*D_NET *291 0.000711795
*CONN
*I *2382:C I *D gf180mcu_fd_sc_mcu7t5v0__oai221_1
*I *2381:ZN O *D gf180mcu_fd_sc_mcu7t5v0__nand2_1
*CAP
1 *2382:C 8.21956e-05
2 *2381:ZN 8.21956e-05
3 *2382:C *372:24 0.000132574
4 *2381:A2 *2382:C 0.000414829
*RES
1 *2381:ZN *2382:C 10.17 
*END

*D_NET *292 0.00747482
*CONN
*I *2384:B1 I *D gf180mcu_fd_sc_mcu7t5v0__aoi22_1
*I *2383:B1 I *D gf180mcu_fd_sc_mcu7t5v0__aoi221_1
*I *2382:ZN O *D gf180mcu_fd_sc_mcu7t5v0__oai221_1
*CAP
1 *2384:B1 1.37947e-05
2 *2383:B1 9.53237e-05
3 *2382:ZN 0.00244903
4 *292:12 0.00255815
5 *2383:B1 *2385:A2 0.000500893
6 *2384:B1 *2385:A2 0.000229929
7 *2382:A2 *292:12 0.000419249
8 *2383:A1 *2383:B1 0.000174497
9 *2386:A1 *292:12 0.000777472
10 *2923:D *2383:B1 3.0177e-06
11 *209:36 *2383:B1 3.1302e-05
12 *209:36 *2384:B1 0.000205808
13 *244:101 *2383:B1 1.63556e-05
*RES
1 *2382:ZN *292:12 32.85 
2 *292:12 *2383:B1 10.35 
3 *292:12 *2384:B1 9.63 
*END

*D_NET *293 0.00272536
*CONN
*I *2385:A2 I *D gf180mcu_fd_sc_mcu7t5v0__nor2_1
*I *2384:ZN O *D gf180mcu_fd_sc_mcu7t5v0__aoi22_1
*CAP
1 *2385:A2 0.000179816
2 *2384:ZN 0.000179816
3 *2385:A2 *2385:A1 0.000510671
4 *2385:A2 *486:20 0.000107788
5 *2383:A2 *2385:A2 0.000571394
6 *2383:B1 *2385:A2 0.000500893
7 *2383:B2 *2385:A2 0.000109332
8 *2384:B1 *2385:A2 0.000229929
9 *2923:D *2385:A2 9.72182e-06
10 *2924:D *2385:A2 0.000291749
11 *209:36 *2385:A2 3.42509e-05
*RES
1 *2384:ZN *2385:A2 21.96 
*END

*D_NET *294 0.00291358
*CONN
*I *2388:A2 I *D gf180mcu_fd_sc_mcu7t5v0__or2_2
*I *2387:A2 I *D gf180mcu_fd_sc_mcu7t5v0__nor2_1
*I *2386:ZN O *D gf180mcu_fd_sc_mcu7t5v0__nand2_1
*CAP
1 *2388:A2 0
2 *2387:A2 0.00020544
3 *2386:ZN 0.000209811
4 *294:8 0.00041525
5 *2387:A2 *3232:I 0.000755552
6 *2387:A2 *372:24 0.000573038
7 *2387:A2 *778:10 2.14748e-05
8 *294:8 *3212:I 0.000116565
9 *294:8 *499:20 7.71476e-06
10 *2382:A1 *2387:A2 0.000297134
11 *2382:B1 *2387:A2 0.000113807
12 *2382:B1 *294:8 4.45165e-05
13 *2387:A1 *2387:A2 3.46409e-05
14 *2388:A1 *2387:A2 8.03944e-05
15 *268:45 *294:8 2.18933e-05
16 *290:14 *2387:A2 1.63488e-05
*RES
1 *2386:ZN *294:8 6.12 
2 *294:8 *2387:A2 17.1 
3 *294:8 *2388:A2 4.5 
*END

*D_NET *295 0.0345796
*CONN
*I *2501:A2 I *D gf180mcu_fd_sc_mcu7t5v0__nor2_1
*I *2483:A2 I *D gf180mcu_fd_sc_mcu7t5v0__nor2_1
*I *2484:A2 I *D gf180mcu_fd_sc_mcu7t5v0__aoi211_1
*I *2502:A2 I *D gf180mcu_fd_sc_mcu7t5v0__aoi211_1
*I *2471:A2 I *D gf180mcu_fd_sc_mcu7t5v0__oai21_1
*I *2475:A2 I *D gf180mcu_fd_sc_mcu7t5v0__nor2_1
*I *2491:A2 I *D gf180mcu_fd_sc_mcu7t5v0__nor2_1
*I *2476:A2 I *D gf180mcu_fd_sc_mcu7t5v0__aoi211_1
*I *2492:A2 I *D gf180mcu_fd_sc_mcu7t5v0__aoi211_1
*I *2489:A2 I *D gf180mcu_fd_sc_mcu7t5v0__nor2_1
*I *2490:A2 I *D gf180mcu_fd_sc_mcu7t5v0__aoi211_1
*I *2472:A2 I *D gf180mcu_fd_sc_mcu7t5v0__aoi21_1
*I *3232:I I *D gf180mcu_fd_sc_mcu7t5v0__buf_4
*I *3213:I I *D gf180mcu_fd_sc_mcu7t5v0__buf_4
*I *2495:A2 I *D gf180mcu_fd_sc_mcu7t5v0__nor2_1
*I *2496:A2 I *D gf180mcu_fd_sc_mcu7t5v0__aoi211_1
*I *2387:ZN O *D gf180mcu_fd_sc_mcu7t5v0__nor2_1
*CAP
1 *2501:A2 6.18686e-05
2 *2483:A2 0.000210448
3 *2484:A2 0
4 *2502:A2 7.34236e-05
5 *2471:A2 0.000258414
6 *2475:A2 4.70655e-05
7 *2491:A2 0
8 *2476:A2 0.000206394
9 *2492:A2 0
10 *2489:A2 0.00022391
11 *2490:A2 0
12 *2472:A2 0
13 *3232:I 0.000137211
14 *3213:I 0.000478639
15 *2495:A2 0
16 *2496:A2 0.000132472
17 *2387:ZN 0
18 *295:166 0.00109421
19 *295:149 0.0011551
20 *295:145 0.000488997
21 *295:112 0.000176281
22 *295:98 0.000206394
23 *295:96 0.000214158
24 *295:80 0.000336777
25 *295:76 0.000723038
26 *295:67 0.00109676
27 *295:63 0.00180482
28 *295:55 0.00122133
29 *295:27 0.000461396
30 *295:10 0.000531313
31 *295:4 0.000536052
32 *2471:A2 *2494:B 0
33 *2471:A2 *694:223 0.000412295
34 *2475:A2 *2858:C2 9.20788e-05
35 *2476:A2 *2489:A1 0
36 *2476:A2 *2955:CLK 0.000558359
37 *2476:A2 *756:54 1.11031e-05
38 *2483:A2 *2483:A1 0
39 *2483:A2 *2834:A1 0.000213046
40 *2483:A2 *778:264 2.14748e-05
41 *2489:A2 *2489:A1 6.21753e-05
42 *2489:A2 *3027:CLK 2.26729e-05
43 *2489:A2 *914:14 0
44 *2496:A2 *2496:B 0.000463466
45 *2496:A2 *3074:CLK 3.55118e-05
46 *2496:A2 *372:60 8.8161e-05
47 *2496:A2 *703:48 7.10237e-05
48 *2496:A2 *782:18 0.000178791
49 *2496:A2 *783:24 9.22066e-05
50 *2501:A2 *2285:I 7.58409e-06
51 *2501:A2 *502:18 0.000145212
52 *2502:A2 *3147:I 0
53 *3213:I *2749:B2 0.000356014
54 *3213:I *3121:I 9.26913e-05
55 *3213:I *499:20 0.000141335
56 *3232:I *2621:A1 3.97987e-05
57 *3232:I *372:24 2.36914e-05
58 *3232:I *499:20 0.00103697
59 *3232:I *778:10 2.26729e-05
60 *295:10 *2496:B 3.42509e-05
61 *295:10 *2842:A1 0.000335771
62 *295:10 *3142:I 0.000134003
63 *295:10 *499:20 0.000206238
64 *295:10 *778:10 0.000552614
65 *295:10 *782:18 0.000219956
66 *295:10 *783:24 9.96525e-05
67 *295:55 *2749:B2 0.000161479
68 *295:55 *499:20 7.20436e-05
69 *295:63 *2746:A1 0
70 *295:63 *2746:A2 0
71 *295:63 *2755:A1 0
72 *295:63 *2755:A2 4.04309e-06
73 *295:63 *2860:A1 0.00069372
74 *295:63 *2878:B2 6.76398e-05
75 *295:63 *372:68 0.000115346
76 *295:63 *372:208 0
77 *295:63 *703:20 0
78 *295:63 *756:144 0.00235425
79 *295:63 *756:179 0.000176497
80 *295:63 *918:8 0.000726748
81 *295:63 *918:14 0.0013965
82 *295:67 *2743:A2 0
83 *295:67 *2755:A2 5.17053e-05
84 *295:67 *2860:A1 0.000322595
85 *295:67 *543:27 0
86 *295:67 *546:12 5.06031e-06
87 *295:76 *2487:A1 2.37941e-05
88 *295:76 *2487:A2 2.9119e-05
89 *295:76 *2489:A1 0.00048874
90 *295:76 *2858:A1 0.000902127
91 *295:76 *2858:B2 0.000196273
92 *295:76 *2860:A1 0.000155985
93 *295:76 *778:301 9.68272e-05
94 *295:96 *2490:C 0.000372597
95 *295:112 *2490:C 0.000382884
96 *295:112 *2492:B 0.000117934
97 *295:112 *2858:C2 0.000326763
98 *295:145 *2749:B2 0.000543506
99 *295:145 *499:20 0.000204012
100 *295:145 *503:40 0.000125903
101 *295:145 *503:49 0.000129273
102 *295:149 *2497:A1 0.000152801
103 *295:149 *372:86 8.08481e-05
104 *295:149 *503:40 9.78115e-05
105 *295:166 *2484:B 8.12856e-06
106 *295:166 *2484:C 0
107 *295:166 *2486:B 1.68677e-06
108 *295:166 *2761:A2 1.39839e-05
109 *295:166 *2834:A1 0.000453416
110 *295:166 *2834:A2 9.85004e-05
111 *295:166 *2836:A1 0.000182754
112 *295:166 *3033:CLK 4.45177e-05
113 *295:166 *3147:I 0
114 *295:166 *372:86 0.000757556
115 *295:166 *779:142 0.000294421
116 *295:166 *920:6 0
117 *295:166 *944:8 0.000298913
118 *2387:A2 *3232:I 0.000755552
119 *2472:A1 *295:67 1.61174e-05
120 *2472:A1 *295:76 0.00019484
121 *2476:A1 *2476:A2 0.000298777
122 *2476:A1 *295:80 6.41295e-05
123 *2476:A1 *295:96 2.75959e-05
124 *2484:A1 *2483:A2 0.000727449
125 *2484:A1 *295:166 3.55118e-05
126 *2490:A1 *2489:A2 1.0415e-05
127 *2490:A1 *295:80 6.44898e-05
128 *2492:A1 *2476:A2 1.39839e-05
129 *2492:A1 *295:80 2.76726e-05
130 *2492:A1 *295:96 7.86207e-05
131 *2492:A1 *295:112 1.86195e-05
132 *2496:A1 *3213:I 0
133 *2502:A1 *2502:A2 2.31089e-05
134 *2679:A1 *295:145 0.000872513
135 *2761:A1 *2502:A2 4.03366e-06
136 *2761:A1 *295:166 2.7968e-05
137 *2953:D *295:67 0.000163092
138 *3029:D *295:63 0
139 *215:10 *295:145 0.000216087
140 *215:10 *295:149 0.000562979
*RES
1 *2387:ZN *295:4 4.5 
2 *295:4 *295:10 9.72 
3 *295:10 *2496:A2 11.52 
4 *295:10 *295:27 4.5 
5 *295:27 *2495:A2 4.5 
6 *295:27 *3213:I 8.01 
7 *295:4 *3232:I 7.74 
8 *3213:I *295:55 4.95 
9 *295:55 *295:63 22.68 
10 *295:63 *295:67 4.5 
11 *295:67 *2472:A2 4.5 
12 *295:67 *295:76 10.71 
13 *295:76 *295:80 5.49 
14 *295:80 *2490:A2 4.5 
15 *295:80 *2489:A2 6.12 
16 *295:76 *295:96 1.35 
17 *295:96 *295:98 4.5 
18 *295:98 *2492:A2 4.5 
19 *295:98 *2476:A2 7.11 
20 *295:96 *295:112 2.43 
21 *295:112 *2491:A2 9 
22 *295:112 *2475:A2 9.63 
23 *295:63 *2471:A2 15.93 
24 *295:55 *295:145 8.82 
25 *295:145 *295:149 6.93 
26 *295:149 *2502:A2 4.95 
27 *295:149 *295:166 18.27 
28 *295:166 *2484:A2 4.5 
29 *295:166 *2483:A2 7.2 
30 *295:145 *2501:A2 9.45 
*END

*D_NET *296 0.0264754
*CONN
*I *2389:A2 I *D gf180mcu_fd_sc_mcu7t5v0__nor2_1
*I *2401:A2 I *D gf180mcu_fd_sc_mcu7t5v0__nor2_1
*I *2395:A2 I *D gf180mcu_fd_sc_mcu7t5v0__nor2_1
*I *2398:A2 I *D gf180mcu_fd_sc_mcu7t5v0__nor2_1
*I *2404:A2 I *D gf180mcu_fd_sc_mcu7t5v0__nor2_1
*I *2456:A2 I *D gf180mcu_fd_sc_mcu7t5v0__nor2_1
*I *2447:A2 I *D gf180mcu_fd_sc_mcu7t5v0__nor2_1
*I *2453:A2 I *D gf180mcu_fd_sc_mcu7t5v0__nor2_1
*I *2450:A2 I *D gf180mcu_fd_sc_mcu7t5v0__nor2_1
*I *2392:A2 I *D gf180mcu_fd_sc_mcu7t5v0__nor2_1
*I *3212:I I *D gf180mcu_fd_sc_mcu7t5v0__buf_8
*I *2388:Z O *D gf180mcu_fd_sc_mcu7t5v0__or2_2
*CAP
1 *2389:A2 0
2 *2401:A2 0.000171833
3 *2395:A2 0
4 *2398:A2 0
5 *2404:A2 0
6 *2456:A2 0
7 *2447:A2 0
8 *2453:A2 0
9 *2450:A2 9.92929e-05
10 *2392:A2 7.35087e-05
11 *3212:I 0.00017243
12 *2388:Z 0
13 *296:112 0.000353181
14 *296:105 0.000181348
15 *296:70 0.000384565
16 *296:62 0.000329941
17 *296:58 0.00033076
18 *296:52 0.000430983
19 *296:50 0.000544843
20 *296:39 0.000682306
21 *296:35 0.00258266
22 *296:4 0.00254624
23 *2392:A2 *2389:A1 4.76605e-05
24 *2392:A2 *2520:A2 0.000365445
25 *2401:A2 *2458:A2 0.000398933
26 *2401:A2 *694:35 0
27 *2450:A2 *2450:A1 7.37195e-06
28 *2450:A2 *2452:A1 3.55118e-05
29 *2450:A2 *2576:A1 1.19491e-05
30 *2450:A2 *2583:B 0
31 *3212:I *499:20 0
32 *296:35 *2380:A2 4.93098e-06
33 *296:35 *2389:A1 2.31089e-05
34 *296:35 *2390:A1 6.317e-05
35 *296:35 *2391:A1 0
36 *296:35 *2391:A2 3.75875e-05
37 *296:35 *2767:A1 0.000603311
38 *296:35 *2767:A3 0.000131256
39 *296:35 *2768:A1 0.000371456
40 *296:35 *2768:A2 0.000283705
41 *296:35 *2772:A2 0.00137477
42 *296:35 *2773:A1 6.02974e-05
43 *296:35 *2773:A2 2.08301e-05
44 *296:35 *2814:B2 0
45 *296:35 *3175:I 8.13291e-05
46 *296:35 *499:20 0.000125409
47 *296:35 *503:8 0.000159886
48 *296:35 *503:10 0.00011019
49 *296:35 *709:25 3.34727e-05
50 *296:35 *720:12 8.22657e-05
51 *296:35 *720:14 3.13946e-05
52 *296:35 *723:78 5.25991e-05
53 *296:35 *726:12 0
54 *296:35 *726:16 0.000143661
55 *296:35 *781:14 6.13096e-05
56 *296:39 *2389:A1 5.14056e-05
57 *296:39 *2391:A1 4.83522e-05
58 *296:39 *2520:A2 6.02974e-05
59 *296:39 *828:10 0
60 *296:50 *2394:A1 0.000158695
61 *296:50 *2400:A1 0.000957671
62 *296:50 *3175:I 6.26041e-05
63 *296:50 *694:41 0.000248817
64 *296:50 *708:100 0.000275309
65 *296:50 *774:14 7.00854e-05
66 *296:50 *828:10 4.10656e-05
67 *296:50 *878:10 0.000385445
68 *296:52 *2458:A2 4.86859e-05
69 *296:52 *694:41 0.000425829
70 *296:58 *2406:A1 0.000212085
71 *296:58 *2455:A2 0
72 *296:58 *2458:A1 9.74266e-05
73 *296:58 *3101:I 5.00136e-06
74 *296:58 *694:41 0.000423797
75 *296:62 *385:24 0.00251799
76 *296:62 *774:14 0.00248927
77 *296:70 *2447:A1 2.37695e-05
78 *296:70 *2452:A1 3.81737e-05
79 *296:70 *2452:A2 0
80 *296:70 *2574:A1 0.000237866
81 *296:70 *2576:A1 0
82 *296:70 *385:24 0.000182206
83 *296:70 *774:14 0.000538918
84 *296:70 *875:38 0
85 *296:112 *2398:A1 3.98088e-05
86 *296:112 *2401:A1 0
87 *296:112 *2458:A2 2.89427e-06
88 *296:112 *694:35 0
89 *2382:A1 *3212:I 1.73225e-05
90 *2382:B1 *3212:I 0.000487345
91 *2382:B1 *296:35 0.00014711
92 *2386:A1 *296:35 1.51308e-05
93 *2388:A1 *296:35 0.000532006
94 *2454:B *296:58 7.55765e-06
95 *2664:A1 *296:35 5.20389e-05
96 *2766:B *296:35 0
97 *2769:A1 *296:35 0
98 *2925:D *296:35 5.30888e-06
99 *3039:D *296:35 0.000786322
100 *268:23 *296:35 1.69023e-06
101 *268:45 *3212:I 3.08083e-05
102 *290:8 *296:35 0.00102599
103 *294:8 *3212:I 0.000116565
*RES
1 *2388:Z *296:4 4.5 
2 *296:4 *3212:I 6.48 
3 *296:4 *296:35 42.03 
4 *296:35 *296:39 1.62 
5 *296:39 *2392:A2 5.49 
6 *296:39 *296:50 12.15 
7 *296:50 *296:52 2.43 
8 *296:52 *296:58 7.92 
9 *296:58 *296:62 10.89 
10 *296:62 *296:70 7.65 
11 *296:70 *2450:A2 5.4 
12 *296:70 *2453:A2 4.5 
13 *296:62 *2447:A2 9 
14 *296:58 *2456:A2 4.5 
15 *296:52 *2404:A2 9 
16 *296:50 *296:105 4.5 
17 *296:105 *2398:A2 4.5 
18 *296:105 *296:112 1.17 
19 *296:112 *2395:A2 4.5 
20 *296:112 *2401:A2 15.48 
21 *296:35 *2389:A2 4.5 
*END

*D_NET *297 0.0019052
*CONN
*I *2391:A1 I *D gf180mcu_fd_sc_mcu7t5v0__nor2_1
*I *2389:ZN O *D gf180mcu_fd_sc_mcu7t5v0__nor2_1
*CAP
1 *2391:A1 0.000462198
2 *2389:ZN 0.000462198
3 *2391:A1 *2390:A2 3.21686e-05
4 *2391:A1 *2391:A2 4.04145e-05
5 *2391:A1 *2814:B2 0.00048483
6 *2391:A1 *709:8 4.80547e-05
7 *2393:B *2391:A1 3.97987e-05
8 *2396:B *2391:A1 0.000187305
9 *2925:D *2391:A1 9.98816e-05
10 *296:35 *2391:A1 0
11 *296:39 *2391:A1 4.83522e-05
*RES
1 *2389:ZN *2391:A1 13.77 
*END

*D_NET *298 0.0011531
*CONN
*I *2391:A2 I *D gf180mcu_fd_sc_mcu7t5v0__nor2_1
*I *2390:ZN O *D gf180mcu_fd_sc_mcu7t5v0__oai21_1
*CAP
1 *2391:A2 0.000129878
2 *2390:ZN 0.000129878
3 *2391:A2 *2390:A1 0.000365445
4 *2391:A2 *2390:A2 0.00015547
5 *2391:A1 *2391:A2 4.04145e-05
6 *2925:D *2391:A2 0.000294431
7 *296:35 *2391:A2 3.75875e-05
*RES
1 *2390:ZN *2391:A2 10.89 
*END

*D_NET *299 0.00284033
*CONN
*I *2394:A1 I *D gf180mcu_fd_sc_mcu7t5v0__nor2_1
*I *2392:ZN O *D gf180mcu_fd_sc_mcu7t5v0__nor2_1
*CAP
1 *2394:A1 0.00077471
2 *2392:ZN 0.00077471
3 *2394:A1 *2397:A2 0
4 *2394:A1 *2400:A1 0.000545283
5 *2394:A1 *2520:A2 0.000156001
6 *2394:A1 *2522:A1 0
7 *2394:A1 *3110:I 0
8 *2394:A1 *3126:I 0
9 *2394:A1 *774:14 0.000409673
10 *2394:A1 *878:10 2.12557e-05
11 *2927:D *2394:A1 0
12 *296:50 *2394:A1 0.000158695
*RES
1 *2392:ZN *2394:A1 25.29 
*END

*D_NET *300 0.000694827
*CONN
*I *2394:A2 I *D gf180mcu_fd_sc_mcu7t5v0__nor2_1
*I *2393:ZN O *D gf180mcu_fd_sc_mcu7t5v0__oai21_1
*CAP
1 *2394:A2 0.000139489
2 *2393:ZN 0.000139489
3 *2394:A2 *2393:A1 5.12372e-05
4 *2394:A2 *2393:A2 0.00015547
5 *2394:A2 *2400:A1 2.24153e-05
6 *2394:A2 *781:170 0.000186725
*RES
1 *2393:ZN *2394:A2 10.62 
*END

*D_NET *301 0.000863673
*CONN
*I *2397:A1 I *D gf180mcu_fd_sc_mcu7t5v0__nor2_1
*I *2395:ZN O *D gf180mcu_fd_sc_mcu7t5v0__nor2_1
*CAP
1 *2397:A1 0.000397522
2 *2395:ZN 0.000397522
3 *2397:A1 *2395:A1 0
4 *2397:A1 *2458:A2 0
5 *2397:A1 *3110:I 1.20515e-05
6 *2397:A1 *694:29 0
7 *2397:A1 *694:35 4.08995e-05
8 *2397:A1 *901:14 1.56779e-05
9 *2926:D *2397:A1 0
*RES
1 *2395:ZN *2397:A1 20.7 
*END

*D_NET *302 0.0032369
*CONN
*I *2397:A2 I *D gf180mcu_fd_sc_mcu7t5v0__nor2_1
*I *2396:ZN O *D gf180mcu_fd_sc_mcu7t5v0__oai21_1
*CAP
1 *2397:A2 0.000519348
2 *2396:ZN 0.000519348
3 *2397:A2 *2393:A1 0.000445488
4 *2397:A2 *3126:I 0.000106536
5 *2397:A2 *3188:I 0.000496776
6 *2397:A2 *694:29 0
7 *2397:A2 *709:65 0.000903105
8 *2397:A2 *886:8 2.05328e-05
9 *2394:A1 *2397:A2 0
10 *2926:D *2397:A2 0.00012269
11 *2927:D *2397:A2 0.000103075
*RES
1 *2396:ZN *2397:A2 24.57 
*END

*D_NET *303 0.0059659
*CONN
*I *2400:A1 I *D gf180mcu_fd_sc_mcu7t5v0__nor2_1
*I *2398:ZN O *D gf180mcu_fd_sc_mcu7t5v0__nor2_1
*CAP
1 *2400:A1 0.000883136
2 *2398:ZN 0.000883136
3 *2400:A1 *2393:A2 2.64352e-05
4 *2400:A1 *2395:A1 0.000429245
5 *2400:A1 *2827:C1 0.00100264
6 *2400:A1 *709:8 0
7 *2400:A1 *781:170 7.85405e-05
8 *2400:A1 *828:10 0.000228675
9 *2400:A1 *897:6 9.04462e-05
10 *2393:B *2400:A1 0
11 *2394:A1 *2400:A1 0.000545283
12 *2394:A2 *2400:A1 2.24153e-05
13 *2396:B *2400:A1 0
14 *2399:B *2400:A1 1.59306e-05
15 *2927:D *2400:A1 0
16 *2928:D *2400:A1 0.000166843
17 *244:233 *2400:A1 0.000635495
18 *296:50 *2400:A1 0.000957671
*RES
1 *2398:ZN *2400:A1 31.32 
*END

*D_NET *304 0.00115083
*CONN
*I *2400:A2 I *D gf180mcu_fd_sc_mcu7t5v0__nor2_1
*I *2399:ZN O *D gf180mcu_fd_sc_mcu7t5v0__oai21_1
*CAP
1 *2400:A2 0.000177784
2 *2399:ZN 0.000177784
3 *2400:A2 *2399:A1 0.000353269
4 *2400:A2 *2827:C1 0.000159335
5 *2400:A2 *2928:CLK 0.000192205
6 *2400:A2 *601:16 9.04539e-05
*RES
1 *2399:ZN *2400:A2 11.52 
*END

*D_NET *305 0.00164433
*CONN
*I *2403:A1 I *D gf180mcu_fd_sc_mcu7t5v0__nor2_1
*I *2401:ZN O *D gf180mcu_fd_sc_mcu7t5v0__nor2_1
*CAP
1 *2403:A1 0.00052576
2 *2401:ZN 0.00052576
3 *2403:A1 *2402:A1 3.96404e-05
4 *2403:A1 *2406:A2 0
5 *2403:A1 *2458:A2 0.000339776
6 *2403:A1 *781:128 8.69576e-05
7 *2403:A1 *905:12 2.40933e-06
8 *2405:B *2403:A1 5.38599e-05
9 *2457:B *2403:A1 0
10 *2948:D *2403:A1 7.01651e-05
*RES
1 *2401:ZN *2403:A1 13.59 
*END

*D_NET *306 0.00156817
*CONN
*I *2403:A2 I *D gf180mcu_fd_sc_mcu7t5v0__nor2_1
*I *2402:ZN O *D gf180mcu_fd_sc_mcu7t5v0__oai21_1
*CAP
1 *2403:A2 0.000202271
2 *2402:ZN 0.000202271
3 *2403:A2 *2402:A1 8.25831e-05
4 *2403:A2 *2402:A2 0.000283705
5 *2403:A2 *781:128 2.18454e-05
6 *2402:B *2403:A2 8.32982e-05
7 *2405:B *2403:A2 0.000348361
8 *2929:D *2403:A2 0.000343834
*RES
1 *2402:ZN *2403:A2 11.7 
*END

*D_NET *307 0.00068732
*CONN
*I *2406:A1 I *D gf180mcu_fd_sc_mcu7t5v0__nor2_1
*I *2404:ZN O *D gf180mcu_fd_sc_mcu7t5v0__nor2_1
*CAP
1 *2406:A1 0.000141235
2 *2404:ZN 0.000141235
3 *2406:A1 *2458:A1 0.000192764
4 *296:58 *2406:A1 0.000212085
*RES
1 *2404:ZN *2406:A1 19.8 
*END

*D_NET *308 0.00134575
*CONN
*I *2406:A2 I *D gf180mcu_fd_sc_mcu7t5v0__nor2_1
*I *2405:ZN O *D gf180mcu_fd_sc_mcu7t5v0__oai21_1
*CAP
1 *2406:A2 0.000424612
2 *2405:ZN 0.000424612
3 *2406:A2 *2443:A1 0.000151427
4 *2406:A2 *2948:CLK 0.000121739
5 *2406:A2 *905:12 0.00015997
6 *2403:A1 *2406:A2 0
7 *2930:D *2406:A2 4.23003e-05
8 *2948:D *2406:A2 2.10899e-05
*RES
1 *2405:ZN *2406:A2 13.23 
*END

*D_NET *309 0.0022099
*CONN
*I *2408:B I *D gf180mcu_fd_sc_mcu7t5v0__aoi21_1
*I *2407:ZN O *D gf180mcu_fd_sc_mcu7t5v0__oai21_1
*CAP
1 *2408:B 0.000407745
2 *2407:ZN 0.000407745
3 *2408:B *2407:A1 0.000151417
4 *2408:B *2408:A2 0.000318234
5 *2408:B *2931:CLK 1.86887e-06
6 *2931:D *2408:B 0.000827878
7 *227:8 *2408:B 6.65362e-05
8 *227:10 *2408:B 2.84815e-05
*RES
1 *2407:ZN *2408:B 22.32 
*END

*D_NET *310 0.00120672
*CONN
*I *2410:B I *D gf180mcu_fd_sc_mcu7t5v0__aoi21_1
*I *2409:ZN O *D gf180mcu_fd_sc_mcu7t5v0__oai21_1
*CAP
1 *2410:B 0.000250963
2 *2409:ZN 0.000250963
3 *2410:B *2410:A2 1.79237e-05
4 *2410:B *2469:A1 2.17583e-05
5 *2410:B *2843:A1 9.20698e-05
6 *2410:B *779:163 3.0388e-05
7 *2410:B *952:10 0.000190481
8 *2410:A1 *2410:B 1.61174e-05
9 *2932:D *2410:B 7.41762e-05
10 *244:480 *2410:B 0.000261875
*RES
1 *2409:ZN *2410:B 21.15 
*END

*D_NET *311 0.00246797
*CONN
*I *2413:A1 I *D gf180mcu_fd_sc_mcu7t5v0__nor2_1
*I *2411:ZN O *D gf180mcu_fd_sc_mcu7t5v0__nor2_1
*CAP
1 *2413:A1 0.000359796
2 *2411:ZN 0.000359796
3 *2413:A1 *2411:A1 0.000161479
4 *2413:A1 *2414:A1 7.20168e-05
5 *2413:A1 *2416:A1 3.3721e-05
6 *2413:A1 *2417:A1 0.000343992
7 *2413:A1 *2422:A1 0.000646148
8 *2413:A1 *3111:I 0.000227873
9 *2413:A1 *385:26 3.73774e-06
10 *2413:A1 *689:24 0
11 *2413:A1 *690:34 0.000216035
12 *2413:A1 *778:79 4.33758e-05
*RES
1 *2411:ZN *2413:A1 22.86 
*END

*D_NET *312 0.000761276
*CONN
*I *2413:A2 I *D gf180mcu_fd_sc_mcu7t5v0__nor2_1
*I *2412:ZN O *D gf180mcu_fd_sc_mcu7t5v0__oai21_1
*CAP
1 *2413:A2 0.000224633
2 *2412:ZN 0.000224633
3 *2413:A2 *2416:A1 0.000264644
4 *2412:B *2413:A2 3.98088e-05
5 *2933:D *2413:A2 7.55765e-06
*RES
1 *2412:ZN *2413:A2 10.8 
*END

*D_NET *313 0.00581208
*CONN
*I *2416:A1 I *D gf180mcu_fd_sc_mcu7t5v0__nor2_1
*I *2414:ZN O *D gf180mcu_fd_sc_mcu7t5v0__nor2_1
*CAP
1 *2416:A1 0.00063658
2 *2414:ZN 0.00063658
3 *2416:A1 *2412:A1 0.000212085
4 *2416:A1 *2416:A2 8.5878e-05
5 *2416:A1 *2419:A1 0.000453197
6 *2416:A1 *2422:A1 7.59619e-05
7 *2416:A1 *2422:A2 2.08301e-05
8 *2416:A1 *2818:B2 5.69444e-05
9 *2416:A1 *2866:A1 0.000194879
10 *2416:A1 *2933:CLK 0.00027566
11 *2416:A1 *3111:I 0.000125111
12 *2416:A1 *3127:I 0.000327261
13 *2416:A1 *689:24 0.00116244
14 *2416:A1 *690:34 5.24971e-05
15 *2416:A1 *710:12 0.000364897
16 *2416:A1 *710:14 9.85004e-05
17 *2416:A1 *779:49 0.000382704
18 *2416:A1 *908:12 7.71021e-06
19 *2413:A1 *2416:A1 3.3721e-05
20 *2413:A2 *2416:A1 0.000264644
21 *3180:I *2416:A1 0.000344002
*RES
1 *2414:ZN *2416:A1 38.79 
*END

*D_NET *314 0.00148363
*CONN
*I *2416:A2 I *D gf180mcu_fd_sc_mcu7t5v0__nor2_1
*I *2415:ZN O *D gf180mcu_fd_sc_mcu7t5v0__oai21_1
*CAP
1 *2416:A2 0.000110493
2 *2415:ZN 0.000110493
3 *2416:A2 *2866:A1 8.12023e-06
4 *2416:A2 *689:24 4.09058e-06
5 *2416:A2 *690:34 0.000296365
6 *2416:A2 *779:49 0.000591244
7 *2416:A2 *908:12 0.000276946
8 *2416:A1 *2416:A2 8.5878e-05
*RES
1 *2415:ZN *2416:A2 20.52 
*END

*D_NET *315 0.00592115
*CONN
*I *2419:A1 I *D gf180mcu_fd_sc_mcu7t5v0__nor2_1
*I *2417:ZN O *D gf180mcu_fd_sc_mcu7t5v0__nor2_1
*CAP
1 *2419:A1 0.00085795
2 *2417:ZN 0.00085795
3 *2419:A1 *2819:A2 8.51138e-05
4 *2419:A1 *2843:C1 0.00103626
5 *2419:A1 *2844:A2 0.000474995
6 *2419:A1 *2866:A1 0
7 *2419:A1 *3089:I 0.000582088
8 *2419:A1 *3179:I 6.27096e-05
9 *2419:A1 *601:96 0.00085661
10 *2419:A1 *689:24 0.00038922
11 *2419:A1 *710:8 5.53168e-05
12 *2419:A1 *710:12 2.63343e-05
13 *2419:A1 *779:36 4.6613e-06
14 *2419:A1 *779:84 1.35695e-05
15 *2419:A1 *888:10 4.24792e-05
16 *2416:A1 *2419:A1 0.000453197
17 *3180:I *2419:A1 0.000122697
*RES
1 *2417:ZN *2419:A1 29.34 
*END

*D_NET *316 0.000498277
*CONN
*I *2419:A2 I *D gf180mcu_fd_sc_mcu7t5v0__nor2_1
*I *2418:ZN O *D gf180mcu_fd_sc_mcu7t5v0__oai21_1
*CAP
1 *2419:A2 0.000149707
2 *2418:ZN 0.000149707
3 *2419:A2 *601:85 6.68593e-05
4 *2419:A2 *779:84 0.000109559
5 *2935:D *2419:A2 2.24448e-05
*RES
1 *2418:ZN *2419:A2 10.26 
*END

*D_NET *317 0.00364959
*CONN
*I *2422:A1 I *D gf180mcu_fd_sc_mcu7t5v0__nor2_1
*I *2420:ZN O *D gf180mcu_fd_sc_mcu7t5v0__nor2_1
*CAP
1 *2422:A1 0.000477142
2 *2420:ZN 0.000477142
3 *2422:A1 *2414:A1 0.000133761
4 *2422:A1 *2414:A2 2.9119e-05
5 *2422:A1 *2420:A2 4.83522e-05
6 *2422:A1 *2933:CLK 7.91275e-05
7 *2422:A1 *3127:I 4.29353e-05
8 *2422:A1 *690:34 0.000251952
9 *2422:A1 *710:14 0.000113344
10 *2422:A1 *778:79 0.000561378
11 *2422:A1 *778:87 0.000713225
12 *2413:A1 *2422:A1 0.000646148
13 *2416:A1 *2422:A1 7.59619e-05
*RES
1 *2420:ZN *2422:A1 24.84 
*END

*D_NET *318 0.00315749
*CONN
*I *2422:A2 I *D gf180mcu_fd_sc_mcu7t5v0__nor2_1
*I *2421:ZN O *D gf180mcu_fd_sc_mcu7t5v0__oai21_1
*CAP
1 *2422:A2 0.000801864
2 *2421:ZN 0.000801864
3 *2422:A2 *2426:A1 0.000169908
4 *2422:A2 *2436:A1 0
5 *2422:A2 *2436:A2 0.000336819
6 *2422:A2 *2933:CLK 0.00027566
7 *2422:A2 *2936:D 0.00037349
8 *2422:A2 *710:14 3.55867e-05
9 *2422:A2 *710:18 2.32821e-05
10 *2416:A1 *2422:A2 2.08301e-05
11 *2436:B *2422:A2 0.000177834
12 *3180:I *2422:A2 0.000140351
*RES
1 *2421:ZN *2422:A2 25.2 
*END

*D_NET *319 0.00349055
*CONN
*I *2425:A1 I *D gf180mcu_fd_sc_mcu7t5v0__nor2_1
*I *2423:ZN O *D gf180mcu_fd_sc_mcu7t5v0__nor2_1
*CAP
1 *2425:A1 0.000554751
2 *2423:ZN 0.000554751
3 *2425:A1 *2426:A1 0
4 *2425:A1 *2436:A1 0.00103626
5 *2425:A1 *2437:A2 2.77926e-05
6 *2425:A1 *2818:C2 0.000354143
7 *2425:A1 *2941:D 0.000893051
8 *3161:I *2425:A1 6.98097e-05
*RES
1 *2423:ZN *2425:A1 24.39 
*END

*D_NET *320 0.000438555
*CONN
*I *2425:A2 I *D gf180mcu_fd_sc_mcu7t5v0__nor2_1
*I *2424:ZN O *D gf180mcu_fd_sc_mcu7t5v0__oai21_1
*CAP
1 *2425:A2 3.62045e-05
2 *2424:ZN 3.62045e-05
3 *2425:A2 *2424:A2 0.000109323
4 *2425:A2 *2818:C2 0.00018838
5 *3161:I *2425:A2 6.84426e-05
6 *244:387 *2425:A2 0
*RES
1 *2424:ZN *2425:A2 19.17 
*END

*D_NET *321 0.00279647
*CONN
*I *2428:A1 I *D gf180mcu_fd_sc_mcu7t5v0__nor2_1
*I *2426:ZN O *D gf180mcu_fd_sc_mcu7t5v0__nor2_1
*CAP
1 *2428:A1 0.000523565
2 *2426:ZN 0.000523565
3 *2428:A1 *2437:A1 0.000369175
4 *2428:A1 *2938:D 4.53515e-05
5 *2428:A1 *3160:I 4.29496e-05
6 *2428:A1 *710:18 8.6117e-05
7 *2428:A1 *710:22 0.000968756
8 *2428:A1 *778:91 5.69319e-05
9 *2428:A1 *778:99 0.000180054
*RES
1 *2426:ZN *2428:A1 15.3 
*END

*D_NET *322 0.0015308
*CONN
*I *2428:A2 I *D gf180mcu_fd_sc_mcu7t5v0__nor2_1
*I *2427:ZN O *D gf180mcu_fd_sc_mcu7t5v0__oai21_1
*CAP
1 *2428:A2 0.0003357
2 *2427:ZN 0.0003357
3 *2428:A2 *2434:A1 0
4 *2428:A2 *2435:A1 0.000351718
5 *2428:A2 *781:60 0.000294431
6 *2427:B *2428:A2 3.57187e-05
7 *3159:I *2428:A2 0.000177534
*RES
1 *2427:ZN *2428:A2 22.14 
*END

*D_NET *323 0.00166594
*CONN
*I *2431:A1 I *D gf180mcu_fd_sc_mcu7t5v0__nor2_1
*I *2429:ZN O *D gf180mcu_fd_sc_mcu7t5v0__nor2_1
*CAP
1 *2431:A1 0.000406704
2 *2429:ZN 0.000406704
3 *2431:A1 *2567:A1 0.000101016
4 *2431:A1 *2567:A2 4.83522e-05
5 *2431:A1 *2939:CLK 3.57187e-05
6 *2431:A1 *3229:I 0.000111446
7 *2431:A1 *385:24 4.21357e-05
8 *2431:A1 *778:127 0.000487336
9 *2431:A1 *778:129 1.61174e-05
10 *3183:I *2431:A1 1.0415e-05
*RES
1 *2429:ZN *2431:A1 21.6 
*END

*D_NET *324 0.00191819
*CONN
*I *2431:A2 I *D gf180mcu_fd_sc_mcu7t5v0__nor2_1
*I *2430:ZN O *D gf180mcu_fd_sc_mcu7t5v0__oai21_1
*CAP
1 *2431:A2 0.000584362
2 *2430:ZN 0.000584362
3 *2431:A2 *2430:A1 0.000294421
4 *2431:A2 *2866:C1 5.30751e-05
5 *2431:A2 *3094:I 0
6 *2431:A2 *3229:I 0
7 *2431:A2 *781:53 0.000107554
8 *2431:A2 *781:60 0.000294421
*RES
1 *2430:ZN *2431:A2 23.22 
*END

*D_NET *325 0.00539739
*CONN
*I *2434:A1 I *D gf180mcu_fd_sc_mcu7t5v0__nor2_1
*I *2432:ZN O *D gf180mcu_fd_sc_mcu7t5v0__nor2_1
*CAP
1 *2434:A1 0.00131898
2 *2432:ZN 0.00131898
3 *2434:A1 *2432:A2 2.55518e-05
4 *2434:A1 *2435:A1 0
5 *2434:A1 *2851:B2 0.000601531
6 *2434:A1 *2859:B2 0.000496576
7 *2434:A1 *2866:A1 0.000283529
8 *2434:A1 *2879:C2 0
9 *2434:A1 *2937:CLK 0.000319274
10 *2434:A1 *2940:CLK 0.000365445
11 *2434:A1 *601:41 3.25976e-05
12 *2434:A1 *710:24 5.31501e-05
13 *2434:A1 *710:30 8.73714e-05
14 *2434:A1 *778:110 3.85778e-05
15 *2434:A1 *868:47 4.34597e-05
16 *2434:A1 *889:8 0.000183662
17 *2428:A2 *2434:A1 0
18 *2940:D *2434:A1 0.000228706
19 *3159:I *2434:A1 0
*RES
1 *2432:ZN *2434:A1 32.04 
*END

*D_NET *326 0.00254928
*CONN
*I *2434:A2 I *D gf180mcu_fd_sc_mcu7t5v0__nor2_1
*I *2433:ZN O *D gf180mcu_fd_sc_mcu7t5v0__oai21_1
*CAP
1 *2434:A2 0.000445564
2 *2433:ZN 0.000445564
3 *2434:A2 *2424:A2 0.000623152
4 *2434:A2 *2433:A1 0.000185737
5 *2434:A2 *2433:A2 0.000722636
6 *2434:A2 *2879:C2 1.61136e-05
7 *2434:A2 *2940:CLK 1.84476e-05
8 *2940:D *2434:A2 9.20679e-05
*RES
1 *2433:ZN *2434:A2 22.5 
*END

*D_NET *327 0.00341939
*CONN
*I *2437:A1 I *D gf180mcu_fd_sc_mcu7t5v0__nor2_1
*I *2435:ZN O *D gf180mcu_fd_sc_mcu7t5v0__nor2_1
*CAP
1 *2437:A1 0.000611369
2 *2435:ZN 0.000611369
3 *2437:A1 *2426:A1 0
4 *2437:A1 *2436:A1 0
5 *2437:A1 *2937:CLK 0.000320271
6 *2437:A1 *3160:I 0.000444513
7 *2437:A1 *710:18 0.000207343
8 *2437:A1 *710:22 0.000161242
9 *2437:A1 *710:24 0.000229402
10 *2437:A1 *778:99 0.000107811
11 *2428:A1 *2437:A1 0.000369175
12 *3161:I *2437:A1 0.000356899
*RES
1 *2435:ZN *2437:A1 25.47 
*END

*D_NET *328 0.000427465
*CONN
*I *2437:A2 I *D gf180mcu_fd_sc_mcu7t5v0__nor2_1
*I *2436:ZN O *D gf180mcu_fd_sc_mcu7t5v0__oai21_1
*CAP
1 *2437:A2 3.58509e-05
2 *2436:ZN 3.58509e-05
3 *2437:A2 *2426:A1 0.00032797
4 *2425:A1 *2437:A2 2.77926e-05
*RES
1 *2436:ZN *2437:A2 18.81 
*END

*D_NET *329 0.0102205
*CONN
*I *2440:A1 I *D gf180mcu_fd_sc_mcu7t5v0__nor2_1
*I *2438:ZN O *D gf180mcu_fd_sc_mcu7t5v0__nor2_1
*CAP
1 *2440:A1 0.0013622
2 *2438:ZN 0.0013622
3 *2440:A1 *2402:A1 2.67352e-05
4 *2440:A1 *2405:A2 0
5 *2440:A1 *2429:A1 0.000152367
6 *2440:A1 *2446:A2 0.00230961
7 *2440:A1 *2567:A1 9.4836e-05
8 *2440:A1 *2567:A3 0.000484943
9 *2440:A1 *2851:A1 8.13196e-05
10 *2440:A1 *2859:A1 0
11 *2440:A1 *2868:A1 1.31385e-05
12 *2440:A1 *2942:CLK 0
13 *2440:A1 *2943:CLK 9.85004e-05
14 *2440:A1 *3229:I 0.00129448
15 *2440:A1 *709:71 0
16 *2440:A1 *778:133 3.3721e-05
17 *2440:A1 *781:128 0.000329542
18 *2402:B *2440:A1 0.000530105
19 *2929:D *2440:A1 4.93145e-06
20 *2943:D *2440:A1 0.000361923
21 *244:241 *2440:A1 6.4382e-05
22 *244:243 *2440:A1 0.000262851
23 *244:245 *2440:A1 0.00072417
24 *244:251 *2440:A1 0.000628504
*RES
1 *2438:ZN *2440:A1 36.63 
*END

*D_NET *330 0.00242404
*CONN
*I *2440:A2 I *D gf180mcu_fd_sc_mcu7t5v0__nor2_1
*I *2439:ZN O *D gf180mcu_fd_sc_mcu7t5v0__oai21_1
*CAP
1 *2440:A2 0.000654353
2 *2439:ZN 0.000654353
3 *2440:A2 *2866:A1 4.42624e-05
4 *2440:A2 *2879:C2 8.53303e-05
5 *2440:A2 *3165:I 6.79568e-05
6 *2440:A2 *601:29 0.000155194
7 *2440:A2 *694:13 6.07502e-05
8 *2440:A2 *889:8 0.000294431
9 *244:345 *2440:A2 0.00037097
10 *244:370 *2440:A2 3.64412e-05
*RES
1 *2439:ZN *2440:A2 23.49 
*END

*D_NET *331 0.00556976
*CONN
*I *2443:A1 I *D gf180mcu_fd_sc_mcu7t5v0__nor2_1
*I *2441:ZN O *D gf180mcu_fd_sc_mcu7t5v0__nor2_1
*CAP
1 *2443:A1 0.00100572
2 *2441:ZN 0.00100572
3 *2443:A1 *2448:A1 9.4913e-06
4 *2443:A1 *2851:C1 3.15236e-05
5 *2443:A1 *2859:A1 6.26074e-05
6 *2443:A1 *2930:CLK 0.00175738
7 *2443:A1 *2948:CLK 0.000175108
8 *2443:A1 *3182:I 0.00110914
9 *2443:A1 *707:48 0
10 *2443:A1 *709:71 9.72182e-06
11 *2443:A1 *709:84 0.000215897
12 *2443:A1 *905:12 3.60275e-05
13 *2406:A2 *2443:A1 0.000151427
14 *2946:D *2443:A1 0
*RES
1 *2441:ZN *2443:A1 29.16 
*END

*D_NET *332 0.00334659
*CONN
*I *2443:A2 I *D gf180mcu_fd_sc_mcu7t5v0__nor2_1
*I *2442:ZN O *D gf180mcu_fd_sc_mcu7t5v0__oai21_1
*CAP
1 *2443:A2 0.000504269
2 *2442:ZN 0.000504269
3 *2443:A2 *2851:A1 0.000253418
4 *2443:A2 *2859:A1 0.000456356
5 *2443:A2 *2860:A2 0
6 *2443:A2 *709:84 1.84833e-05
7 *2443:A2 *781:37 3.55118e-05
8 *2443:A2 *781:43 0.000879843
9 *2443:A2 *781:45 0.000427492
10 *2443:A2 *781:47 0.000219114
11 *244:332 *2443:A2 4.78286e-05
*RES
1 *2442:ZN *2443:A2 23.49 
*END

*D_NET *333 0.00151814
*CONN
*I *2446:A1 I *D gf180mcu_fd_sc_mcu7t5v0__nor2_1
*I *2444:ZN O *D gf180mcu_fd_sc_mcu7t5v0__nor2_1
*CAP
1 *2446:A1 0.000333425
2 *2444:ZN 0.000333425
3 *2446:A1 *3182:I 0.000201744
4 *2446:A1 *385:24 0.000649549
5 *2446:A1 *707:30 0
6 *2446:A1 *778:133 0
*RES
1 *2444:ZN *2446:A1 21.42 
*END

*D_NET *334 0.00400454
*CONN
*I *2446:A2 I *D gf180mcu_fd_sc_mcu7t5v0__nor2_1
*I *2445:ZN O *D gf180mcu_fd_sc_mcu7t5v0__oai21_1
*CAP
1 *2446:A2 0.000437872
2 *2445:ZN 0.000437872
3 *2446:A2 *2859:C1 8.84705e-05
4 *2446:A2 *2944:D 0.000466026
5 *2446:A2 *781:85 0.000264683
6 *2440:A1 *2446:A2 0.00230961
*RES
1 *2445:ZN *2446:A2 24.66 
*END

*D_NET *335 0.000425214
*CONN
*I *2449:A1 I *D gf180mcu_fd_sc_mcu7t5v0__nor2_1
*I *2447:ZN O *D gf180mcu_fd_sc_mcu7t5v0__nor2_1
*CAP
1 *2449:A1 4.86217e-05
2 *2447:ZN 4.86217e-05
3 *2449:A1 *3184:I 0
4 *2449:A1 *774:14 0.00032797
*RES
1 *2447:ZN *2449:A1 18.81 
*END

*D_NET *336 0.00417765
*CONN
*I *2449:A2 I *D gf180mcu_fd_sc_mcu7t5v0__nor2_1
*I *2448:ZN O *D gf180mcu_fd_sc_mcu7t5v0__oai21_1
*CAP
1 *2449:A2 0.000565451
2 *2448:ZN 0.000565451
3 *2449:A2 *2452:A2 0.00123692
4 *2449:A2 *2454:A1 0.000290223
5 *2449:A2 *2454:A2 0.00069849
6 *2449:A2 *707:6 0.000127164
7 *2449:A2 *899:12 0
8 *2945:D *2449:A2 0.000202713
9 *2947:D *2449:A2 0.000491235
*RES
1 *2448:ZN *2449:A2 25.29 
*END

*D_NET *337 0.00115812
*CONN
*I *2452:A1 I *D gf180mcu_fd_sc_mcu7t5v0__nor2_1
*I *2450:ZN O *D gf180mcu_fd_sc_mcu7t5v0__nor2_1
*CAP
1 *2452:A1 0.000368329
2 *2450:ZN 0.000368329
3 *2452:A1 *2574:A1 0.000195368
4 *2452:A1 *2576:A1 2.37695e-05
5 *2452:A1 *2576:A3 1.26644e-05
6 *2452:A1 *872:8 0.000115973
7 *2450:A2 *2452:A1 3.55118e-05
8 *296:70 *2452:A1 3.81737e-05
*RES
1 *2450:ZN *2452:A1 11.97 
*END

*D_NET *338 0.00404574
*CONN
*I *2452:A2 I *D gf180mcu_fd_sc_mcu7t5v0__nor2_1
*I *2451:ZN O *D gf180mcu_fd_sc_mcu7t5v0__oai21_1
*CAP
1 *2452:A2 0.00100299
2 *2451:ZN 0.00100299
3 *2452:A2 *2458:A1 3.29477e-05
4 *2452:A2 *2574:A1 3.22348e-05
5 *2452:A2 *3108:I 0.000129469
6 *2452:A2 *385:24 0.000107542
7 *2452:A2 *694:41 8.53918e-05
8 *2452:A2 *898:10 0.000151417
9 *2452:A2 *899:12 3.01487e-05
10 *2449:A2 *2452:A2 0.00123692
11 *2454:B *2452:A2 0.000101516
12 *2930:D *2452:A2 4.55655e-05
13 *2945:D *2452:A2 5.11036e-05
14 *2946:D *2452:A2 3.55118e-05
15 *296:70 *2452:A2 0
*RES
1 *2451:ZN *2452:A2 27.63 
*END

*D_NET *339 0.00234901
*CONN
*I *2455:A1 I *D gf180mcu_fd_sc_mcu7t5v0__nor2_1
*I *2453:ZN O *D gf180mcu_fd_sc_mcu7t5v0__nor2_1
*CAP
1 *2455:A1 0.00019274
2 *2453:ZN 0.00019274
3 *2455:A1 *2455:A2 7.73245e-05
4 *2455:A1 *2586:A2 0
5 *2455:A1 *2588:A2 1.07374e-05
6 *2455:A1 *3184:I 0.0011743
7 *2455:A1 *373:23 0.000487206
8 *2947:D *2455:A1 0.000213957
*RES
1 *2453:ZN *2455:A1 22.14 
*END

*D_NET *340 0.00212474
*CONN
*I *2455:A2 I *D gf180mcu_fd_sc_mcu7t5v0__nor2_1
*I *2454:ZN O *D gf180mcu_fd_sc_mcu7t5v0__oai21_1
*CAP
1 *2455:A2 0.000685449
2 *2454:ZN 0.000685449
3 *2455:A2 *2533:I 8.43025e-06
4 *2455:A2 *3101:I 5.90451e-05
5 *2455:A2 *3118:I 3.53964e-05
6 *2455:A2 *3184:I 6.04817e-05
7 *2455:A2 *373:23 1.00082e-05
8 *2455:A2 *700:17 9.57249e-05
9 *2455:A2 *774:14 0.000290516
10 *2455:A1 *2455:A2 7.73245e-05
11 *2947:D *2455:A2 0.000116914
12 *296:58 *2455:A2 0
*RES
1 *2454:ZN *2455:A2 23.85 
*END

*D_NET *341 0.00124604
*CONN
*I *2458:A1 I *D gf180mcu_fd_sc_mcu7t5v0__nor2_1
*I *2456:ZN O *D gf180mcu_fd_sc_mcu7t5v0__nor2_1
*CAP
1 *2458:A1 0.000461449
2 *2456:ZN 0.000461449
3 *2458:A1 *2404:A1 0
4 *2406:A1 *2458:A1 0.000192764
5 *2452:A2 *2458:A1 3.29477e-05
6 *2454:B *2458:A1 0
7 *244:277 *2458:A1 0
8 *296:58 *2458:A1 9.74266e-05
*RES
1 *2456:ZN *2458:A1 21.6 
*END

*D_NET *342 0.00208117
*CONN
*I *2458:A2 I *D gf180mcu_fd_sc_mcu7t5v0__nor2_1
*I *2457:ZN O *D gf180mcu_fd_sc_mcu7t5v0__oai21_1
*CAP
1 *2458:A2 0.00064544
2 *2457:ZN 0.00064544
3 *2397:A1 *2458:A2 0
4 *2401:A2 *2458:A2 0.000398933
5 *2403:A1 *2458:A2 0.000339776
6 *296:52 *2458:A2 4.86859e-05
7 *296:112 *2458:A2 2.89427e-06
*RES
1 *2457:ZN *2458:A2 23.4 
*END

*D_NET *343 0.000258712
*CONN
*I *2461:A1 I *D gf180mcu_fd_sc_mcu7t5v0__nor2_1
*I *2459:ZN O *D gf180mcu_fd_sc_mcu7t5v0__nor2_1
*CAP
1 *2461:A1 0.000112486
2 *2459:ZN 0.000112486
3 *2461:A1 *2459:A1 1.07374e-05
4 *2461:A1 *2468:A1 1.56862e-05
5 *2461:A1 *2949:CLK 2.65444e-06
6 *2949:D *2461:A1 4.6613e-06
*RES
1 *2459:ZN *2461:A1 9.99 
*END

*D_NET *344 0.00166908
*CONN
*I *2461:A2 I *D gf180mcu_fd_sc_mcu7t5v0__nor2_1
*I *2460:ZN O *D gf180mcu_fd_sc_mcu7t5v0__oai21_1
*CAP
1 *2461:A2 0.000273028
2 *2460:ZN 0.000273028
3 *2461:A2 *2464:A1 0.000703423
4 *2461:A2 *2949:CLK 0
5 *2461:A2 *778:65 0.000320262
6 *2949:D *2461:A2 9.93381e-05
*RES
1 *2460:ZN *2461:A2 21.15 
*END

*D_NET *345 0.00398245
*CONN
*I *2464:A1 I *D gf180mcu_fd_sc_mcu7t5v0__nor2_1
*I *2462:ZN O *D gf180mcu_fd_sc_mcu7t5v0__nor2_1
*CAP
1 *2464:A1 0.000713946
2 *2462:ZN 0.000713946
3 *2464:A1 *2460:A1 6.84825e-06
4 *2464:A1 *2460:A2 0.000233295
5 *2464:A1 *2466:A2 0.000156001
6 *2464:A1 *2469:A1 0.000255645
7 *2464:A1 *2469:A2 9.82968e-06
8 *2464:A1 *2470:A2 0.000125903
9 *2464:A1 *2949:CLK 0
10 *2464:A1 *713:46 8.76996e-05
11 *2464:A1 *779:161 0.000254207
12 *2464:A1 *779:163 0.000493963
13 *2460:B *2464:A1 3.98088e-05
14 *2461:A2 *2464:A1 0.000703423
15 *2463:B *2464:A1 4.34121e-06
16 *2949:D *2464:A1 2.40587e-06
17 *2952:D *2464:A1 5.68787e-05
18 *244:491 *2464:A1 0.00010161
19 *244:513 *2464:A1 2.26987e-05
*RES
1 *2462:ZN *2464:A1 27.09 
*END

*D_NET *346 0.000979704
*CONN
*I *2464:A2 I *D gf180mcu_fd_sc_mcu7t5v0__nor2_1
*I *2463:ZN O *D gf180mcu_fd_sc_mcu7t5v0__oai21_1
*CAP
1 *2464:A2 0.000124629
2 *2463:ZN 0.000124629
3 *2464:A2 *2409:A1 0.000101615
4 *2464:A2 *779:148 0
5 *2464:A2 *779:159 0.000102753
6 *2463:B *2464:A2 0.000526079
*RES
1 *2463:ZN *2464:A2 19.89 
*END

*D_NET *347 0.00205161
*CONN
*I *2467:A1 I *D gf180mcu_fd_sc_mcu7t5v0__nor2_1
*I *2465:ZN O *D gf180mcu_fd_sc_mcu7t5v0__nor2_1
*CAP
1 *2467:A1 0.000323665
2 *2465:ZN 0.000323665
3 *2467:A1 *2460:A1 0
4 *2467:A1 *2670:A2 0
5 *2467:A1 *2951:CLK 0.000101615
6 *2467:A1 *713:53 1.27836e-05
7 *2467:A1 *778:55 0.00104909
8 *2467:A1 *778:59 0.000109323
9 *2670:A1 *2467:A1 0
10 *2951:D *2467:A1 0.000131469
*RES
1 *2465:ZN *2467:A1 21.96 
*END

*D_NET *348 0.000477472
*CONN
*I *2467:A2 I *D gf180mcu_fd_sc_mcu7t5v0__nor2_1
*I *2466:ZN O *D gf180mcu_fd_sc_mcu7t5v0__oai21_1
*CAP
1 *2467:A2 9.72131e-05
2 *2466:ZN 9.72131e-05
3 *2467:A2 *2818:A1 0.000212085
4 *244:491 *2467:A2 3.0177e-06
5 *244:513 *2467:A2 6.7943e-05
*RES
1 *2466:ZN *2467:A2 19.17 
*END

*D_NET *349 0.000765271
*CONN
*I *2470:A1 I *D gf180mcu_fd_sc_mcu7t5v0__nor2_1
*I *2468:ZN O *D gf180mcu_fd_sc_mcu7t5v0__nor2_1
*CAP
1 *2470:A1 0.000199688
2 *2468:ZN 0.000199688
3 *2470:A1 *2468:A1 0.000177559
4 *2470:A1 *2949:CLK 7.77173e-05
5 *2470:A1 *778:73 0.000110619
6 *2949:D *2470:A1 0
*RES
1 *2468:ZN *2470:A1 11.16 
*END

*D_NET *350 0.00150772
*CONN
*I *2470:A2 I *D gf180mcu_fd_sc_mcu7t5v0__nor2_1
*I *2469:ZN O *D gf180mcu_fd_sc_mcu7t5v0__oai21_1
*CAP
1 *2470:A2 0.000154234
2 *2469:ZN 0.000154234
3 *2470:A2 *2460:A1 0.000671844
4 *2470:A2 *2460:A2 1.86263e-05
5 *2464:A1 *2470:A2 0.000125903
6 *2952:D *2470:A2 0.000382875
*RES
1 *2469:ZN *2470:A2 20.61 
*END

*D_NET *351 0.0033846
*CONN
*I *2472:B I *D gf180mcu_fd_sc_mcu7t5v0__aoi21_1
*I *2471:ZN O *D gf180mcu_fd_sc_mcu7t5v0__oai21_1
*CAP
1 *2472:B 0.000273424
2 *2471:ZN 0.000273424
3 *2472:B *2471:A1 9.84908e-05
4 *2472:B *2858:B1 0.000815819
5 *2472:B *2860:A1 0.000182662
6 *2472:B *502:67 0.000109311
7 *2472:B *645:22 0.00126368
8 *2472:B *694:223 0.000327996
9 *2472:B *917:19 3.97987e-05
*RES
1 *2471:ZN *2472:B 23.67 
*END

*D_NET *352 0.0014348
*CONN
*I *2474:B I *D gf180mcu_fd_sc_mcu7t5v0__aoi211_1
*I *2473:ZN O *D gf180mcu_fd_sc_mcu7t5v0__nor2_1
*CAP
1 *2474:B 0.000112881
2 *2473:ZN 0.000112881
3 *2474:B *2473:A1 0.000108466
4 *2474:B *2954:CLK 3.55744e-05
5 *2474:B *784:69 0.000536348
6 *2476:A1 *2474:B 0.000528649
*RES
1 *2473:ZN *2474:B 20.16 
*END

*D_NET *353 0.00163733
*CONN
*I *2476:B I *D gf180mcu_fd_sc_mcu7t5v0__aoi211_1
*I *2475:ZN O *D gf180mcu_fd_sc_mcu7t5v0__nor2_1
*CAP
1 *2476:B 0.000519965
2 *2475:ZN 0.000519965
3 *2476:B *2475:A1 0.00015997
4 *2476:B *756:50 0.000378061
5 *2508:A1 *2476:B 5.93689e-05
*RES
1 *2475:ZN *2476:B 22.86 
*END

*D_NET *354 0.00725555
*CONN
*I *2478:B I *D gf180mcu_fd_sc_mcu7t5v0__aoi211_1
*I *2477:ZN O *D gf180mcu_fd_sc_mcu7t5v0__nor2_1
*CAP
1 *2478:B 0.000775005
2 *2477:ZN 0.000775005
3 *2478:B *2479:A1 0.000626711
4 *2478:B *2479:A2 0.000162645
5 *2478:B *2498:B 0.000119192
6 *2478:B *2826:B1 0.00168615
7 *2478:B *2826:B2 1.84368e-05
8 *2478:B *2834:A2 0.000200109
9 *2478:B *2834:C1 0.00131665
10 *2478:B *3141:I 6.12173e-05
11 *2478:B *372:86 0.000425761
12 *2478:B *690:34 0.000119299
13 *2478:B *778:16 1.39839e-05
14 *2478:B *778:23 6.15948e-05
15 *2478:B *778:38 0.000154454
16 *2478:B *779:24 0.000515801
17 *2478:B *943:10 0.000223546
*RES
1 *2477:ZN *2478:B 30.69 
*END

*D_NET *355 0.00273624
*CONN
*I *2480:B I *D gf180mcu_fd_sc_mcu7t5v0__aoi211_1
*I *2479:ZN O *D gf180mcu_fd_sc_mcu7t5v0__nor2_1
*CAP
1 *2480:B 0.000300491
2 *2479:ZN 0.000300491
3 *2480:B *2480:C 0.000479291
4 *2480:B *2826:B2 0.000276883
5 *2480:B *2878:B2 1.71215e-05
6 *2480:B *3181:I 9.85004e-05
7 *2480:B *656:14 0.000320238
8 *2480:B *756:187 0.000378118
9 *2480:A1 *2480:B 0.000127548
10 *2498:A1 *2480:B 6.12689e-05
11 *2957:D *2480:B 0.000169524
12 *2966:D *2480:B 0.000206762
*RES
1 *2479:ZN *2480:B 22.68 
*END

*D_NET *356 0.00151482
*CONN
*I *2482:B I *D gf180mcu_fd_sc_mcu7t5v0__aoi211_1
*I *2481:ZN O *D gf180mcu_fd_sc_mcu7t5v0__nor2_1
*CAP
1 *2482:B 0.000217733
2 *2481:ZN 0.000217733
3 *2482:B *2834:B2 0.00035741
4 *2482:B *778:38 2.38983e-05
5 *2482:B *778:47 4.78445e-05
6 *2480:A1 *2482:B 0.000156101
7 *2967:D *2482:B 0.000494104
*RES
1 *2481:ZN *2482:B 12.06 
*END

*D_NET *357 0.00258392
*CONN
*I *2484:B I *D gf180mcu_fd_sc_mcu7t5v0__aoi211_1
*I *2483:ZN O *D gf180mcu_fd_sc_mcu7t5v0__nor2_1
*CAP
1 *2484:B 0.000179595
2 *2483:ZN 0.000179595
3 *2484:B *2474:C 0.00146017
4 *2484:B *2676:A3 0.000559004
5 *2484:A1 *2484:B 0.000197431
6 *295:166 *2484:B 8.12856e-06
*RES
1 *2483:ZN *2484:B 21.96 
*END

*D_NET *358 0.0061916
*CONN
*I *2486:B I *D gf180mcu_fd_sc_mcu7t5v0__aoi211_1
*I *2485:ZN O *D gf180mcu_fd_sc_mcu7t5v0__nor2_1
*CAP
1 *2486:B 0.00107757
2 *2485:ZN 0.00107757
3 *2486:B *2502:C 0.000148576
4 *2486:B *2678:B 1.67196e-05
5 *2486:B *2756:A2 0
6 *2486:B *2757:A2 0
7 *2486:B *2757:B1 0.000674335
8 *2486:B *2758:B 0.000255759
9 *2486:B *2759:A1 0.000167693
10 *2486:B *2761:A2 0.000519873
11 *2486:B *2761:B 0
12 *2486:B *3134:I 0.000127736
13 *2486:B *499:20 0
14 *2486:B *502:26 0.000684683
15 *2486:B *503:36 0.000730102
16 *2486:B *552:16 3.14363e-05
17 *2486:B *920:45 4.90438e-05
18 *2502:A1 *2486:B 2.00709e-05
19 *2761:A1 *2486:B 0.000284927
20 *3032:D *2486:B 0.000294431
21 *3033:D *2486:B 2.93836e-05
22 *295:166 *2486:B 1.68677e-06
*RES
1 *2485:ZN *2486:B 30.15 
*END

*D_NET *359 0.0010977
*CONN
*I *2488:B I *D gf180mcu_fd_sc_mcu7t5v0__aoi211_1
*I *2487:ZN O *D gf180mcu_fd_sc_mcu7t5v0__nor2_1
*CAP
1 *2488:B 0.000273181
2 *2487:ZN 0.000273181
3 *2488:B *496:24 0.000276264
4 *2488:B *784:135 0
5 *2953:D *2488:B 0.000275077
*RES
1 *2487:ZN *2488:B 20.79 
*END

*D_NET *360 0.000377145
*CONN
*I *2490:B I *D gf180mcu_fd_sc_mcu7t5v0__aoi211_1
*I *2489:ZN O *D gf180mcu_fd_sc_mcu7t5v0__nor2_1
*CAP
1 *2490:B 6.82384e-05
2 *2489:ZN 6.82384e-05
3 *2490:B *2489:A1 0.000213957
4 *2490:B *2858:B2 2.67104e-05
*RES
1 *2489:ZN *2490:B 9.63 
*END

*D_NET *361 0.000290374
*CONN
*I *2492:B I *D gf180mcu_fd_sc_mcu7t5v0__aoi211_1
*I *2491:ZN O *D gf180mcu_fd_sc_mcu7t5v0__nor2_1
*CAP
1 *2492:B 7.76572e-05
2 *2491:ZN 7.76572e-05
3 *2492:B *2490:C 1.71254e-05
4 *2492:B *756:50 0
5 *295:112 *2492:B 0.000117934
*RES
1 *2491:ZN *2492:B 18.99 
*END

*D_NET *362 0.000712486
*CONN
*I *2494:B I *D gf180mcu_fd_sc_mcu7t5v0__aoi211_1
*I *2493:ZN O *D gf180mcu_fd_sc_mcu7t5v0__nor2_1
*CAP
1 *2494:B 0.000102659
2 *2493:ZN 0.000102659
3 *2494:B *2493:A1 9.04462e-05
4 *2494:B *2494:A2 0.000405984
5 *2494:B *778:316 1.07374e-05
6 *2471:A2 *2494:B 0
*RES
1 *2493:ZN *2494:B 19.26 
*END

*D_NET *363 0.00104872
*CONN
*I *2496:B I *D gf180mcu_fd_sc_mcu7t5v0__aoi211_1
*I *2495:ZN O *D gf180mcu_fd_sc_mcu7t5v0__nor2_1
*CAP
1 *2496:B 7.32564e-06
2 *2495:ZN 7.32564e-06
3 *2496:B *783:24 0.000536348
4 *2496:A2 *2496:B 0.000463466
5 *295:10 *2496:B 3.42509e-05
*RES
1 *2495:ZN *2496:B 19.35 
*END

*D_NET *364 0.00108831
*CONN
*I *2498:B I *D gf180mcu_fd_sc_mcu7t5v0__aoi211_1
*I *2497:ZN O *D gf180mcu_fd_sc_mcu7t5v0__nor2_1
*CAP
1 *2498:B 0.000141015
2 *2497:ZN 0.000141015
3 *2498:B *3147:I 0.000291047
4 *2498:B *778:23 0.000294431
5 *2498:B *958:10 0.000101615
6 *2478:B *2498:B 0.000119192
*RES
1 *2497:ZN *2498:B 19.8 
*END

*D_NET *365 0.00195682
*CONN
*I *2500:B I *D gf180mcu_fd_sc_mcu7t5v0__aoi211_1
*I *2499:ZN O *D gf180mcu_fd_sc_mcu7t5v0__nor2_1
*CAP
1 *2500:B 0.000302279
2 *2499:ZN 0.000302279
3 *2500:B *2484:C 2.4439e-05
4 *2500:B *2834:C2 0
5 *2500:B *2959:CLK 0.000127736
6 *2500:B *3144:I 0
7 *2500:B *372:86 0.000119182
8 *2500:B *778:253 0.0010809
9 *2472:A1 *2500:B 0
*RES
1 *2499:ZN *2500:B 21.78 
*END

*D_NET *366 0.000513974
*CONN
*I *2502:B I *D gf180mcu_fd_sc_mcu7t5v0__aoi211_1
*I *2501:ZN O *D gf180mcu_fd_sc_mcu7t5v0__nor2_1
*CAP
1 *2502:B 6.13219e-05
2 *2501:ZN 6.13219e-05
3 *2502:B *372:68 3.16214e-05
4 *2502:B *756:179 5.99943e-05
5 *2968:D *2502:B 0.000299714
*RES
1 *2501:ZN *2502:B 18.99 
*END

*D_NET *367 0.000583413
*CONN
*I *2504:B I *D gf180mcu_fd_sc_mcu7t5v0__aoi211_1
*I *2503:ZN O *D gf180mcu_fd_sc_mcu7t5v0__nor2_1
*CAP
1 *2504:B 0.000145185
2 *2503:ZN 0.000145185
3 *2504:B *2867:C1 1.76743e-05
4 *2504:B *778:371 1.478e-05
5 *2504:B *778:377 0.000228859
6 *2504:B *782:121 3.17297e-05
*RES
1 *2503:ZN *2504:B 10.26 
*END

*D_NET *368 0.00185687
*CONN
*I *2506:B I *D gf180mcu_fd_sc_mcu7t5v0__aoi211_1
*I *2505:ZN O *D gf180mcu_fd_sc_mcu7t5v0__nor2_1
*CAP
1 *2506:B 0.000478768
2 *2505:ZN 0.000478768
3 *2506:B *2299:I 1.68677e-06
4 *2506:B *2322:A3 4.26496e-05
5 *2506:B *2505:A1 0.000160708
6 *2506:B *2886:B 6.95119e-05
7 *2506:B *3145:I 0.000128437
8 *2506:B *756:104 0.000396859
9 *2506:A1 *2506:B 7.84041e-05
10 *2970:D *2506:B 2.1082e-05
*RES
1 *2505:ZN *2506:B 22.32 
*END

*D_NET *369 0.00322277
*CONN
*I *2508:B I *D gf180mcu_fd_sc_mcu7t5v0__aoi211_1
*I *2507:ZN O *D gf180mcu_fd_sc_mcu7t5v0__nor2_1
*CAP
1 *2508:B 0.00063626
2 *2507:ZN 0.00063626
3 *2508:B *2301:I 3.07839e-05
4 *2508:B *2322:A3 5.64467e-05
5 *2508:B *2508:C 9.17162e-06
6 *2508:B *2858:C2 0.000298055
7 *2508:B *706:65 0
8 *2508:B *756:104 7.21425e-05
9 *2508:B *778:420 0.000189578
10 *2508:B *778:429 0.000215233
11 *2508:B *940:12 7.73282e-05
12 *2322:A2 *2508:B 2.76761e-05
13 *2504:A1 *2508:B 0.000414452
14 *2971:D *2508:B 0.000547037
15 *251:12 *2508:B 1.23447e-05
*RES
1 *2507:ZN *2508:B 15.66 
*END

*D_NET *370 0.00243907
*CONN
*I *2510:B I *D gf180mcu_fd_sc_mcu7t5v0__aoi211_1
*I *2509:ZN O *D gf180mcu_fd_sc_mcu7t5v0__nor2_1
*CAP
1 *2510:B 0.000359969
2 *2509:ZN 0.000359969
3 *2510:B *2510:A2 6.50202e-06
4 *2510:B *2765:A1 0.000221928
5 *2510:B *2765:A3 0.000169524
6 *2510:B *3107:I 0
7 *2510:B *694:223 0.000234634
8 *2510:B *756:116 0.000520467
9 *2510:B *783:92 7.28469e-05
10 *2972:D *2510:B 8.53098e-05
11 *3037:D *2510:B 0.000374902
12 *251:30 *2510:B 3.30181e-05
*RES
1 *2509:ZN *2510:B 22.68 
*END

*D_NET *371 0.044707
*CONN
*I *3214:I I *D gf180mcu_fd_sc_mcu7t5v0__buf_4
*I *2622:B I *D gf180mcu_fd_sc_mcu7t5v0__oai31_1
*I *2798:B I *D gf180mcu_fd_sc_mcu7t5v0__oai211_1
*I *2585:A2 I *D gf180mcu_fd_sc_mcu7t5v0__nand3_1
*I *2513:A2 I *D gf180mcu_fd_sc_mcu7t5v0__nand2_1
*I *2779:A2 I *D gf180mcu_fd_sc_mcu7t5v0__nand2_1
*I *2785:A2 I *D gf180mcu_fd_sc_mcu7t5v0__nand2_1
*I *2772:B I *D gf180mcu_fd_sc_mcu7t5v0__oai21_1
*I *2511:ZN O *D gf180mcu_fd_sc_mcu7t5v0__nor2_1
*CAP
1 *3214:I 0.000216562
2 *2622:B 0
3 *2798:B 1.95035e-05
4 *2585:A2 0.000318169
5 *2513:A2 0
6 *2779:A2 0
7 *2785:A2 0.0014059
8 *2772:B 0.000157647
9 *2511:ZN 3.14693e-05
10 *371:83 0.00152753
11 *371:68 0.00140259
12 *371:49 0.00177758
13 *371:45 0.00210619
14 *371:35 0.00300187
15 *371:22 0.00268363
16 *371:8 0.00168038
17 *2585:A2 *2513:A1 8.49143e-05
18 *2585:A2 *2531:A1 0
19 *2585:A2 *2531:B 0
20 *2585:A2 *2585:A1 0.000525354
21 *2585:A2 *2586:A2 0.000231442
22 *2585:A2 *3172:I 0.000375166
23 *2585:A2 *373:23 0
24 *2585:A2 *700:19 0.000186096
25 *2585:A2 *700:49 4.50142e-05
26 *2772:B *2842:B2 0.00032797
27 *2772:B *2860:A2 0.000289795
28 *2772:B *3093:I 1.70787e-05
29 *2772:B *3229:I 0
30 *2772:B *692:25 0.000166798
31 *2785:A2 *2778:A2 0.000417707
32 *2785:A2 *2785:A1 0
33 *2785:A2 *2786:A1 2.84815e-05
34 *2785:A2 *2786:A2 1.70787e-05
35 *2785:A2 *2789:A1 0
36 *2785:A2 *2790:A1 9.22066e-05
37 *2785:A2 *2794:A3 0.00181997
38 *2785:A2 *2797:A2 0
39 *2785:A2 *2797:A3 0.000168479
40 *2785:A2 *2801:A1 0.00114217
41 *2785:A2 *3043:CLK 0.000201318
42 *2785:A2 *3189:I 0.000220216
43 *2785:A2 *570:16 0
44 *2785:A2 *576:12 0.000450714
45 *2785:A2 *708:30 0.000120277
46 *2785:A2 *962:27 2.78496e-05
47 *2798:B *2798:C 3.01487e-05
48 *2798:B *965:34 9.04462e-05
49 *3214:I *2496:C 1.86249e-05
50 *3214:I *2847:A2 2.57437e-05
51 *3214:I *784:16 9.30128e-05
52 *371:8 *2511:A1 0.000154819
53 *371:8 *2512:A2 0.000217216
54 *371:8 *3074:CLK 2.3015e-05
55 *371:22 *2375:I1 1.0415e-05
56 *371:22 *2496:C 6.82913e-05
57 *371:22 *2847:A2 9.39019e-06
58 *371:22 *2860:A2 0.000241944
59 *371:22 *2870:B2 0.000722898
60 *371:22 *372:24 1.50885e-05
61 *371:22 *692:25 0.000414195
62 *371:22 *693:29 6.73147e-05
63 *371:22 *721:18 0.00014037
64 *371:22 *723:68 0
65 *371:35 *2619:A1 0.000274674
66 *371:35 *2621:A1 0.000524579
67 *371:35 *2621:A2 0.00037349
68 *371:35 *486:20 0.00107072
69 *371:35 *691:6 3.97987e-05
70 *371:35 *691:25 0.000271813
71 *371:35 *692:6 7.20334e-05
72 *371:35 *692:25 0.000142874
73 *371:35 *756:447 0.000445253
74 *371:45 *2632:A3 0.000385663
75 *371:45 *2667:A2 7.25591e-05
76 *371:45 *3088:CLK 5.90703e-05
77 *371:45 *3098:I 4.45184e-06
78 *371:45 *3156:I 0.000764607
79 *371:45 *463:10 0.000183465
80 *371:45 *486:20 0.000217509
81 *371:45 *723:18 0.000566943
82 *371:45 *736:51 9.04462e-05
83 *371:45 *736:63 8.99346e-05
84 *371:45 *737:19 0.000219095
85 *371:45 *737:30 0.000320771
86 *371:49 *2796:A3 0.0001563
87 *371:49 *3156:I 8.99346e-05
88 *371:49 *583:21 3.6338e-05
89 *371:49 *708:20 0.00011554
90 *371:49 *964:16 4.24724e-05
91 *371:49 *965:34 2.70694e-05
92 *371:68 *2783:B 0.000106536
93 *371:68 *2796:A3 0.00017832
94 *371:68 *2797:A3 4.09377e-05
95 *371:68 *2801:A1 0.000157716
96 *371:68 *583:8 2.8107e-05
97 *371:68 *708:20 3.72786e-05
98 *371:68 *723:24 0.000620139
99 *371:83 *2531:B 0
100 *371:83 *2783:B 7.10237e-05
101 *371:83 *2799:A1 3.22122e-05
102 *371:83 *373:12 9.92405e-05
103 *371:83 *373:237 0.00048793
104 *371:83 *373:248 0.000761425
105 *371:83 *373:259 0.000876037
106 *371:83 *373:272 0.00104024
107 *371:83 *700:19 3.01487e-05
108 *371:83 *700:27 0.000309999
109 *371:83 *708:14 0
110 *371:83 *708:20 0.000143485
111 *2345:A2 *371:22 0.000794614
112 *2346:A2 *371:22 0.00113711
113 *2348:A1 *3214:I 6.68593e-05
114 *2348:A1 *371:22 0
115 *2348:A2 *3214:I 6.2083e-06
116 *2373:A2 *371:22 0.000228444
117 *2374:A2 *371:22 3.73774e-06
118 *2381:A1 *371:22 9.20698e-05
119 *2622:A1 *371:35 0.000683266
120 *2622:A1 *371:45 0.000177559
121 *2796:A2 *371:68 3.22122e-05
122 *2923:D *371:35 0.000254652
123 *2924:D *371:35 0.000436469
124 *2996:D *2585:A2 0.000942029
125 *3043:D *2785:A2 1.36885e-05
126 *3046:D *2798:B 2.08301e-05
127 *3087:D *371:22 3.48255e-05
128 *10:55 *3214:I 2.14748e-05
129 *251:30 *3214:I 6.28197e-05
130 *268:45 *371:22 0.00204803
131 *284:36 *371:22 0.000343873
*RES
1 *2511:ZN *371:8 9.63 
2 *371:8 *371:22 25.29 
3 *371:22 *2772:B 11.43 
4 *371:22 *371:35 19.35 
5 *371:35 *371:45 21.42 
6 *371:45 *371:49 6.39 
7 *371:49 *2785:A2 29.34 
8 *371:49 *371:68 2.79 
9 *371:68 *2779:A2 4.5 
10 *371:68 *371:83 21.69 
11 *371:83 *2513:A2 4.5 
12 *371:83 *2585:A2 19.17 
13 *371:45 *2798:B 9.27 
14 *371:35 *2622:B 4.5 
15 *371:8 *3214:I 10.8 
*END

*D_NET *372 0.0585389
*CONN
*I *2750:C I *D gf180mcu_fd_sc_mcu7t5v0__aoi211_1
*I *2742:C I *D gf180mcu_fd_sc_mcu7t5v0__aoi211_1
*I *2738:C I *D gf180mcu_fd_sc_mcu7t5v0__aoi211_1
*I *2761:C I *D gf180mcu_fd_sc_mcu7t5v0__aoi211_1
*I *2718:C I *D gf180mcu_fd_sc_mcu7t5v0__aoi211_1
*I *2714:C I *D gf180mcu_fd_sc_mcu7t5v0__aoi211_1
*I *2710:C I *D gf180mcu_fd_sc_mcu7t5v0__aoi211_1
*I *2703:A1 I *D gf180mcu_fd_sc_mcu7t5v0__nor2_1
*I *2707:A1 I *D gf180mcu_fd_sc_mcu7t5v0__nor2_1
*I *2695:A1 I *D gf180mcu_fd_sc_mcu7t5v0__nor2_1
*I *2699:A1 I *D gf180mcu_fd_sc_mcu7t5v0__nor2_1
*I *2691:A1 I *D gf180mcu_fd_sc_mcu7t5v0__nor2_1
*I *2726:C I *D gf180mcu_fd_sc_mcu7t5v0__aoi211_1
*I *2768:A1 I *D gf180mcu_fd_sc_mcu7t5v0__nor2_1
*I *2621:A1 I *D gf180mcu_fd_sc_mcu7t5v0__nor3_1
*I *2512:Z O *D gf180mcu_fd_sc_mcu7t5v0__or2_1
*CAP
1 *2750:C 0
2 *2742:C 0
3 *2738:C 0.000487548
4 *2761:C 0
5 *2718:C 0
6 *2714:C 0.000406703
7 *2710:C 0
8 *2703:A1 0.000179679
9 *2707:A1 0
10 *2695:A1 4.93978e-05
11 *2699:A1 0
12 *2691:A1 0.00013726
13 *2726:C 2.87084e-05
14 *2768:A1 0.000486259
15 *2621:A1 0.00131452
16 *2512:Z 0
17 *372:208 0.00135006
18 *372:129 0.00100019
19 *372:123 0.00134769
20 *372:119 0.00050071
21 *372:115 0.000856158
22 *372:107 0.000671827
23 *372:105 0.000711305
24 *372:103 0.00075177
25 *372:86 0.00213889
26 *372:68 0.00223711
27 *372:62 0.0014973
28 *372:60 0.000572857
29 *372:24 0.00232856
30 *372:4 0.00110064
31 *2621:A1 *2378:A1 0.00181062
32 *2621:A1 *2619:A1 0.000444513
33 *2621:A1 *2622:A2 0.000236717
34 *2621:A1 *2682:A2 0.000404379
35 *2621:A1 *2770:A1 0.000914908
36 *2621:A1 *486:20 2.40009e-05
37 *2621:A1 *499:20 8.65555e-05
38 *2621:A1 *693:8 2.37143e-05
39 *2621:A1 *756:447 0.00171143
40 *2621:A1 *781:14 4.01532e-05
41 *2691:A1 *2691:A2 9.7763e-05
42 *2695:A1 *2684:I 2.39462e-05
43 *2703:A1 *2703:A2 7.0691e-05
44 *2703:A1 *2706:B2 2.40587e-06
45 *2714:C *2671:A2 2.56839e-05
46 *2714:C *2709:B2 0.000150744
47 *2714:C *2710:B 7.42354e-05
48 *2714:C *2714:A2 0.000100603
49 *2714:C *3022:CLK 2.89427e-06
50 *2714:C *931:8 2.36813e-05
51 *2714:C *931:12 0.000151201
52 *2726:C *2725:B1 2.08301e-05
53 *2726:C *2726:B 3.01487e-05
54 *2738:C *2674:A3 0.000694928
55 *2738:C *2737:A1 1.8464e-05
56 *2738:C *2738:B 7.84068e-05
57 *2738:C *502:172 3.39564e-05
58 *2738:C *784:46 0.000518142
59 *2768:A1 *2284:I 0.000382875
60 *2768:A1 *2767:A3 5.31432e-05
61 *2768:A1 *597:38 0.000182206
62 *2768:A1 *781:14 5.22248e-06
63 *372:24 *2496:C 0
64 *372:24 *2839:A2 1.22629e-05
65 *372:24 *2847:A2 0.000356769
66 *372:60 *2496:C 4.92543e-05
67 *372:60 *2750:B 0.000259997
68 *372:60 *3030:CLK 0.000479291
69 *372:60 *3074:CLK 0.00095453
70 *372:60 *3142:I 0.00038016
71 *372:60 *703:48 1.07374e-05
72 *372:60 *756:148 0
73 *372:60 *784:16 0
74 *372:68 *2497:A1 0.00117431
75 *372:68 *2501:A1 1.39839e-05
76 *372:68 *2757:B1 9.04462e-05
77 *372:68 *502:18 4.0614e-05
78 *372:68 *502:22 3.01487e-05
79 *372:68 *503:36 0.000405522
80 *372:68 *503:49 4.0103e-05
81 *372:68 *756:179 0
82 *372:86 *2473:A1 0
83 *372:86 *2474:C 7.70621e-05
84 *372:86 *2481:A1 2.91609e-05
85 *372:86 *2484:C 0.000112462
86 *372:86 *2497:A1 9.11538e-05
87 *372:86 *2668:A2 5.94987e-05
88 *372:86 *2725:B2 0.000121081
89 *372:86 *2726:A2 9.04462e-05
90 *372:86 *2761:A2 7.772e-05
91 *372:86 *2761:B 1.18477e-05
92 *372:86 *2834:A2 0.00049408
93 *372:86 *2834:B1 7.65946e-06
94 *372:86 *2834:C1 0.000273521
95 *372:86 *2834:C2 0.000294431
96 *372:86 *2959:CLK 0.000118234
97 *372:86 *503:40 9.39061e-05
98 *372:86 *531:10 0.000490105
99 *372:86 *756:235 0.000205459
100 *372:86 *778:38 9.84908e-05
101 *372:86 *779:142 6.10987e-05
102 *372:86 *779:148 1.73663e-05
103 *372:86 *912:12 1.496e-05
104 *372:103 *2473:A1 0.000177924
105 *372:103 *2686:B 0.000735021
106 *372:103 *2719:A1 3.19635e-05
107 *372:103 *2725:A2 6.44696e-05
108 *372:103 *2725:B1 0.000272677
109 *372:103 *502:206 9.40953e-05
110 *372:103 *528:10 0.000399127
111 *372:105 *2473:A1 0.000107581
112 *372:105 *2686:B 0.000435991
113 *372:105 *930:27 5.34652e-05
114 *372:107 *2686:B 0.000135666
115 *372:107 *930:27 4.6027e-05
116 *372:115 *2686:B 0.000446041
117 *372:115 *2703:A2 0.000530189
118 *372:115 *2707:A2 8.56272e-05
119 *372:115 *502:244 0.000294706
120 *372:115 *503:158 0.000236436
121 *372:115 *930:12 0.000497968
122 *372:115 *930:16 0.000117527
123 *372:115 *930:27 0.000224958
124 *372:119 *2707:A2 5.13763e-05
125 *372:119 *502:250 2.52908e-05
126 *372:119 *503:158 9.51953e-05
127 *372:123 *2684:I 0.00058169
128 *372:123 *2687:A2 1.81062e-05
129 *372:123 *2692:A3 7.89383e-05
130 *372:123 *502:250 0.000168533
131 *372:123 *502:254 4.843e-05
132 *372:123 *503:158 0.000310687
133 *372:123 *911:14 8.30193e-05
134 *372:129 *2684:I 1.55102e-05
135 *372:129 *2690:A1 0
136 *372:129 *2690:A2 0
137 *372:129 *2692:A2 0.000172855
138 *372:129 *2692:A3 0.000386277
139 *372:129 *2695:A2 5.02137e-05
140 *372:129 *2699:A2 0.000127736
141 *372:129 *3091:I 0.000102789
142 *372:208 *2674:A3 0.000169515
143 *372:208 *2741:A2 0.000300777
144 *372:208 *2747:A1 1.3412e-05
145 *372:208 *2749:B1 0.000110639
146 *372:208 *3104:I 1.71254e-05
147 *372:208 *503:49 4.21513e-05
148 *372:208 *503:62 0.000121104
149 *372:208 *503:75 0.000332645
150 *372:208 *549:12 0.000169515
151 *372:208 *704:125 0.00042307
152 *372:208 *756:144 1.69273e-05
153 *372:208 *784:16 0.000460856
154 *372:208 *784:29 0.000271625
155 *372:208 *784:42 8.95825e-05
156 *372:208 *784:46 0.000161268
157 *2345:A2 *372:24 0.000225506
158 *2346:A2 *372:60 0.000497395
159 *2379:A2 *2621:A1 0.00124184
160 *2381:A1 *372:24 2.78496e-05
161 *2381:A1 *372:60 1.15806e-05
162 *2381:A2 *372:24 0.000568733
163 *2382:A1 *372:24 4.89196e-07
164 *2382:B1 *2621:A1 3.92172e-06
165 *2382:B1 *372:24 0.000297533
166 *2382:C *372:24 0.000132574
167 *2383:A2 *2621:A1 9.85004e-05
168 *2387:A2 *372:24 0.000573038
169 *2388:A1 *2768:A1 4.34597e-05
170 *2478:B *372:86 0.000425761
171 *2496:A1 *372:60 0.000953942
172 *2496:A2 *372:60 8.8161e-05
173 *2500:B *372:86 0.000119182
174 *2502:B *372:68 3.16214e-05
175 *2679:A1 *372:68 0.000173858
176 *2718:A1 *372:103 0.000518371
177 *2738:A1 *2738:C 1.4382e-06
178 *2750:A1 *372:60 0.000174176
179 *2959:D *372:86 7.84068e-05
180 *2965:D *372:60 0.000272782
181 *2968:D *372:68 0.000101615
182 *3016:D *2695:A1 0.000223407
183 *3016:D *372:123 9.39061e-05
184 *3016:D *372:129 9.04462e-05
185 *3017:D *2691:A1 1.07354e-05
186 *3017:D *372:129 3.57187e-05
187 *3018:D *2703:A1 0.000151427
188 *3019:D *2703:A1 0.000299669
189 *3023:D *372:103 0.00101828
190 *3024:D *2726:C 3.12451e-05
191 *3024:D *372:103 0.000190216
192 *3028:D *2738:C 0.000302466
193 *3030:D *372:60 1.19491e-05
194 *3232:I *2621:A1 3.97987e-05
195 *3232:I *372:24 2.36914e-05
196 *251:34 *372:60 1.39839e-05
197 *286:10 *372:24 6.19867e-05
198 *289:12 *2621:A1 9.90362e-06
199 *290:8 *2768:A1 0.000938385
200 *290:14 *2621:A1 9.84908e-05
201 *290:14 *2768:A1 1.71254e-05
202 *290:14 *372:24 0.00061297
203 *295:63 *372:68 0.000115346
204 *295:63 *372:208 0
205 *295:149 *372:86 8.08481e-05
206 *295:166 *372:86 0.000757556
207 *296:35 *2768:A1 0.000371456
208 *371:22 *372:24 1.50885e-05
209 *371:35 *2621:A1 0.000524579
*RES
1 *2512:Z *372:4 4.5 
2 *372:4 *372:24 24.84 
3 *372:24 *2621:A1 24.03 
4 *372:24 *2768:A1 19.89 
5 *372:4 *372:60 8.91 
6 *372:60 *372:62 4.5 
7 *372:62 *372:68 11.52 
8 *372:68 *372:86 35.01 
9 *372:86 *2726:C 4.77 
10 *372:86 *372:103 14.04 
11 *372:103 *372:105 2.61 
12 *372:105 *372:107 0.81 
13 *372:107 *372:115 8.28 
14 *372:115 *372:119 0.9 
15 *372:119 *372:123 10.35 
16 *372:123 *372:129 7.47 
17 *372:129 *2691:A1 14.67 
18 *372:129 *2699:A1 4.5 
19 *372:123 *2695:A1 5.13 
20 *372:119 *2707:A1 9 
21 *372:115 *2703:A1 11.07 
22 *372:107 *2710:C 9 
23 *372:105 *2714:C 12.15 
24 *372:103 *2718:C 9 
25 *372:68 *2761:C 4.5 
26 *372:62 *372:208 14.31 
27 *372:208 *2738:C 10.26 
28 *372:208 *2742:C 4.5 
29 *372:60 *2750:C 4.5 
*END

*D_NET *373 0.0489939
*CONN
*I *2617:B I *D gf180mcu_fd_sc_mcu7t5v0__aoi21_1
*I *2521:A1 I *D gf180mcu_fd_sc_mcu7t5v0__nor2_1
*I *2516:A1 I *D gf180mcu_fd_sc_mcu7t5v0__nor3_1
*I *2519:A1 I *D gf180mcu_fd_sc_mcu7t5v0__nor3_1
*I *2526:A1 I *D gf180mcu_fd_sc_mcu7t5v0__nor3_1
*I *2529:A1 I *D gf180mcu_fd_sc_mcu7t5v0__nor3_1
*I *2531:B I *D gf180mcu_fd_sc_mcu7t5v0__aoi21_1
*I *2576:A1 I *D gf180mcu_fd_sc_mcu7t5v0__nor3_1
*I *2582:A1 I *D gf180mcu_fd_sc_mcu7t5v0__nor3_1
*I *2573:A1 I *D gf180mcu_fd_sc_mcu7t5v0__nor3_1
*I *2561:A1 I *D gf180mcu_fd_sc_mcu7t5v0__nor3_1
*I *2567:A1 I *D gf180mcu_fd_sc_mcu7t5v0__nor3_1
*I *2558:A1 I *D gf180mcu_fd_sc_mcu7t5v0__nor3_1
*I *2536:A1 I *D gf180mcu_fd_sc_mcu7t5v0__nor3_1
*I *2540:B I *D gf180mcu_fd_sc_mcu7t5v0__aoi21_1
*I *2545:A1 I *D gf180mcu_fd_sc_mcu7t5v0__nor3_1
*I *2539:A1 I *D gf180mcu_fd_sc_mcu7t5v0__nor3_1
*I *2549:A1 I *D gf180mcu_fd_sc_mcu7t5v0__nor3_1
*I *2552:A1 I *D gf180mcu_fd_sc_mcu7t5v0__nor3_1
*I *2555:A1 I *D gf180mcu_fd_sc_mcu7t5v0__nor3_1
*I *2562:B I *D gf180mcu_fd_sc_mcu7t5v0__aoi21_1
*I *2570:A1 I *D gf180mcu_fd_sc_mcu7t5v0__nor3_1
*I *2579:A1 I *D gf180mcu_fd_sc_mcu7t5v0__nor3_1
*I *2588:A1 I *D gf180mcu_fd_sc_mcu7t5v0__nor2_1
*I *2513:ZN O *D gf180mcu_fd_sc_mcu7t5v0__nand2_1
*CAP
1 *2617:B 0.00046054
2 *2521:A1 0.000478044
3 *2516:A1 0
4 *2519:A1 0
5 *2526:A1 0.000217529
6 *2529:A1 0.000174485
7 *2531:B 7.01842e-05
8 *2576:A1 0.000316062
9 *2582:A1 0.00067105
10 *2573:A1 9.03042e-05
11 *2561:A1 0
12 *2567:A1 0.000436278
13 *2558:A1 5.74829e-05
14 *2536:A1 0.000591866
15 *2540:B 0.000431779
16 *2545:A1 8.79083e-05
17 *2539:A1 1.99705e-05
18 *2549:A1 0
19 *2552:A1 4.28665e-05
20 *2555:A1 0.000157453
21 *2562:B 0.000116415
22 *2570:A1 0
23 *2579:A1 0.000147814
24 *2588:A1 0
25 *2513:ZN 0
26 *373:283 0.000478044
27 *373:281 0.000648008
28 *373:272 0.000328803
29 *373:259 0.000439634
30 *373:248 0.000363524
31 *373:237 0.000221632
32 *373:184 0.000634687
33 *373:136 0.000550516
34 *373:127 0.000366991
35 *373:123 0.0014219
36 *373:114 0.000818938
37 *373:101 0.00066965
38 *373:88 0.000810854
39 *373:82 0.000567371
40 *373:69 0.00104424
41 *373:57 0.00101632
42 *373:50 0.000728256
43 *373:31 0.000835075
44 *373:29 0.000180875
45 *373:27 0.00103663
46 *373:23 0.00140961
47 *373:12 0.00106893
48 *373:6 0.000320847
49 *2521:A1 *2516:A3 0.000130887
50 *2521:A1 *2518:A1 0.000365445
51 *2521:A1 *2520:A4 0
52 *2521:A1 *2997:CLK 0
53 *2521:A1 *375:12 0.000111517
54 *2521:A1 *375:16 8.93743e-05
55 *2521:A1 *378:8 0.000254207
56 *2521:A1 *708:14 0
57 *2521:A1 *774:14 0
58 *2521:A1 *873:36 0
59 *2526:A1 *2526:A3 7.93835e-05
60 *2526:A1 *382:12 0.000236737
61 *2526:A1 *879:8 0
62 *2526:A1 *880:12 0.000347629
63 *2529:A1 *2529:A3 0.00044706
64 *2531:B *2531:A1 1.61174e-05
65 *2536:A1 *2543:B 1.13343e-05
66 *2536:A1 *385:45 4.02623e-05
67 *2536:A1 *391:19 0
68 *2536:A1 *391:39 5.46383e-05
69 *2539:A1 *2542:I 0.000231442
70 *2540:B *2540:A1 0.000182272
71 *2540:B *2540:A2 8.94772e-05
72 *2540:B *2541:B 0.00136621
73 *2540:B *2542:I 5.36871e-05
74 *2540:B *2543:B 2.35868e-05
75 *2540:B *2545:A2 3.70912e-05
76 *2540:B *391:39 8.05869e-05
77 *2540:B *711:18 9.88967e-05
78 *2540:B *884:10 0.000794309
79 *2545:A1 *2542:I 8.59218e-05
80 *2545:A1 *2545:A2 0.000250506
81 *2552:A1 *2983:CLK 5.36871e-05
82 *2555:A1 *2555:A2 6.41295e-05
83 *2555:A1 *2555:A3 8.38202e-05
84 *2555:A1 *2556:A2 1.17934e-05
85 *2562:B *2562:A1 0.00016326
86 *2562:B *2563:B 6.71645e-05
87 *2562:B *710:30 3.01423e-05
88 *2567:A1 *2429:A1 0.000711299
89 *2567:A1 *2438:A1 0
90 *2567:A1 *2567:A3 0.000799347
91 *2567:A1 *2569:A2 0
92 *2567:A1 *3229:I 6.13169e-05
93 *2567:A1 *410:10 0.000229911
94 *2567:A1 *778:133 3.42509e-05
95 *2573:A1 *416:14 0
96 *2576:A1 *2450:A1 0.000122689
97 *2576:A1 *2576:A3 0
98 *2576:A1 *416:12 7.55837e-05
99 *2576:A1 *874:32 0.000438612
100 *2579:A1 *2579:A2 0.000339633
101 *2579:A1 *2579:A3 0.000135676
102 *2579:A1 *2992:CLK 0.000260418
103 *2579:A1 *700:63 3.01487e-05
104 *2582:A1 *2580:A1 0.000133045
105 *2582:A1 *2580:A2 4.96962e-05
106 *2582:A1 *2581:A1 8.68281e-06
107 *2582:A1 *2582:A3 0.000123332
108 *2582:A1 *2584:A4 0.000299227
109 *2582:A1 *700:99 0
110 *2617:B *2516:A2 0.000484764
111 *2617:B *2617:A2 5.30888e-06
112 *2617:B *873:10 0
113 *373:12 *2588:A2 3.36874e-05
114 *373:12 *3137:I 8.12856e-06
115 *373:12 *3172:I 0.000124935
116 *373:12 *700:19 5.25121e-06
117 *373:12 *700:27 7.95552e-06
118 *373:12 *700:49 0.000196261
119 *373:23 *2447:A1 1.57567e-05
120 *373:23 *2583:A2 5.59973e-05
121 *373:23 *2585:A1 0.000163756
122 *373:23 *2588:A2 1.27919e-05
123 *373:23 *3184:I 0.000151658
124 *373:23 *700:17 1.23119e-05
125 *373:23 *700:19 1.03727e-05
126 *373:23 *700:49 0
127 *373:23 *700:51 0
128 *373:23 *875:42 5.92728e-05
129 *373:27 *2447:A1 0
130 *373:27 *2577:A1 0
131 *373:27 *2579:A2 6.2083e-06
132 *373:27 *2583:A2 0.000203908
133 *373:29 *2579:A2 0.000160156
134 *373:29 *2579:A3 2.63343e-05
135 *373:29 *2583:A2 4.34597e-05
136 *373:29 *418:8 0.000169927
137 *373:31 *2579:A2 8.93953e-05
138 *373:31 *2579:A3 0.000137004
139 *373:50 *2569:A2 0.000223398
140 *373:50 *2572:A1 0.00018021
141 *373:50 *2573:A2 0.000216464
142 *373:50 *2992:CLK 0.000556678
143 *373:50 *774:14 8.05869e-05
144 *373:50 *870:38 0
145 *373:50 *871:20 0.000161852
146 *373:57 *2568:A1 0
147 *373:57 *2569:A2 0.000169524
148 *373:57 *410:14 0
149 *373:57 *707:67 0
150 *373:69 *2559:A1 0.000182206
151 *373:69 *2561:A2 4.1068e-05
152 *373:69 *2561:A3 0
153 *373:69 *2562:A2 0.00109741
154 *373:69 *2989:CLK 0
155 *373:69 *3094:I 0.000167602
156 *373:69 *3229:I 9.23938e-05
157 *373:69 *404:10 5.12216e-05
158 *373:69 *406:24 6.02757e-05
159 *373:69 *707:67 0
160 *373:82 *3230:I 0
161 *373:82 *404:8 4.6613e-06
162 *373:82 *404:10 5.15895e-05
163 *373:82 *710:30 1.86887e-06
164 *373:88 *2554:A2 4.87736e-05
165 *373:88 *2555:A2 4.24123e-05
166 *373:88 *2556:A2 8.59696e-05
167 *373:88 *2557:A4 2.37143e-05
168 *373:88 *404:8 0.000144465
169 *373:88 *710:30 6.96972e-05
170 *373:88 *710:39 8.53841e-05
171 *373:101 *2552:A3 5.36871e-05
172 *373:101 *2554:A2 4.78286e-05
173 *373:101 *2983:CLK 4.37298e-05
174 *373:101 *398:18 0
175 *373:101 *400:17 5.59693e-05
176 *373:101 *710:39 0.000623828
177 *373:114 *2549:A2 1.0415e-05
178 *373:114 *2552:A3 5.29035e-05
179 *373:114 *2983:CLK 0
180 *373:114 *3225:I 0
181 *373:114 *398:12 0
182 *373:114 *398:18 6.56006e-05
183 *373:123 *2543:A1 0.000164525
184 *373:123 *2545:A3 2.03496e-05
185 *373:123 *2546:A2 0.000215362
186 *373:123 *2549:A2 0.000196915
187 *373:123 *3225:I 0
188 *373:123 *884:10 0.000324888
189 *373:123 *885:27 0
190 *373:127 *2541:B 0
191 *373:127 *391:19 0
192 *373:127 *391:39 9.90193e-05
193 *373:184 *2561:A3 5.06031e-06
194 *373:184 *2570:A2 3.5238e-06
195 *373:184 *410:14 0
196 *373:237 *3172:I 0.000109593
197 *373:237 *726:41 0
198 *373:248 *2528:A2 2.70026e-05
199 *373:248 *384:19 5.05815e-05
200 *373:248 *726:41 0
201 *373:259 *2528:A2 9.84061e-05
202 *373:259 *2976:CLK 0.000251568
203 *373:272 *2976:CLK 0.000789072
204 *373:272 *726:41 0
205 *373:281 *2516:A2 7.77106e-05
206 *373:281 *726:41 0
207 *2431:A1 *2567:A1 0.000101016
208 *2440:A1 *2567:A1 9.4836e-05
209 *2450:A2 *2576:A1 1.19491e-05
210 *2452:A1 *2576:A1 2.37695e-05
211 *2455:A1 *373:23 0.000487206
212 *2455:A2 *373:23 1.00082e-05
213 *2538:A2 *2536:A1 0.000321384
214 *2585:A2 *2531:B 0
215 *2585:A2 *373:23 0
216 *2973:D *2521:A1 0.000365445
217 *2976:D *2526:A1 0.000248182
218 *2977:D *2529:A1 0.00037349
219 *2980:D *2540:B 6.53487e-05
220 *2980:D *373:136 7.96333e-06
221 *2982:D *2545:A1 0.000148576
222 *2982:D *373:136 0
223 *2983:D *373:114 4.6613e-06
224 *2983:D *373:123 6.46422e-05
225 *2984:D *373:101 0.000121356
226 *2986:D *373:88 0.000302466
227 *2987:D *373:69 5.8566e-05
228 *2989:D *373:69 0.000490618
229 *2990:D *373:50 0.00076373
230 *2991:D *373:50 0.000378828
231 *2994:D *2582:A1 2.89427e-06
232 *2996:D *373:12 0.000276946
233 *2996:D *373:23 0
234 *2997:D *2617:B 0.000659846
235 *227:35 *2536:A1 0.000598962
236 *296:70 *2576:A1 0
237 *371:83 *2531:B 0
238 *371:83 *373:12 9.92405e-05
239 *371:83 *373:237 0.00048793
240 *371:83 *373:248 0.000761425
241 *371:83 *373:259 0.000876037
242 *371:83 *373:272 0.00104024
*RES
1 *2513:ZN *373:6 9 
2 *373:6 *373:12 7.38 
3 *373:12 *2588:A1 4.5 
4 *373:12 *373:23 11.7 
5 *373:23 *373:27 1.8 
6 *373:27 *373:29 1.35 
7 *373:29 *373:31 0.81 
8 *373:31 *2579:A1 11.52 
9 *373:31 *373:50 13.59 
10 *373:50 *2570:A1 4.5 
11 *373:50 *373:57 0.81 
12 *373:57 *373:69 17.46 
13 *373:69 *2562:B 14.67 
14 *373:69 *373:82 1.17 
15 *373:82 *373:88 8.28 
16 *373:88 *2555:A1 10.35 
17 *373:88 *373:101 8.37 
18 *373:101 *2552:A1 5.22 
19 *373:101 *373:114 2.52 
20 *373:114 *2549:A1 4.5 
21 *373:114 *373:123 9.63 
22 *373:123 *373:127 6.21 
23 *373:127 *2539:A1 5.13 
24 *373:127 *373:136 0.27 
25 *373:136 *2545:A1 6.21 
26 *373:136 *2540:B 20.7 
27 *373:123 *2536:A1 13.59 
28 *373:82 *2558:A1 4.95 
29 *373:57 *373:184 1.8 
30 *373:184 *2567:A1 18.36 
31 *373:184 *2561:A1 4.5 
32 *373:29 *2573:A1 9.63 
33 *373:27 *2582:A1 14.58 
34 *373:23 *2576:A1 11.97 
35 *373:6 *373:237 1.35 
36 *373:237 *2531:B 9.45 
37 *373:237 *373:248 2.07 
38 *373:248 *2529:A1 11.25 
39 *373:248 *373:259 2.43 
40 *373:259 *2526:A1 11.88 
41 *373:259 *373:272 4.41 
42 *373:272 *2519:A1 9 
43 *373:272 *373:281 1.53 
44 *373:281 *373:283 4.5 
45 *373:283 *2516:A1 4.5 
46 *373:283 *2521:A1 18.18 
47 *373:281 *2617:B 14.22 
*END

*D_NET *374 0.0034603
*CONN
*I *2516:A2 I *D gf180mcu_fd_sc_mcu7t5v0__nor3_1
*I *2514:ZN O *D gf180mcu_fd_sc_mcu7t5v0__nor2_1
*CAP
1 *2516:A2 0.000738864
2 *2514:ZN 0.000738864
3 *2516:A2 *2617:A2 4.6613e-06
4 *2516:A2 *2624:A1 8.96422e-05
5 *2516:A2 *726:16 0.00021843
6 *2516:A2 *726:41 0.000161725
7 *2516:A2 *862:8 5.77408e-05
8 *2515:A1 *2516:A2 2.89427e-06
9 *2520:A1 *2516:A2 4.68565e-05
10 *2617:B *2516:A2 0.000484764
11 *2997:D *2516:A2 0.000838147
12 *373:281 *2516:A2 7.77106e-05
*RES
1 *2514:ZN *2516:A2 26.64 
*END

*D_NET *375 0.00490189
*CONN
*I *2518:A2 I *D gf180mcu_fd_sc_mcu7t5v0__and2_1
*I *2517:A2 I *D gf180mcu_fd_sc_mcu7t5v0__nor2_1
*I *2516:A3 I *D gf180mcu_fd_sc_mcu7t5v0__nor3_1
*I *2515:Z O *D gf180mcu_fd_sc_mcu7t5v0__and2_1
*CAP
1 *2518:A2 0
2 *2517:A2 6.68895e-05
3 *2516:A3 0.000159207
4 *2515:Z 0.000435919
5 *375:16 0.000386511
6 *375:12 0.000596334
7 *2516:A3 *2522:B 3.73774e-06
8 *2516:A3 *2973:CLK 0.000285839
9 *2516:A3 *708:10 1.22872e-05
10 *2516:A3 *708:14 7.191e-07
11 *2517:A2 *2517:A1 0.000851947
12 *2517:A2 *377:14 0.000570687
13 *2517:A2 *378:8 7.94868e-06
14 *2517:A2 *378:10 3.91523e-05
15 *375:12 *2520:A4 0.000591253
16 *375:12 *2522:A1 1.67605e-05
17 *375:12 *378:8 2.61158e-05
18 *375:12 *774:14 0.000224708
19 *375:16 *2522:A1 2.09122e-05
20 *375:16 *2522:B 1.86887e-06
21 *375:16 *377:14 0.000223407
22 *2520:A1 *375:12 4.79098e-05
23 *2521:A1 *2516:A3 0.000130887
24 *2521:A1 *375:12 0.000111517
25 *2521:A1 *375:16 8.93743e-05
*RES
1 *2515:Z *375:12 17.82 
2 *375:12 *375:16 1.62 
3 *375:16 *2516:A3 6.03 
4 *375:16 *2517:A2 15.75 
5 *375:12 *2518:A2 4.5 
*END

*D_NET *376 0.00111027
*CONN
*I *2519:A2 I *D gf180mcu_fd_sc_mcu7t5v0__nor3_1
*I *2517:ZN O *D gf180mcu_fd_sc_mcu7t5v0__nor2_1
*CAP
1 *2519:A2 0.000207452
2 *2517:ZN 0.000207452
3 *2519:A2 *2519:A3 7.93082e-05
4 *2519:A2 *2976:CLK 0.000455757
5 *2519:A2 *708:10 6.02974e-05
6 *2519:A2 *708:14 3.01487e-05
7 *2519:A2 *726:41 6.98563e-05
8 *2519:A2 *879:8 0
*RES
1 *2517:ZN *2519:A2 20.25 
*END

*D_NET *377 0.00217805
*CONN
*I *2522:A2 I *D gf180mcu_fd_sc_mcu7t5v0__oai21_1
*I *2519:A3 I *D gf180mcu_fd_sc_mcu7t5v0__nor3_1
*I *2518:Z O *D gf180mcu_fd_sc_mcu7t5v0__and2_1
*CAP
1 *2522:A2 0
2 *2519:A3 0.000185691
3 *2518:Z 0.00020207
4 *377:14 0.000387761
5 *2519:A3 *2522:A1 1.0415e-05
6 *2519:A3 *708:8 4.85809e-05
7 *2519:A3 *708:10 3.30832e-05
8 *377:14 *2522:A1 0.000279846
9 *377:14 *2522:B 4.93311e-06
10 *377:14 *2523:I 9.04462e-05
11 *377:14 *378:8 4.44491e-05
12 *377:14 *378:10 1.7368e-05
13 *2517:A2 *377:14 0.000570687
14 *2519:A2 *2519:A3 7.93082e-05
15 *375:16 *377:14 0.000223407
*RES
1 *2518:Z *377:14 16.11 
2 *377:14 *2519:A3 5.85 
3 *377:14 *2522:A2 4.5 
*END

*D_NET *378 0.00380197
*CONN
*I *2521:A2 I *D gf180mcu_fd_sc_mcu7t5v0__nor2_1
*I *2524:A2 I *D gf180mcu_fd_sc_mcu7t5v0__nor2_1
*I *2525:A2 I *D gf180mcu_fd_sc_mcu7t5v0__and2_1
*I *2530:A4 I *D gf180mcu_fd_sc_mcu7t5v0__nand4_1
*I *2520:Z O *D gf180mcu_fd_sc_mcu7t5v0__and4_1
*CAP
1 *2521:A2 0
2 *2524:A2 0
3 *2525:A2 0.000174943
4 *2530:A4 0.000479163
5 *2520:Z 0.000263682
6 *378:23 0.000174943
7 *378:10 0.000815614
8 *378:8 0.000600133
9 *2525:A2 *2524:A1 5.97457e-06
10 *2525:A2 *879:12 0.000161439
11 *2530:A4 *2398:A1 0
12 *2530:A4 *2401:A1 1.07374e-05
13 *2530:A4 *2526:A2 0.000380315
14 *2530:A4 *2530:A3 4.67786e-05
15 *2530:A4 *726:41 0
16 *2530:A4 *774:14 0
17 *2530:A4 *879:12 0
18 *2530:A4 *879:14 0
19 *2530:A4 *880:27 0.000164306
20 *378:8 *2517:A1 1.6855e-05
21 *378:8 *2522:A1 3.72498e-05
22 *378:8 *774:14 0
23 *378:8 *873:12 5.58654e-05
24 *378:10 *2517:A1 1.85284e-05
25 *378:10 *2522:A1 6.2083e-06
26 *378:10 *726:41 0
27 *378:10 *774:14 0
28 *2517:A2 *378:8 7.94868e-06
29 *2517:A2 *378:10 3.91523e-05
30 *2521:A1 *378:8 0.000254207
31 *375:12 *378:8 2.61158e-05
32 *377:14 *378:8 4.44491e-05
33 *377:14 *378:10 1.7368e-05
*RES
1 *2520:Z *378:8 11.79 
2 *378:8 *378:10 2.43 
3 *378:10 *2530:A4 12.78 
4 *378:10 *378:23 4.5 
5 *378:23 *2525:A2 6.03 
6 *378:23 *2524:A2 4.5 
7 *378:8 *2521:A2 9 
*END

*D_NET *379 0.00102131
*CONN
*I *2522:B I *D gf180mcu_fd_sc_mcu7t5v0__oai21_1
*I *2521:ZN O *D gf180mcu_fd_sc_mcu7t5v0__nor2_1
*CAP
1 *2522:B 0.000122362
2 *2521:ZN 0.000122362
3 *2522:B *2522:A1 0.000218465
4 *2522:B *2973:CLK 2.14664e-05
5 *2522:B *708:8 0.000526117
6 *2516:A3 *2522:B 3.73774e-06
7 *375:16 *2522:B 1.86887e-06
8 *377:14 *2522:B 4.93311e-06
*RES
1 *2521:ZN *2522:B 10.53 
*END

*D_NET *380 0.000697151
*CONN
*I *2523:I I *D gf180mcu_fd_sc_mcu7t5v0__clkinv_1
*I *2522:ZN O *D gf180mcu_fd_sc_mcu7t5v0__oai21_1
*CAP
1 *2523:I 0.000188504
2 *2522:ZN 0.000188504
3 *2523:I *2522:A1 0.000152367
4 *2523:I *708:8 7.73282e-05
5 *2975:D *2523:I 0
6 *377:14 *2523:I 9.04462e-05
*RES
1 *2522:ZN *2523:I 10.62 
*END

*D_NET *381 0.000554667
*CONN
*I *2526:A2 I *D gf180mcu_fd_sc_mcu7t5v0__nor3_1
*I *2524:ZN O *D gf180mcu_fd_sc_mcu7t5v0__nor2_1
*CAP
1 *2526:A2 7.20973e-05
2 *2524:ZN 7.20973e-05
3 *2526:A2 *726:41 3.01575e-05
4 *2530:A4 *2526:A2 0.000380315
*RES
1 *2524:ZN *2526:A2 18.99 
*END

*D_NET *382 0.00377287
*CONN
*I *2526:A3 I *D gf180mcu_fd_sc_mcu7t5v0__nor3_1
*I *2527:A2 I *D gf180mcu_fd_sc_mcu7t5v0__nor2_1
*I *2528:A2 I *D gf180mcu_fd_sc_mcu7t5v0__and2_1
*I *2525:Z O *D gf180mcu_fd_sc_mcu7t5v0__and2_1
*CAP
1 *2526:A3 6.13464e-05
2 *2527:A2 0.000248065
3 *2528:A2 9.49262e-05
4 *2525:Z 3.44897e-05
5 *382:12 0.000553539
6 *382:6 0.000306384
7 *2526:A3 *879:12 4.78178e-05
8 *2527:A2 *2527:A1 0.000359524
9 *2527:A2 *2529:A3 0
10 *2527:A2 *880:12 0.000173021
11 *2528:A2 *2528:A1 0.000208424
12 *2528:A2 *2531:A2 1.79237e-05
13 *2528:A2 *2976:CLK 0.000382875
14 *2528:A2 *384:19 0.000229402
15 *2528:A2 *880:12 8.429e-05
16 *382:12 *2976:CLK 0.000341304
17 *382:12 *726:41 2.57662e-05
18 *382:12 *879:8 1.91698e-05
19 *382:12 *879:12 5.36871e-05
20 *382:12 *880:12 5.92385e-05
21 *2526:A1 *2526:A3 7.93835e-05
22 *2526:A1 *382:12 0.000236737
23 *2976:D *2527:A2 3.01487e-05
24 *373:248 *2528:A2 2.70026e-05
25 *373:259 *2528:A2 9.84061e-05
*RES
1 *2525:Z *382:6 4.77 
2 *382:6 *382:12 7.02 
3 *382:12 *2528:A2 11.34 
4 *382:12 *2527:A2 11.61 
5 *382:6 *2526:A3 5.13 
*END

*D_NET *383 0.000354103
*CONN
*I *2529:A2 I *D gf180mcu_fd_sc_mcu7t5v0__nor3_1
*I *2527:ZN O *D gf180mcu_fd_sc_mcu7t5v0__nor2_1
*CAP
1 *2529:A2 0.000128711
2 *2527:ZN 0.000128711
3 *2529:A2 *2529:A3 9.66818e-05
*RES
1 *2527:ZN *2529:A2 10.35 
*END

*D_NET *384 0.00365642
*CONN
*I *2532:A2 I *D gf180mcu_fd_sc_mcu7t5v0__oai21_1
*I *2529:A3 I *D gf180mcu_fd_sc_mcu7t5v0__nor3_1
*I *2531:A2 I *D gf180mcu_fd_sc_mcu7t5v0__aoi21_1
*I *2528:Z O *D gf180mcu_fd_sc_mcu7t5v0__and2_1
*CAP
1 *2532:A2 0.000341264
2 *2529:A3 0.000398697
3 *2531:A2 8.5746e-05
4 *2528:Z 0
5 *384:19 0.000792252
6 *384:4 0.000138037
7 *2529:A3 *2527:A1 5.2644e-05
8 *2529:A3 *2528:A1 0.000158788
9 *2531:A2 *2528:A1 0
10 *2531:A2 *2531:A1 4.29496e-05
11 *2531:A2 *2532:B 1.61174e-05
12 *2532:A2 *2527:A1 1.19967e-06
13 *2532:A2 *2528:A1 5.47655e-05
14 *2532:A2 *2530:A1 0.000192283
15 *2532:A2 *2532:B 0
16 *2532:A2 *2533:I 0.000208278
17 *2532:A2 *880:27 3.56348e-05
18 *2532:A2 *881:34 0.000119952
19 *384:19 *2528:A1 9.39061e-05
20 *384:19 *726:41 8.22584e-05
21 *2527:A2 *2529:A3 0
22 *2528:A2 *2531:A2 1.79237e-05
23 *2528:A2 *384:19 0.000229402
24 *2529:A1 *2529:A3 0.00044706
25 *2529:A2 *2529:A3 9.66818e-05
26 *2977:D *2531:A2 0
27 *373:248 *384:19 5.05815e-05
*RES
1 *2528:Z *384:4 4.5 
2 *384:4 *2531:A2 5.4 
3 *384:4 *384:19 10.17 
4 *384:19 *2529:A3 8.64 
5 *384:19 *2532:A2 7.65 
*END

*D_NET *385 0.0229327
*CONN
*I *2535:A2 I *D gf180mcu_fd_sc_mcu7t5v0__nor2_1
*I *2534:A2 I *D gf180mcu_fd_sc_mcu7t5v0__and2_1
*I *2538:A3 I *D gf180mcu_fd_sc_mcu7t5v0__nor3_1
*I *2548:A3 I *D gf180mcu_fd_sc_mcu7t5v0__nor4_1
*I *2530:ZN O *D gf180mcu_fd_sc_mcu7t5v0__nand4_1
*CAP
1 *2535:A2 2.15933e-05
2 *2534:A2 0.000314771
3 *2538:A3 0.000130651
4 *2548:A3 3.35971e-05
5 *2530:ZN 0.00307171
6 *385:45 0.000749449
7 *385:35 0.000465003
8 *385:26 0.000343208
9 *385:24 0.00324193
10 *2534:A2 *2536:A2 0.00071112
11 *2534:A2 *711:14 4.47028e-05
12 *2538:A3 *2543:B 9.29483e-05
13 *2548:A3 *2536:A3 0
14 *385:24 *2401:A1 1.85986e-05
15 *385:24 *2404:A1 3.21762e-05
16 *385:24 *2417:A1 0.000348439
17 *385:24 *2423:A1 0.000215887
18 *385:24 *2432:A1 2.31089e-05
19 *385:24 *2435:A2 8.69474e-05
20 *385:24 *2441:A2 0.000763739
21 *385:24 *2548:A4 8.9938e-06
22 *385:24 *2557:A1 2.98728e-05
23 *385:24 *2565:A1 3.08083e-05
24 *385:24 *2565:B 0.00011842
25 *385:24 *2574:A1 2.13676e-05
26 *385:24 *2939:CLK 0
27 *385:24 *2947:CLK 0.000236727
28 *385:24 *3108:I 0.000263008
29 *385:24 *3160:I 0.000138911
30 *385:24 *694:41 0.00054254
31 *385:24 *707:6 0
32 *385:24 *707:13 0
33 *385:24 *707:30 0
34 *385:24 *774:14 0.000426799
35 *385:24 *778:87 0.000241285
36 *385:24 *778:89 5.50498e-05
37 *385:24 *778:91 1.27919e-05
38 *385:24 *778:99 0.00055394
39 *385:24 *778:127 0.00231604
40 *385:24 *863:8 6.74672e-05
41 *385:24 *866:8 2.37143e-05
42 *385:24 *866:21 4.76678e-05
43 *385:24 *872:12 0
44 *385:26 *2417:A1 9.39843e-06
45 *385:26 *2547:A1 9.04462e-05
46 *385:26 *2547:A3 9.3226e-06
47 *385:26 *2548:A4 0.000231442
48 *385:26 *778:79 0
49 *385:26 *863:8 7.49684e-05
50 *385:26 *884:51 6.01893e-05
51 *385:35 *2548:A4 0.000177559
52 *385:35 *711:8 0
53 *385:35 *885:8 0
54 *385:35 *885:27 0
55 *385:45 *2537:A2 0.000269346
56 *385:45 *2543:B 3.1245e-05
57 *385:45 *884:51 0
58 *385:45 *885:8 4.1822e-05
59 *2410:A1 *2534:A2 0
60 *2413:A1 *385:26 3.73774e-06
61 *2431:A1 *385:24 4.21357e-05
62 *2446:A1 *385:24 0.000649549
63 *2452:A2 *385:24 0.000107542
64 *2534:A1 *2534:A2 0.000129689
65 *2536:A1 *385:45 4.02623e-05
66 *2538:A1 *2534:A2 0
67 *2538:A1 *2538:A3 0
68 *2538:A2 *2534:A2 0.000693065
69 *2538:A2 *2538:A3 0.00040513
70 *2548:A1 *385:45 0.000182498
71 *2548:A2 *385:35 0.000151417
72 *2945:D *385:24 0
73 *2946:D *385:24 0.000182486
74 *2979:D *2534:A2 0.000528947
75 *2979:D *2535:A2 1.17725e-05
76 *2979:D *385:35 1.86887e-06
77 *3183:I *385:24 0.000194869
78 *227:35 *2535:A2 2.93938e-05
79 *227:35 *2548:A3 0
80 *227:35 *385:35 1.0415e-05
81 *227:35 *385:45 2.70026e-05
82 *296:62 *385:24 0.00251799
83 *296:70 *385:24 0.000182206
*RES
1 *2530:ZN *385:24 48.6 
2 *385:24 *385:26 1.53 
3 *385:26 *2548:A3 4.77 
4 *385:26 *385:35 1.35 
5 *385:35 *385:45 16.02 
6 *385:45 *2538:A3 10.17 
7 *385:45 *2534:A2 13.86 
8 *385:35 *2535:A2 4.77 
*END

*D_NET *386 0.00170555
*CONN
*I *2532:B I *D gf180mcu_fd_sc_mcu7t5v0__oai21_1
*I *2531:ZN O *D gf180mcu_fd_sc_mcu7t5v0__aoi21_1
*CAP
1 *2532:B 0.000564289
2 *2531:ZN 0.000564289
3 *2532:B *2404:A1 9.65355e-06
4 *2532:B *2528:A1 0
5 *2532:B *2531:A1 0.000425752
6 *2532:B *3101:I 0
7 *2532:B *3172:I 3.81489e-05
8 *2532:B *881:34 8.73009e-05
9 *2531:A2 *2532:B 1.61174e-05
10 *2532:A2 *2532:B 0
*RES
1 *2531:ZN *2532:B 13.5 
*END

*D_NET *387 0.00167913
*CONN
*I *2533:I I *D gf180mcu_fd_sc_mcu7t5v0__clkinv_1
*I *2532:ZN O *D gf180mcu_fd_sc_mcu7t5v0__oai21_1
*CAP
1 *2533:I 0.000555058
2 *2532:ZN 0.000555058
3 *2533:I *2404:A1 3.87766e-05
4 *2533:I *2456:A1 0.000103976
5 *2533:I *2531:A1 0
6 *2533:I *726:41 0
7 *2533:I *774:14 0
8 *2533:I *881:17 0
9 *2533:I *881:34 0.000209557
10 *2455:A2 *2533:I 8.43025e-06
11 *2532:A2 *2533:I 0.000208278
*RES
1 *2532:ZN *2533:I 22.5 
*END

*D_NET *388 0.00170371
*CONN
*I *2536:A2 I *D gf180mcu_fd_sc_mcu7t5v0__nor3_1
*I *2534:Z O *D gf180mcu_fd_sc_mcu7t5v0__and2_1
*CAP
1 *2536:A2 0.000372317
2 *2534:Z 0.000372317
3 *2536:A2 *2296:I 0
4 *2536:A2 *2537:A2 0
5 *2536:A2 *711:14 0.00010273
6 *2534:A2 *2536:A2 0.00071112
7 *2548:A1 *2536:A2 2.5177e-05
8 *2979:D *2536:A2 0.000120052
*RES
1 *2534:Z *2536:A2 12.42 
*END

*D_NET *389 0.00203435
*CONN
*I *2536:A3 I *D gf180mcu_fd_sc_mcu7t5v0__nor3_1
*I *2537:A2 I *D gf180mcu_fd_sc_mcu7t5v0__nor2_1
*I *2535:ZN O *D gf180mcu_fd_sc_mcu7t5v0__nor2_1
*CAP
1 *2536:A3 0.000131312
2 *2537:A2 0.000446035
3 *2535:ZN 0.000577348
4 *2537:A2 *2296:I 7.77511e-05
5 *2537:A2 *2537:A1 4.90636e-05
6 *2537:A2 *2543:B 1.4382e-06
7 *2537:A2 *711:14 1.4382e-06
8 *2537:A2 *819:10 7.92852e-05
9 *2536:A2 *2537:A2 0
10 *2538:A1 *2537:A2 0
11 *2548:A1 *2536:A3 1.79237e-05
12 *2548:A1 *2537:A2 0.000344514
13 *2548:A3 *2536:A3 0
14 *2979:D *2536:A3 2.8478e-05
15 *227:35 *2536:A3 1.0415e-05
16 *385:45 *2537:A2 0.000269346
*RES
1 *2535:ZN *2537:A2 12.96 
2 *2535:ZN *2536:A3 10.08 
*END

*D_NET *390 0.00329887
*CONN
*I *2539:A2 I *D gf180mcu_fd_sc_mcu7t5v0__nor3_1
*I *2537:ZN O *D gf180mcu_fd_sc_mcu7t5v0__nor2_1
*CAP
1 *2539:A2 0.000874599
2 *2537:ZN 0.000874599
3 *2539:A2 *2296:I 1.00788e-05
4 *2539:A2 *2542:I 0.000639367
5 *2539:A2 *3091:I 0.000375166
6 *2539:A2 *3226:I 0.000467284
7 *2539:A2 *711:18 5.77798e-05
*RES
1 *2537:ZN *2539:A2 24.48 
*END

*D_NET *391 0.00566536
*CONN
*I *2540:A2 I *D gf180mcu_fd_sc_mcu7t5v0__aoi21_1
*I *2543:A2 I *D gf180mcu_fd_sc_mcu7t5v0__aoi21_1
*I *2539:A3 I *D gf180mcu_fd_sc_mcu7t5v0__nor3_1
*I *2541:A2 I *D gf180mcu_fd_sc_mcu7t5v0__oai21_1
*I *2544:A3 I *D gf180mcu_fd_sc_mcu7t5v0__and3_1
*I *2538:ZN O *D gf180mcu_fd_sc_mcu7t5v0__nor3_1
*CAP
1 *2540:A2 0.000466581
2 *2543:A2 0
3 *2539:A3 9.40869e-05
4 *2541:A2 0
5 *2544:A3 2.1197e-05
6 *2538:ZN 0
7 *391:39 0.000616484
8 *391:19 0.000481778
9 *391:6 0.000566292
10 *391:4 0.000307307
11 *2539:A3 *2542:I 0.000548096
12 *2539:A3 *3226:I 0.000256817
13 *2540:A2 *2540:A1 7.55765e-06
14 *2540:A2 *2541:B 0.000355357
15 *2540:A2 *2542:I 5.37049e-05
16 *2540:A2 *2543:A1 1.61174e-05
17 *2540:A2 *3091:I 0.000114313
18 *2540:A2 *884:10 0
19 *2544:A3 *884:10 9.84908e-05
20 *2544:A3 *885:8 1.17652e-05
21 *391:6 *2543:B 2.15327e-05
22 *391:6 *884:10 0.000654522
23 *391:6 *885:8 5.9617e-05
24 *391:19 *2541:A1 0.000152006
25 *391:19 *884:12 7.02546e-05
26 *391:19 *884:36 1.91657e-05
27 *391:39 *2541:B 4.49639e-05
28 *391:39 *2543:A1 3.22348e-05
29 *391:39 *2543:B 0.000135657
30 *391:39 *2545:A2 9.85004e-05
31 *2536:A1 *391:19 0
32 *2536:A1 *391:39 5.46383e-05
33 *2540:B *2540:A2 8.94772e-05
34 *2540:B *391:39 8.05869e-05
35 *2980:D *2540:A2 3.72424e-05
36 *373:127 *391:19 0
37 *373:127 *391:39 9.90193e-05
*RES
1 *2538:ZN *391:4 4.5 
2 *391:4 *391:6 1.89 
3 *391:6 *2544:A3 4.77 
4 *391:6 *391:19 11.79 
5 *391:19 *2541:A2 4.5 
6 *391:19 *2539:A3 6.39 
7 *391:4 *391:39 10.98 
8 *391:39 *2543:A2 4.5 
9 *391:39 *2540:A2 9.09 
*END

*D_NET *392 0.00538733
*CONN
*I *2541:B I *D gf180mcu_fd_sc_mcu7t5v0__oai21_1
*I *2540:ZN O *D gf180mcu_fd_sc_mcu7t5v0__aoi21_1
*CAP
1 *2541:B 0.000633248
2 *2540:ZN 0.000633248
3 *2541:B *2543:B 5.13763e-05
4 *2541:B *2982:CLK 0.00064954
5 *2541:B *3091:I 0.00113761
6 *2541:B *3226:I 0.000405702
7 *2541:B *711:18 7.01518e-05
8 *2541:B *711:24 2.08352e-05
9 *2541:B *884:10 1.90868e-05
10 *2540:A2 *2541:B 0.000355357
11 *2540:B *2541:B 0.00136621
12 *373:127 *2541:B 0
13 *391:39 *2541:B 4.49639e-05
*RES
1 *2540:ZN *2541:B 27.27 
*END

*D_NET *393 0.00470008
*CONN
*I *2542:I I *D gf180mcu_fd_sc_mcu7t5v0__clkinv_1
*I *2541:ZN O *D gf180mcu_fd_sc_mcu7t5v0__oai21_1
*CAP
1 *2542:I 0.000582739
2 *2541:ZN 0.000582739
3 *2542:I *2541:A1 1.07374e-05
4 *2542:I *3091:I 0.00104782
5 *2542:I *3226:I 0.000112339
6 *2542:I *711:33 0
7 *2539:A1 *2542:I 0.000231442
8 *2539:A2 *2542:I 0.000639367
9 *2539:A3 *2542:I 0.000548096
10 *2540:A2 *2542:I 5.37049e-05
11 *2540:B *2542:I 5.36871e-05
12 *2545:A1 *2542:I 8.59218e-05
13 *2980:D *2542:I 0.000362773
14 *2981:D *2542:I 2.59366e-05
15 *2982:D *2542:I 0.000362773
*RES
1 *2541:ZN *2542:I 18 
*END

*D_NET *394 0.00132132
*CONN
*I *2545:A2 I *D gf180mcu_fd_sc_mcu7t5v0__nor3_1
*I *2543:ZN O *D gf180mcu_fd_sc_mcu7t5v0__aoi21_1
*CAP
1 *2545:A2 0.000218178
2 *2543:ZN 0.000218178
3 *2545:A2 *2543:A1 0.000482746
4 *2545:A2 *2545:A3 1.61174e-05
5 *2540:B *2545:A2 3.70912e-05
6 *2545:A1 *2545:A2 0.000250506
7 *391:39 *2545:A2 9.85004e-05
*RES
1 *2543:ZN *2545:A2 11.97 
*END

*D_NET *395 0.00100077
*CONN
*I *2546:A2 I *D gf180mcu_fd_sc_mcu7t5v0__nor2_1
*I *2545:A3 I *D gf180mcu_fd_sc_mcu7t5v0__nor3_1
*I *2544:Z O *D gf180mcu_fd_sc_mcu7t5v0__and3_1
*CAP
1 *2546:A2 0.000125258
2 *2545:A3 0.000140666
3 *2544:Z 0
4 *395:4 0.000265924
5 *2545:A3 *2541:A1 0
6 *2545:A3 *2543:A1 3.55118e-05
7 *2546:A2 *690:34 9.49804e-05
8 *2546:A2 *884:12 6.30159e-05
9 *2546:A2 *884:36 2.35868e-05
10 *2545:A2 *2545:A3 1.61174e-05
11 *373:123 *2545:A3 2.03496e-05
12 *373:123 *2546:A2 0.000215362
*RES
1 *2544:Z *395:4 4.5 
2 *395:4 *2545:A3 5.58 
3 *395:4 *2546:A2 14.94 
*END

*D_NET *396 0.000857436
*CONN
*I *2549:A2 I *D gf180mcu_fd_sc_mcu7t5v0__nor3_1
*I *2546:ZN O *D gf180mcu_fd_sc_mcu7t5v0__nor2_1
*CAP
1 *2549:A2 0.000289004
2 *2546:ZN 0.000289004
3 *2549:A2 *398:12 6.338e-05
4 *2549:A2 *398:14 1.3448e-06
5 *2549:A2 *885:27 7.37195e-06
6 *373:114 *2549:A2 1.0415e-05
7 *373:123 *2549:A2 0.000196915
*RES
1 *2546:ZN *2549:A2 11.43 
*END

*D_NET *397 0.000674027
*CONN
*I *2548:A4 I *D gf180mcu_fd_sc_mcu7t5v0__nor4_1
*I *2547:ZN O *D gf180mcu_fd_sc_mcu7t5v0__nand3_1
*CAP
1 *2548:A4 0.000128016
2 *2547:ZN 0.000128016
3 *2548:A4 *711:8 0
4 *2548:A4 *778:73 0
5 *2548:A4 *778:77 0
6 *2548:A4 *778:79 0
7 *385:24 *2548:A4 8.9938e-06
8 *385:26 *2548:A4 0.000231442
9 *385:35 *2548:A4 0.000177559
*RES
1 *2547:ZN *2548:A4 10.26 
*END

*D_NET *398 0.00415637
*CONN
*I *2550:A2 I *D gf180mcu_fd_sc_mcu7t5v0__nor2_1
*I *2549:A3 I *D gf180mcu_fd_sc_mcu7t5v0__nor3_1
*I *2551:A2 I *D gf180mcu_fd_sc_mcu7t5v0__and2_1
*I *2557:A4 I *D gf180mcu_fd_sc_mcu7t5v0__and4_1
*I *2548:ZN O *D gf180mcu_fd_sc_mcu7t5v0__nor4_1
*CAP
1 *2550:A2 0.00024855
2 *2549:A3 0
3 *2551:A2 0
4 *2557:A4 0.000416687
5 *2548:ZN 0.000664855
6 *398:18 0.00062697
7 *398:14 0.000332836
8 *398:12 0.00103596
9 *2550:A2 *2550:A1 3.01487e-05
10 *2550:A2 *2551:A1 4.34597e-05
11 *2550:A2 *689:24 0
12 *2557:A4 *2554:A2 5.4236e-06
13 *2557:A4 *2557:A3 0.000124841
14 *2557:A4 *400:17 0.000244555
15 *2557:A4 *864:21 1.70056e-05
16 *398:12 *2547:A3 7.98315e-06
17 *398:12 *863:8 2.8764e-06
18 *398:12 *884:51 1.77859e-05
19 *398:12 *885:27 0.00016407
20 *398:18 *2550:A1 1.0345e-05
21 *398:18 *2552:A3 0
22 *398:18 *864:21 7.98315e-06
23 *2549:A2 *398:12 6.338e-05
24 *2549:A2 *398:14 1.3448e-06
25 *373:88 *2557:A4 2.37143e-05
26 *373:101 *398:18 0
27 *373:114 *398:12 0
28 *373:114 *398:18 6.56006e-05
*RES
1 *2548:ZN *398:12 9 
2 *398:12 *398:14 0.81 
3 *398:14 *398:18 1.98 
4 *398:18 *2557:A4 8.01 
5 *398:18 *2551:A2 4.5 
6 *398:14 *2549:A3 4.5 
7 *398:12 *2550:A2 15.3 
*END

*D_NET *399 0.00112301
*CONN
*I *2552:A2 I *D gf180mcu_fd_sc_mcu7t5v0__nor3_1
*I *2550:ZN O *D gf180mcu_fd_sc_mcu7t5v0__nor2_1
*CAP
1 *2552:A2 0.000449864
2 *2550:ZN 0.000449864
3 *2552:A2 *2551:A1 0.000223284
*RES
1 *2550:ZN *2552:A2 20.43 
*END

*D_NET *400 0.00333046
*CONN
*I *2553:A2 I *D gf180mcu_fd_sc_mcu7t5v0__nor2_1
*I *2554:A2 I *D gf180mcu_fd_sc_mcu7t5v0__and2_1
*I *2552:A3 I *D gf180mcu_fd_sc_mcu7t5v0__nor3_1
*I *2551:Z O *D gf180mcu_fd_sc_mcu7t5v0__and2_1
*CAP
1 *2553:A2 0.000241653
2 *2554:A2 0.00013112
3 *2552:A3 9.59826e-05
4 *2551:Z 0
5 *400:17 0.000668236
6 *400:4 0.000391446
7 *2553:A2 *2554:A1 8.7876e-05
8 *2553:A2 *2555:A2 0.000925746
9 *2553:A2 *2556:A2 1.21543e-05
10 *2554:A2 *2554:A1 2.52908e-05
11 *2554:A2 *2555:A2 0.00023968
12 *2554:A2 *2556:A2 2.13782e-06
13 *2557:A4 *2554:A2 5.4236e-06
14 *2557:A4 *400:17 0.000244555
15 *373:88 *2554:A2 4.87736e-05
16 *373:101 *2552:A3 5.36871e-05
17 *373:101 *2554:A2 4.78286e-05
18 *373:101 *400:17 5.59693e-05
19 *373:114 *2552:A3 5.29035e-05
20 *398:18 *2552:A3 0
*RES
1 *2551:Z *400:4 4.5 
2 *400:4 *2552:A3 5.58 
3 *400:4 *400:17 7.11 
4 *400:17 *2554:A2 10.26 
5 *400:17 *2553:A2 11.61 
*END

*D_NET *401 0.00301367
*CONN
*I *2555:A2 I *D gf180mcu_fd_sc_mcu7t5v0__nor3_1
*I *2553:ZN O *D gf180mcu_fd_sc_mcu7t5v0__nor2_1
*CAP
1 *2555:A2 0.000670586
2 *2553:ZN 0.000670586
3 *2555:A2 *2556:A2 0
4 *2555:A2 *865:32 0.000289888
5 *2553:A2 *2555:A2 0.000925746
6 *2554:A2 *2555:A2 0.00023968
7 *2555:A1 *2555:A2 6.41295e-05
8 *2985:D *2555:A2 0.000110639
9 *373:88 *2555:A2 4.24123e-05
*RES
1 *2553:ZN *2555:A2 23.58 
*END

*D_NET *402 0.00239769
*CONN
*I *2556:A2 I *D gf180mcu_fd_sc_mcu7t5v0__nor2_1
*I *2555:A3 I *D gf180mcu_fd_sc_mcu7t5v0__nor3_1
*I *2554:Z O *D gf180mcu_fd_sc_mcu7t5v0__and2_1
*CAP
1 *2556:A2 0.000349683
2 *2555:A3 0.000158029
3 *2554:Z 0
4 *402:6 0.000507711
5 *2556:A2 *2554:A1 0.000302711
6 *2556:A2 *2558:A2 0.00088368
7 *2553:A2 *2556:A2 1.21543e-05
8 *2554:A2 *2556:A2 2.13782e-06
9 *2555:A1 *2555:A3 8.38202e-05
10 *2555:A1 *2556:A2 1.17934e-05
11 *2555:A2 *2556:A2 0
12 *373:88 *2556:A2 8.59696e-05
*RES
1 *2554:Z *402:6 9 
2 *402:6 *2555:A3 10.08 
3 *402:6 *2556:A2 12.87 
*END

*D_NET *403 0.00250726
*CONN
*I *2558:A2 I *D gf180mcu_fd_sc_mcu7t5v0__nor3_1
*I *2556:ZN O *D gf180mcu_fd_sc_mcu7t5v0__nor2_1
*CAP
1 *2558:A2 0.000456057
2 *2556:ZN 0.000456057
3 *2558:A2 *404:8 0.000711467
4 *2558:A2 *865:32 0
5 *2556:A2 *2558:A2 0.00088368
*RES
1 *2556:ZN *2558:A2 22.5 
*END

*D_NET *404 0.0051234
*CONN
*I *2558:A3 I *D gf180mcu_fd_sc_mcu7t5v0__nor3_1
*I *2560:A2 I *D gf180mcu_fd_sc_mcu7t5v0__and2_1
*I *2566:A4 I *D gf180mcu_fd_sc_mcu7t5v0__and4_1
*I *2559:A2 I *D gf180mcu_fd_sc_mcu7t5v0__nor2_1
*I *2557:Z O *D gf180mcu_fd_sc_mcu7t5v0__and4_1
*CAP
1 *2558:A3 0
2 *2560:A2 0.000327609
3 *2566:A4 0
4 *2559:A2 9.58354e-05
5 *2557:Z 0.000179762
6 *404:10 0.000728978
7 *404:8 0.00114051
8 *2559:A2 *2561:A2 5.97457e-06
9 *2559:A2 *2561:A3 1.61174e-05
10 *2560:A2 *2432:A1 0
11 *2560:A2 *710:30 0.000208507
12 *2560:A2 *868:34 3.01487e-05
13 *404:10 *2560:A1 2.26729e-05
14 *404:10 *2561:A3 0.00048874
15 *404:10 *2562:A2 0.00018562
16 *404:10 *2566:A2 6.54075e-05
17 *404:10 *406:24 0.00035741
18 *404:10 *868:6 0.000133728
19 *404:10 *868:34 4.5237e-05
20 *2558:A2 *404:8 0.000711467
21 *2986:D *404:8 0.000127736
22 *373:69 *404:10 5.12216e-05
23 *373:82 *404:8 4.6613e-06
24 *373:82 *404:10 5.15895e-05
25 *373:88 *404:8 0.000144465
*RES
1 *2557:Z *404:8 7.2 
2 *404:8 *404:10 6.39 
3 *404:10 *2559:A2 5.31 
4 *404:10 *2566:A4 4.5 
5 *404:8 *2560:A2 7.02 
6 *404:8 *2558:A3 4.5 
*END

*D_NET *405 0.000387416
*CONN
*I *2561:A2 I *D gf180mcu_fd_sc_mcu7t5v0__nor3_1
*I *2559:ZN O *D gf180mcu_fd_sc_mcu7t5v0__nor2_1
*CAP
1 *2561:A2 0.000144106
2 *2559:ZN 0.000144106
3 *2561:A2 *2561:A3 4.34467e-06
4 *2561:A2 *410:10 4.78178e-05
5 *2559:A2 *2561:A2 5.97457e-06
6 *373:69 *2561:A2 4.1068e-05
*RES
1 *2559:ZN *2561:A2 10.08 
*END

*D_NET *406 0.00786052
*CONN
*I *2565:A2 I *D gf180mcu_fd_sc_mcu7t5v0__aoi21_1
*I *2561:A3 I *D gf180mcu_fd_sc_mcu7t5v0__nor3_1
*I *2562:A2 I *D gf180mcu_fd_sc_mcu7t5v0__aoi21_1
*I *2563:A2 I *D gf180mcu_fd_sc_mcu7t5v0__oai21_1
*I *2560:Z O *D gf180mcu_fd_sc_mcu7t5v0__and2_1
*CAP
1 *2565:A2 8.09311e-05
2 *2561:A3 0.000363107
3 *2562:A2 0.000193923
4 *2563:A2 0.000318841
5 *2560:Z 0.000457451
6 *406:24 0.000707719
7 *406:14 0.000940708
8 *406:12 0.000921026
9 *2561:A3 *2429:A1 1.38732e-05
10 *2561:A3 *2566:A2 5.23642e-05
11 *2561:A3 *410:10 7.84041e-05
12 *2561:A3 *410:14 0.000158788
13 *2561:A3 *410:18 2.65444e-06
14 *2561:A3 *867:14 2.87447e-05
15 *2563:A2 *2563:A1 0.000177534
16 *2563:A2 *2988:CLK 1.79237e-05
17 *2563:A2 *2989:CLK 3.22122e-05
18 *2563:A2 *3094:I 0.000159362
19 *2565:A2 *3229:I 0
20 *2565:A2 *869:25 1.25828e-05
21 *406:12 *2560:A1 0.000233151
22 *406:12 *2565:A1 5.15895e-05
23 *406:12 *2566:A1 0.000436478
24 *406:12 *867:10 1.17725e-05
25 *406:14 *3094:I 0
26 *406:24 *3094:I 0.000104054
27 *2559:A2 *2561:A3 1.61174e-05
28 *2561:A2 *2561:A3 4.34467e-06
29 *2989:D *2563:A2 0
30 *2989:D *2565:A2 1.97308e-05
31 *2989:D *406:14 5.32552e-05
32 *2989:D *406:24 1.73553e-05
33 *373:69 *2561:A3 0
34 *373:69 *2562:A2 0.00109741
35 *373:69 *406:24 6.02757e-05
36 *373:184 *2561:A3 5.06031e-06
37 *404:10 *2561:A3 0.00048874
38 *404:10 *2562:A2 0.00018562
39 *404:10 *406:24 0.00035741
*RES
1 *2560:Z *406:12 13.05 
2 *406:12 *406:14 1.89 
3 *406:14 *406:24 11.07 
4 *406:24 *2563:A2 11.97 
5 *406:24 *2562:A2 11.97 
6 *406:14 *2561:A3 12.42 
7 *406:12 *2565:A2 9.63 
*END

*D_NET *407 0.00198569
*CONN
*I *2563:B I *D gf180mcu_fd_sc_mcu7t5v0__oai21_1
*I *2562:ZN O *D gf180mcu_fd_sc_mcu7t5v0__aoi21_1
*CAP
1 *2563:B 0.0007019
2 *2562:ZN 0.0007019
3 *2563:B *2564:I 2.83424e-05
4 *2563:B *2988:CLK 0.000444513
5 *2563:B *710:30 0
6 *2562:B *2563:B 6.71645e-05
7 *2988:D *2563:B 4.18699e-05
*RES
1 *2562:ZN *2563:B 23.58 
*END

*D_NET *408 0.00108169
*CONN
*I *2564:I I *D gf180mcu_fd_sc_mcu7t5v0__clkinv_1
*I *2563:ZN O *D gf180mcu_fd_sc_mcu7t5v0__oai21_1
*CAP
1 *2564:I 0.000341791
2 *2563:ZN 0.000341791
3 *2564:I *2989:CLK 2.09855e-05
4 *2564:I *3094:I 4.63157e-05
5 *2563:B *2564:I 2.83424e-05
6 *2988:D *2564:I 0.000302466
*RES
1 *2563:ZN *2564:I 11.7 
*END

*D_NET *409 0.000508293
*CONN
*I *2567:A2 I *D gf180mcu_fd_sc_mcu7t5v0__nor3_1
*I *2565:ZN O *D gf180mcu_fd_sc_mcu7t5v0__aoi21_1
*CAP
1 *2567:A2 0.00016292
2 *2565:ZN 0.00016292
3 *2567:A2 *2565:A1 0
4 *2567:A2 *2566:A1 3.87363e-05
5 *2567:A2 *778:127 9.53647e-05
6 *2431:A1 *2567:A2 4.83522e-05
*RES
1 *2565:ZN *2567:A2 10.44 
*END

*D_NET *410 0.00539776
*CONN
*I *2567:A3 I *D gf180mcu_fd_sc_mcu7t5v0__nor3_1
*I *2568:A2 I *D gf180mcu_fd_sc_mcu7t5v0__nor2_1
*I *2569:A2 I *D gf180mcu_fd_sc_mcu7t5v0__and2_1
*I *2575:A4 I *D gf180mcu_fd_sc_mcu7t5v0__and4_1
*I *2566:Z O *D gf180mcu_fd_sc_mcu7t5v0__and4_1
*CAP
1 *2567:A3 0.00026465
2 *2568:A2 0
3 *2569:A2 0.000276283
4 *2575:A4 0.000127268
5 *2566:Z 0.000127175
6 *410:18 0.000457343
7 *410:14 0.000258848
8 *410:10 0.00059688
9 *2567:A3 *2429:A1 0
10 *2567:A3 *3229:I 4.94896e-05
11 *2569:A2 *2438:A1 9.39061e-05
12 *2569:A2 *2568:A1 0
13 *2569:A2 *2569:A1 0
14 *2569:A2 *2570:A2 0.000154517
15 *2569:A2 *2570:A3 6.71645e-05
16 *2569:A2 *870:38 0
17 *2575:A4 *2438:A1 5.60661e-06
18 *2575:A4 *2568:A1 9.04462e-05
19 *2575:A4 *2575:A1 1.79237e-05
20 *2575:A4 *870:25 1.0415e-05
21 *2575:A4 *870:38 0.000428433
22 *410:10 *3229:I 4.90355e-05
23 *410:14 *2429:A1 1.77904e-05
24 *410:14 *2438:A1 3.56486e-05
25 *410:18 *2438:A1 5.79792e-06
26 *410:18 *2568:A1 6.83517e-05
27 *2440:A1 *2567:A3 0.000484943
28 *2561:A2 *410:10 4.78178e-05
29 *2561:A3 *410:10 7.84041e-05
30 *2561:A3 *410:14 0.000158788
31 *2561:A3 *410:18 2.65444e-06
32 *2567:A1 *2567:A3 0.000799347
33 *2567:A1 *2569:A2 0
34 *2567:A1 *410:10 0.000229911
35 *2987:D *2569:A2 0
36 *373:50 *2569:A2 0.000223398
37 *373:57 *2569:A2 0.000169524
38 *373:57 *410:14 0
39 *373:184 *410:14 0
*RES
1 *2566:Z *410:10 10.26 
2 *410:10 *410:14 6.03 
3 *410:14 *410:18 0.54 
4 *410:18 *2575:A4 5.85 
5 *410:18 *2569:A2 16.02 
6 *410:14 *2568:A2 4.5 
7 *410:10 *2567:A3 11.88 
*END

*D_NET *411 0.000859414
*CONN
*I *2570:A2 I *D gf180mcu_fd_sc_mcu7t5v0__nor3_1
*I *2568:ZN O *D gf180mcu_fd_sc_mcu7t5v0__nor2_1
*CAP
1 *2570:A2 0.000269405
2 *2568:ZN 0.000269405
3 *2570:A2 *870:38 0.000162562
4 *2569:A2 *2570:A2 0.000154517
5 *373:184 *2570:A2 3.5238e-06
*RES
1 *2568:ZN *2570:A2 10.89 
*END

*D_NET *412 0.00373306
*CONN
*I *2570:A3 I *D gf180mcu_fd_sc_mcu7t5v0__nor3_1
*I *2572:A2 I *D gf180mcu_fd_sc_mcu7t5v0__and2_1
*I *2571:A2 I *D gf180mcu_fd_sc_mcu7t5v0__nor2_1
*I *2569:Z O *D gf180mcu_fd_sc_mcu7t5v0__and2_1
*CAP
1 *2570:A3 0.00024523
2 *2572:A2 0.00044018
3 *2571:A2 7.69378e-05
4 *2569:Z 0
5 *412:6 0.000517118
6 *412:4 0.00024523
7 *2570:A3 *2569:A1 6.84426e-06
8 *2570:A3 *707:67 0
9 *2570:A3 *871:20 3.31858e-06
10 *2571:A2 *2571:A1 4.79098e-05
11 *2571:A2 *2573:A2 3.55118e-05
12 *2571:A2 *707:67 1.19491e-05
13 *2572:A2 *2571:A1 4.1368e-05
14 *2572:A2 *2572:A1 0.000548114
15 *2572:A2 *416:10 0.000604749
16 *2572:A2 *416:12 2.37695e-05
17 *2572:A2 *707:54 8.54106e-06
18 *2572:A2 *871:20 0.000309671
19 *2569:A2 *2570:A3 6.71645e-05
20 *2990:D *2570:A3 0.000499457
*RES
1 *2569:Z *412:4 4.5 
2 *412:4 *412:6 4.5 
3 *412:6 *2571:A2 9.9 
4 *412:6 *2572:A2 14.58 
5 *412:4 *2570:A3 15.84 
*END

*D_NET *413 0.00358958
*CONN
*I *2573:A2 I *D gf180mcu_fd_sc_mcu7t5v0__nor3_1
*I *2571:ZN O *D gf180mcu_fd_sc_mcu7t5v0__nor2_1
*CAP
1 *2573:A2 0.00072397
2 *2571:ZN 0.00072397
3 *2573:A2 *2571:A1 0.000365454
4 *2573:A2 *2572:A1 0.000559755
5 *2573:A2 *2573:A3 0.000192205
6 *2573:A2 *2991:CLK 0.000112242
7 *2573:A2 *416:12 0
8 *2573:A2 *707:63 1.23715e-05
9 *2573:A2 *774:14 0
10 *2571:A2 *2573:A2 3.55118e-05
11 *2990:D *2573:A2 3.58953e-05
12 *2991:D *2573:A2 0.000317314
13 *2992:D *2573:A2 0.000294431
14 *373:50 *2573:A2 0.000216464
*RES
1 *2571:ZN *2573:A2 25.74 
*END

*D_NET *414 0.00217752
*CONN
*I *2574:A2 I *D gf180mcu_fd_sc_mcu7t5v0__nor2_1
*I *2573:A3 I *D gf180mcu_fd_sc_mcu7t5v0__nor3_1
*I *2572:Z O *D gf180mcu_fd_sc_mcu7t5v0__and2_1
*CAP
1 *2574:A2 0.00033141
2 *2573:A3 0.00016638
3 *2572:Z 0
4 *414:6 0.000497789
5 *2573:A3 *2579:A2 0
6 *2573:A3 *416:12 1.77247e-05
7 *2573:A3 *416:14 7.96333e-06
8 *2573:A3 *774:14 0.000146222
9 *2574:A2 *2447:A1 6.25926e-05
10 *2574:A2 *2576:A2 0.000554298
11 *2574:A2 *2577:A1 5.39013e-05
12 *2574:A2 *774:14 0.000147039
13 *2573:A2 *2573:A3 0.000192205
*RES
1 *2572:Z *414:6 9 
2 *414:6 *2573:A3 10.98 
3 *414:6 *2574:A2 11.61 
*END

*D_NET *415 0.00129454
*CONN
*I *2576:A2 I *D gf180mcu_fd_sc_mcu7t5v0__nor3_1
*I *2574:ZN O *D gf180mcu_fd_sc_mcu7t5v0__nor2_1
*CAP
1 *2576:A2 4.96868e-05
2 *2574:ZN 4.96868e-05
3 *2576:A2 *2447:A1 1.36885e-05
4 *2576:A2 *774:14 0.000627181
5 *2574:A2 *2576:A2 0.000554298
*RES
1 *2574:ZN *2576:A2 19.71 
*END

*D_NET *416 0.0061037
*CONN
*I *2576:A3 I *D gf180mcu_fd_sc_mcu7t5v0__nor3_1
*I *2577:A2 I *D gf180mcu_fd_sc_mcu7t5v0__nor2_1
*I *2578:A2 I *D gf180mcu_fd_sc_mcu7t5v0__and2_1
*I *2584:A4 I *D gf180mcu_fd_sc_mcu7t5v0__nand4_1
*I *2575:Z O *D gf180mcu_fd_sc_mcu7t5v0__and4_1
*CAP
1 *2576:A3 0.000224393
2 *2577:A2 3.91657e-05
3 *2578:A2 0
4 *2584:A4 0.000574231
5 *2575:Z 0.000544843
6 *416:14 0.000732654
7 *416:12 0.000486714
8 *416:10 0.00105836
9 *2584:A4 *2584:A3 0
10 *2584:A4 *2586:A1 0.000170811
11 *2584:A4 *700:51 2.36954e-05
12 *2584:A4 *700:99 9.34436e-06
13 *2584:A4 *874:21 2.51978e-05
14 *2584:A4 *874:32 1.17652e-05
15 *416:10 *870:14 1.26644e-05
16 *416:10 *871:12 1.68677e-06
17 *416:10 *872:8 0
18 *416:12 *874:32 1.17652e-05
19 *416:14 *874:32 5.9617e-05
20 *2452:A1 *2576:A3 1.26644e-05
21 *2572:A2 *416:10 0.000604749
22 *2572:A2 *416:12 2.37695e-05
23 *2573:A1 *416:14 0
24 *2573:A2 *416:12 0
25 *2573:A3 *416:12 1.77247e-05
26 *2573:A3 *416:14 7.96333e-06
27 *2576:A1 *2576:A3 0
28 *2576:A1 *416:12 7.55837e-05
29 *2582:A1 *2584:A4 0.000299227
30 *2995:D *2584:A4 0.0010751
*RES
1 *2575:Z *416:10 9.27 
2 *416:10 *416:12 2.07 
3 *416:12 *416:14 1.17 
4 *416:14 *2584:A4 18.81 
5 *416:14 *2578:A2 4.5 
6 *416:12 *2577:A2 4.77 
7 *416:10 *2576:A3 6.12 
*END

*D_NET *417 0.00224884
*CONN
*I *2579:A2 I *D gf180mcu_fd_sc_mcu7t5v0__nor3_1
*I *2577:ZN O *D gf180mcu_fd_sc_mcu7t5v0__nor2_1
*CAP
1 *2579:A2 0.000532666
2 *2577:ZN 0.000532666
3 *2579:A2 *2579:A3 0.000527223
4 *2579:A2 *2992:CLK 2.53817e-05
5 *2579:A2 *700:63 3.55118e-05
6 *2579:A2 *774:14 0
7 *2573:A3 *2579:A2 0
8 *2579:A1 *2579:A2 0.000339633
9 *373:27 *2579:A2 6.2083e-06
10 *373:29 *2579:A2 0.000160156
11 *373:31 *2579:A2 8.93953e-05
*RES
1 *2577:ZN *2579:A2 23.4 
*END

*D_NET *418 0.00639646
*CONN
*I *2583:A2 I *D gf180mcu_fd_sc_mcu7t5v0__aoi21_1
*I *2581:A2 I *D gf180mcu_fd_sc_mcu7t5v0__and2_1
*I *2580:A2 I *D gf180mcu_fd_sc_mcu7t5v0__nor2_1
*I *2579:A3 I *D gf180mcu_fd_sc_mcu7t5v0__nor3_1
*I *2578:Z O *D gf180mcu_fd_sc_mcu7t5v0__and2_1
*CAP
1 *2583:A2 0.000186722
2 *2581:A2 0
3 *2580:A2 0.000650141
4 *2579:A3 0.000387618
5 *2578:Z 0
6 *418:21 0.000650141
7 *418:8 0.000425772
8 *418:6 0.000224876
9 *2579:A3 *700:53 0
10 *2579:A3 *700:55 0
11 *2579:A3 *700:63 0
12 *2580:A2 *2581:A1 3.97987e-05
13 *2580:A2 *2582:A2 6.76694e-05
14 *2580:A2 *2582:A3 0.00118753
15 *2580:A2 *2992:CLK 0
16 *2583:A2 *2581:A1 0.000698101
17 *2583:A2 *875:42 0.000217005
18 *418:8 *2581:A1 0.000247389
19 *418:8 *700:53 0
20 *2579:A1 *2579:A3 0.000135676
21 *2579:A2 *2579:A3 0.000527223
22 *2582:A1 *2580:A2 4.96962e-05
23 *2994:D *2580:A2 6.44696e-05
24 *373:23 *2583:A2 5.59973e-05
25 *373:27 *2583:A2 0.000203908
26 *373:29 *2579:A3 2.63343e-05
27 *373:29 *2583:A2 4.34597e-05
28 *373:29 *418:8 0.000169927
29 *373:31 *2579:A3 0.000137004
*RES
1 *2578:Z *418:6 9 
2 *418:6 *418:8 0.99 
3 *418:8 *2579:A3 12.6 
4 *418:8 *418:21 4.5 
5 *418:21 *2580:A2 10.71 
6 *418:21 *2581:A2 4.5 
7 *418:6 *2583:A2 11.61 
*END

*D_NET *419 0.000610325
*CONN
*I *2582:A2 I *D gf180mcu_fd_sc_mcu7t5v0__nor3_1
*I *2580:ZN O *D gf180mcu_fd_sc_mcu7t5v0__nor2_1
*CAP
1 *2582:A2 0.000158715
2 *2580:ZN 0.000158715
3 *2582:A2 *2580:A1 4.76678e-05
4 *2582:A2 *700:99 0
5 *2580:A2 *2582:A2 6.76694e-05
6 *2994:D *2582:A2 0.000177559
*RES
1 *2580:ZN *2582:A2 10.53 
*END

*D_NET *420 0.00262386
*CONN
*I *2582:A3 I *D gf180mcu_fd_sc_mcu7t5v0__nor3_1
*I *2581:Z O *D gf180mcu_fd_sc_mcu7t5v0__and2_1
*CAP
1 *2582:A3 0.000511796
2 *2581:Z 0.000511796
3 *2582:A3 *2992:CLK 6.31783e-05
4 *2582:A3 *700:53 0
5 *2582:A3 *700:63 0
6 *2580:A2 *2582:A3 0.00118753
7 *2582:A1 *2582:A3 0.000123332
8 *2993:D *2582:A3 0.000127736
9 *2994:D *2582:A3 9.84908e-05
*RES
1 *2581:Z *2582:A3 23.67 
*END

*D_NET *421 0.00182233
*CONN
*I *2586:A1 I *D gf180mcu_fd_sc_mcu7t5v0__nor2_1
*I *2583:ZN O *D gf180mcu_fd_sc_mcu7t5v0__aoi21_1
*CAP
1 *2586:A1 0.000236105
2 *2583:ZN 0.000236105
3 *2586:A1 *2586:A2 0.000377265
4 *2586:A1 *3184:I 0.000425752
5 *2586:A1 *875:38 0.00023917
6 *2584:A4 *2586:A1 0.000170811
7 *2995:D *2586:A1 0.00013712
*RES
1 *2583:ZN *2586:A1 12.78 
*END

*D_NET *422 0.0020321
*CONN
*I *2587:A2 I *D gf180mcu_fd_sc_mcu7t5v0__xor2_1
*I *2585:A3 I *D gf180mcu_fd_sc_mcu7t5v0__nand3_1
*I *2584:ZN O *D gf180mcu_fd_sc_mcu7t5v0__nand4_1
*CAP
1 *2587:A2 0.00029689
2 *2585:A3 0.000319092
3 *2584:ZN 6.95755e-05
4 *422:8 0.000685558
5 *2585:A3 *2583:B 7.55765e-06
6 *2585:A3 *2584:A1 7.20563e-05
7 *2585:A3 *2586:A2 0.000319617
8 *2585:A3 *2587:A1 0
9 *2585:A3 *3184:I 0
10 *2585:A3 *875:29 2.65444e-06
11 *2585:A3 *875:38 3.70283e-05
12 *2587:A2 *2586:A2 2.84883e-05
13 *2587:A2 *2587:A1 0.000151417
14 *2587:A2 *700:49 0
15 *422:8 *2586:A2 4.217e-05
*RES
1 *2584:ZN *422:8 9.63 
2 *422:8 *2585:A3 11.97 
3 *422:8 *2587:A2 11.34 
*END

*D_NET *423 0.00282366
*CONN
*I *2586:A2 I *D gf180mcu_fd_sc_mcu7t5v0__nor2_1
*I *2585:ZN O *D gf180mcu_fd_sc_mcu7t5v0__nand3_1
*CAP
1 *2586:A2 0.000519424
2 *2585:ZN 0.000519424
3 *2586:A2 *2583:B 5.30888e-06
4 *2586:A2 *2584:A1 4.91692e-05
5 *2586:A2 *700:49 7.21742e-05
6 *2586:A2 *875:29 0.000302466
7 *2586:A2 *875:38 0.000341596
8 *2455:A1 *2586:A2 0
9 *2585:A2 *2586:A2 0.000231442
10 *2585:A3 *2586:A2 0.000319617
11 *2586:A1 *2586:A2 0.000377265
12 *2587:A2 *2586:A2 2.84883e-05
13 *2995:D *2586:A2 1.51153e-05
14 *422:8 *2586:A2 4.217e-05
*RES
1 *2585:ZN *2586:A2 23.94 
*END

*D_NET *424 0.00141831
*CONN
*I *2588:A2 I *D gf180mcu_fd_sc_mcu7t5v0__nor2_1
*I *2587:Z O *D gf180mcu_fd_sc_mcu7t5v0__xor2_1
*CAP
1 *2588:A2 0.000617668
2 *2587:Z 0.000617668
3 *2588:A2 *2587:A1 7.77173e-05
4 *2588:A2 *3137:I 0
5 *2455:A1 *2588:A2 1.07374e-05
6 *2996:D *2588:A2 4.80371e-05
7 *373:12 *2588:A2 3.36874e-05
8 *373:23 *2588:A2 1.27919e-05
*RES
1 *2587:Z *2588:A2 13.23 
*END

*D_NET *425 0.00474257
*CONN
*I *2590:C I *D gf180mcu_fd_sc_mcu7t5v0__oai221_1
*I *2589:Z O *D gf180mcu_fd_sc_mcu7t5v0__xor2_1
*CAP
1 *2590:C 0.000311632
2 *2589:Z 0.000311632
3 *2590:C *2594:A1 5.05993e-05
4 *2590:C *2595:A2 0
5 *2590:C *2599:A1 0.000490017
6 *2590:C *2603:A2 0.000109531
7 *2590:C *2606:A1 0.000417564
8 *2590:C *2606:A2 0.00100799
9 *2590:C *2606:A4 0.00023712
10 *2590:C *2607:A2 0.00165111
11 *2590:C *2607:A4 3.3721e-05
12 *2590:A1 *2590:C 7.54425e-05
13 *2598:B1 *2590:C 2.31089e-05
14 *240:14 *2590:C 2.30981e-05
*RES
1 *2589:Z *2590:C 25.56 
*END

*D_NET *426 0.000307654
*CONN
*I *2607:A1 I *D gf180mcu_fd_sc_mcu7t5v0__nor4_1
*I *2590:ZN O *D gf180mcu_fd_sc_mcu7t5v0__oai221_1
*CAP
1 *2607:A1 0.000136394
2 *2590:ZN 0.000136394
3 *2607:A1 *2607:A3 2.65444e-06
4 *2590:A1 *2607:A1 3.22122e-05
*RES
1 *2590:ZN *2607:A1 10.17 
*END

*D_NET *427 0.00700341
*CONN
*I *2608:A1 I *D gf180mcu_fd_sc_mcu7t5v0__nor4_1
*I *2591:Z O *D gf180mcu_fd_sc_mcu7t5v0__xor2_1
*CAP
1 *2608:A1 0.000539515
2 *2591:Z 0.000539515
3 *2608:A1 *2593:A1 4.25503e-05
4 *2608:A1 *2608:A4 0.000717915
5 *2608:A1 *2610:A1 0.000820169
6 *2608:A1 *2610:A4 0.000307423
7 *2608:A1 *2614:A2 0.00285929
8 *2608:A1 *2655:A1 0.000164649
9 *2608:A1 *730:39 0.000482697
10 *2608:A1 *730:41 0.000164228
11 *2608:A1 *743:30 0.000365454
*RES
1 *2591:Z *2608:A1 28.89 
*END

*D_NET *428 0.00179687
*CONN
*I *2606:A1 I *D gf180mcu_fd_sc_mcu7t5v0__or4_1
*I *2592:Z O *D gf180mcu_fd_sc_mcu7t5v0__xor2_1
*CAP
1 *2606:A1 0.000445771
2 *2592:Z 0.000445771
3 *2606:A1 *2606:A2 0.000182206
4 *2606:A1 *2606:A4 0.00023712
5 *2606:A1 *742:49 0
6 *2590:A1 *2606:A1 6.84426e-05
7 *2590:C *2606:A1 0.000417564
*RES
1 *2592:Z *2606:A1 22.41 
*END

*D_NET *429 0.00502569
*CONN
*I *2607:A2 I *D gf180mcu_fd_sc_mcu7t5v0__nor4_1
*I *2593:Z O *D gf180mcu_fd_sc_mcu7t5v0__xor2_1
*CAP
1 *2607:A2 0.00091481
2 *2593:Z 0.00091481
3 *2607:A2 *2589:A2 0
4 *2607:A2 *2594:A1 9.26244e-05
5 *2607:A2 *2594:A2 4.94454e-05
6 *2607:A2 *2607:A4 0.000141586
7 *2607:A2 *2645:A2 9.20698e-05
8 *2607:A2 *2647:A2 0.000120293
9 *2607:A2 *3187:I 2.72714e-05
10 *2607:A2 *731:14 1.17725e-05
11 *2607:A2 *743:30 0.0010099
12 *2589:A1 *2607:A2 0
13 *2590:C *2607:A2 0.00165111
*RES
1 *2593:Z *2607:A2 27.63 
*END

*D_NET *430 0.00250043
*CONN
*I *2606:A2 I *D gf180mcu_fd_sc_mcu7t5v0__or4_1
*I *2594:Z O *D gf180mcu_fd_sc_mcu7t5v0__xor2_1
*CAP
1 *2606:A2 0.000365483
2 *2594:Z 0.000365483
3 *2606:A2 *2589:A2 8.45762e-05
4 *2606:A2 *2594:A1 0.000169515
5 *2606:A2 *2605:A2 0.000325173
6 *2606:A2 *2611:A1 0
7 *2606:A2 *2611:A2 0
8 *2606:A2 *742:49 0
9 *2590:C *2606:A2 0.00100799
10 *2606:A1 *2606:A2 0.000182206
*RES
1 *2594:Z *2606:A2 22.5 
*END

*D_NET *431 0.00039766
*CONN
*I *2607:A3 I *D gf180mcu_fd_sc_mcu7t5v0__nor4_1
*I *2595:Z O *D gf180mcu_fd_sc_mcu7t5v0__xor2_1
*CAP
1 *2607:A3 0.000162856
2 *2595:Z 0.000162856
3 *2607:A3 *2602:A1 0
4 *2607:A3 *2609:A3 6.92926e-05
5 *2607:A1 *2607:A3 2.65444e-06
*RES
1 *2595:Z *2607:A3 10.17 
*END

*D_NET *432 0.00114181
*CONN
*I *2606:A3 I *D gf180mcu_fd_sc_mcu7t5v0__or4_1
*I *2596:Z O *D gf180mcu_fd_sc_mcu7t5v0__xor2_1
*CAP
1 *2606:A3 0.000375761
2 *2596:Z 0.000375761
3 *2606:A3 *2608:A4 0.000210505
4 *2606:A3 *2645:A1 0
5 *2606:A3 *2647:A2 0.00017978
*RES
1 *2596:Z *2606:A3 11.7 
*END

*D_NET *433 0.000915735
*CONN
*I *2598:C I *D gf180mcu_fd_sc_mcu7t5v0__aoi221_1
*I *2597:Z O *D gf180mcu_fd_sc_mcu7t5v0__xor2_1
*CAP
1 *2598:C 0.000164977
2 *2597:Z 0.000164977
3 *2598:C *2592:A2 0.000302945
4 *2598:C *2609:A4 0.000252688
5 *2598:B1 *2598:C 3.01487e-05
*RES
1 *2597:Z *2598:C 10.89 
*END

*D_NET *434 0.00261439
*CONN
*I *2609:A1 I *D gf180mcu_fd_sc_mcu7t5v0__nand4_1
*I *2598:ZN O *D gf180mcu_fd_sc_mcu7t5v0__aoi221_1
*CAP
1 *2609:A1 0.000215427
2 *2598:ZN 0.000215427
3 *2609:A1 *2590:A2 0.000101624
4 *2609:A1 *2590:B2 0.000194905
5 *2609:A1 *2592:A2 0.000427631
6 *2609:A1 *2595:A2 0.00063331
7 *2609:A1 *2609:A2 1.23607e-05
8 *2609:A1 *445:10 0.000762334
9 *2609:A1 *736:74 5.13763e-05
*RES
1 *2598:ZN *2609:A1 21.96 
*END

*D_NET *435 0.00159106
*CONN
*I *2606:A4 I *D gf180mcu_fd_sc_mcu7t5v0__or4_1
*I *2599:Z O *D gf180mcu_fd_sc_mcu7t5v0__xor2_1
*CAP
1 *2606:A4 0.000176233
2 *2599:Z 0.000176233
3 *2606:A4 *2602:A2 0.000305503
4 *2606:A4 *2645:A2 0.000458848
5 *2590:C *2606:A4 0.00023712
6 *2606:A1 *2606:A4 0.00023712
*RES
1 *2599:Z *2606:A4 21.06 
*END

*D_NET *436 0.000601646
*CONN
*I *2603:A1 I *D gf180mcu_fd_sc_mcu7t5v0__nor2_1
*I *2600:Z O *D gf180mcu_fd_sc_mcu7t5v0__xor2_1
*CAP
1 *2603:A1 0.000193601
2 *2600:Z 0.000193601
3 *2603:A1 *2592:A2 0
4 *2603:A1 *2608:A2 0.00015997
5 *2603:A1 *2608:A3 1.23607e-05
6 *2603:A1 *2609:A2 1.56779e-05
7 *224:10 *2603:A1 2.64352e-05
*RES
1 *2600:Z *2603:A1 10.8 
*END

*D_NET *437 0.00434267
*CONN
*I *2608:A2 I *D gf180mcu_fd_sc_mcu7t5v0__nor4_1
*I *2601:Z O *D gf180mcu_fd_sc_mcu7t5v0__xor2_1
*CAP
1 *2608:A2 0.000225994
2 *2601:Z 0.000225994
3 *2608:A2 *2294:I 8.16464e-05
4 *2608:A2 *2608:A3 0.00232782
5 *2608:A2 *2608:A4 5.79557e-05
6 *2608:A2 *2614:A2 0.00116405
7 *2608:A2 *2644:A1 9.92342e-05
8 *2603:A1 *2608:A2 0.00015997
*RES
1 *2601:Z *2608:A2 24.48 
*END

*D_NET *438 0.00246146
*CONN
*I *2603:A2 I *D gf180mcu_fd_sc_mcu7t5v0__nor2_1
*I *2602:Z O *D gf180mcu_fd_sc_mcu7t5v0__xor2_1
*CAP
1 *2603:A2 0.000159167
2 *2602:Z 0.000159167
3 *2603:A2 *2590:A2 1.52092e-05
4 *2603:A2 *2590:B2 0.000109332
5 *2603:A2 *2609:A4 0
6 *2603:A2 *736:74 8.56272e-05
7 *2590:A1 *2603:A2 0.000372735
8 *2590:C *2603:A2 0.000109531
9 *2598:A1 *2603:A2 3.84844e-06
10 *2598:B1 *2603:A2 0.000671844
11 *224:10 *2603:A2 0.000775001
*RES
1 *2602:Z *2603:A2 21.78 
*END

*D_NET *439 0.00146694
*CONN
*I *2609:A2 I *D gf180mcu_fd_sc_mcu7t5v0__nand4_1
*I *2603:ZN O *D gf180mcu_fd_sc_mcu7t5v0__nor2_1
*CAP
1 *2609:A2 0.000441616
2 *2603:ZN 0.000441616
3 *2609:A2 *2592:A2 1.3634e-05
4 *2609:A2 *2597:A2 0
5 *2609:A2 *2601:A2 0.000203302
6 *2609:A2 *445:10 0.000338732
7 *2609:A2 *744:24 0
8 *2603:A1 *2609:A2 1.56779e-05
9 *2609:A1 *2609:A2 1.23607e-05
*RES
1 *2603:ZN *2609:A2 21.78 
*END

*D_NET *440 0.00481291
*CONN
*I *2608:A3 I *D gf180mcu_fd_sc_mcu7t5v0__nor4_1
*I *2604:Z O *D gf180mcu_fd_sc_mcu7t5v0__xor2_1
*CAP
1 *2608:A3 0.00034202
2 *2604:Z 0.00034202
3 *2608:A3 *2600:A1 0.000409974
4 *2608:A3 *2600:A2 0.000746027
5 *2608:A3 *2601:A1 2.65444e-06
6 *2608:A3 *2601:A2 4.18205e-05
7 *2608:A3 *2608:A4 0.000101624
8 *2608:A3 *2614:A1 0.000447874
9 *2608:A3 *2614:A2 2.63437e-05
10 *2608:A3 *2644:A1 1.23715e-05
11 *2603:A1 *2608:A3 1.23607e-05
12 *2608:A2 *2608:A3 0.00232782
*RES
1 *2604:Z *2608:A3 26.01 
*END

*D_NET *441 0.00531095
*CONN
*I *2608:A4 I *D gf180mcu_fd_sc_mcu7t5v0__nor4_1
*I *2605:Z O *D gf180mcu_fd_sc_mcu7t5v0__xor2_1
*CAP
1 *2608:A4 0.000645271
2 *2605:Z 0.000645271
3 *2608:A4 *2592:A1 3.12451e-05
4 *2608:A4 *2605:A2 0
5 *2608:A4 *2610:A1 0.000320262
6 *2608:A4 *2610:A2 8.49127e-05
7 *2608:A4 *2610:A4 0.000307423
8 *2608:A4 *2614:A1 0.00193237
9 *2608:A4 *2614:A2 2.422e-05
10 *2608:A4 *2645:A1 0.000194264
11 *2608:A4 *2647:A2 2.99793e-06
12 *2608:A4 *2655:A2 3.01487e-05
13 *2608:A4 *3099:I 4.56787e-06
14 *2608:A4 *742:49 0
15 *2606:A3 *2608:A4 0.000210505
16 *2608:A1 *2608:A4 0.000717915
17 *2608:A2 *2608:A4 5.79557e-05
18 *2608:A3 *2608:A4 0.000101624
*RES
1 *2605:Z *2608:A4 27.81 
*END

*D_NET *442 0.000589544
*CONN
*I *2607:A4 I *D gf180mcu_fd_sc_mcu7t5v0__nor4_1
*I *2606:Z O *D gf180mcu_fd_sc_mcu7t5v0__or4_1
*CAP
1 *2607:A4 0.000198882
2 *2606:Z 0.000198882
3 *2607:A4 *2602:A1 6.4558e-06
4 *2607:A4 *860:18 0
5 *2590:A1 *2607:A4 1.00177e-05
6 *2590:C *2607:A4 3.3721e-05
7 *2607:A2 *2607:A4 0.000141586
*RES
1 *2606:Z *2607:A4 19.62 
*END

*D_NET *443 0.00256481
*CONN
*I *2609:A3 I *D gf180mcu_fd_sc_mcu7t5v0__nand4_1
*I *2607:ZN O *D gf180mcu_fd_sc_mcu7t5v0__nor4_1
*CAP
1 *2609:A3 0.000889144
2 *2607:ZN 0.000889144
3 *2609:A3 *2592:A2 7.56972e-05
4 *2609:A3 *2595:A1 0.000297517
5 *2609:A3 *2595:A2 2.57385e-05
6 *2609:A3 *2597:A2 8.43025e-06
7 *2609:A3 *2602:A1 0
8 *2609:A3 *2609:A4 9.91104e-05
9 *2609:A3 *701:43 8.96572e-05
10 *2609:A3 *847:18 1.78063e-05
11 *2609:A3 *860:18 0.000103276
12 *2607:A3 *2609:A3 6.92926e-05
*RES
1 *2607:ZN *2609:A3 24.57 
*END

*D_NET *444 0.00332421
*CONN
*I *2609:A4 I *D gf180mcu_fd_sc_mcu7t5v0__nand4_1
*I *2608:ZN O *D gf180mcu_fd_sc_mcu7t5v0__nor4_1
*CAP
1 *2609:A4 0.000787924
2 *2608:ZN 0.000787924
3 *2609:A4 *2592:A1 0.000454485
4 *2609:A4 *2592:A2 7.01333e-05
5 *2609:A4 *2597:A1 0.000506097
6 *2609:A4 *2598:A2 9.85004e-05
7 *2609:A4 *2599:A1 0
8 *2609:A4 *857:31 0.00021735
9 *2598:A1 *2609:A4 2.917e-05
10 *2598:B1 *2609:A4 2.08301e-05
11 *2598:C *2609:A4 0.000252688
12 *2603:A2 *2609:A4 0
13 *2609:A3 *2609:A4 9.91104e-05
*RES
1 *2608:ZN *2609:A4 16.47 
*END

*D_NET *445 0.00729634
*CONN
*I *2615:B I *D gf180mcu_fd_sc_mcu7t5v0__aoi21_1
*I *2622:A3 I *D gf180mcu_fd_sc_mcu7t5v0__oai31_1
*I *2609:ZN O *D gf180mcu_fd_sc_mcu7t5v0__nand4_1
*CAP
1 *2615:B 0
2 *2622:A3 0.00028809
3 *2609:ZN 0.000276904
4 *445:10 0.000564994
5 *2622:A3 *2616:I 0.000383339
6 *2622:A3 *452:8 0.000881502
7 *2622:A3 *723:18 0.000424357
8 *2622:A3 *727:34 0
9 *2622:A3 *734:16 0
10 *2622:A3 *734:38 0.000500192
11 *445:10 *2592:A2 1.23715e-05
12 *445:10 *2595:A2 0.000623069
13 *445:10 *2601:A2 0.000445479
14 *445:10 *2604:A2 6.85746e-06
15 *445:10 *2616:I 0.000115911
16 *445:10 *734:38 0.000111961
17 *445:10 *736:74 0.00156025
18 *2609:A1 *445:10 0.000762334
19 *2609:A2 *445:10 0.000338732
*RES
1 *2609:ZN *445:10 16.56 
2 *445:10 *2622:A3 14.58 
3 *445:10 *2615:B 9 
*END

*D_NET *446 0.00525344
*CONN
*I *2614:A1 I *D gf180mcu_fd_sc_mcu7t5v0__and3_1
*I *2610:ZN O *D gf180mcu_fd_sc_mcu7t5v0__nor4_1
*CAP
1 *2614:A1 0.000848218
2 *2610:ZN 0.000848218
3 *2614:A1 *2600:A1 1.62478e-05
4 *2614:A1 *2601:A1 0.000628116
5 *2614:A1 *2610:A2 0.000294153
6 *2614:A1 *2614:A2 0.000235585
7 *2614:A1 *736:63 2.65444e-06
8 *2608:A3 *2614:A1 0.000447874
9 *2608:A4 *2614:A1 0.00193237
*RES
1 *2610:ZN *2614:A1 28.44 
*END

*D_NET *447 0.00683997
*CONN
*I *2614:A2 I *D gf180mcu_fd_sc_mcu7t5v0__and3_1
*I *2611:ZN O *D gf180mcu_fd_sc_mcu7t5v0__nor4_1
*CAP
1 *2614:A2 0.00103388
2 *2611:ZN 0.00103388
3 *2614:A2 *2594:A1 0
4 *2614:A2 *2644:A1 0.000222269
5 *2614:A2 *736:63 6.08466e-05
6 *2614:A2 *742:49 0.000179602
7 *2608:A1 *2614:A2 0.00285929
8 *2608:A2 *2614:A2 0.00116405
9 *2608:A3 *2614:A2 2.63437e-05
10 *2608:A4 *2614:A2 2.422e-05
11 *2614:A1 *2614:A2 0.000235585
*RES
1 *2611:ZN *2614:A2 31.32 
*END

*D_NET *448 0.00229593
*CONN
*I *2615:A1 I *D gf180mcu_fd_sc_mcu7t5v0__aoi21_1
*I *2612:ZN O *D gf180mcu_fd_sc_mcu7t5v0__nor4_1
*CAP
1 *2615:A1 0.000523845
2 *2612:ZN 0.000523845
3 *2615:A1 *2613:A3 0.000140033
4 *2615:A1 *2639:A2 0.000691311
5 *2615:A1 *727:10 0
6 *2615:A1 *735:34 0.000134091
7 *3004:D *2615:A1 0.000282806
*RES
1 *2612:ZN *2615:A1 14.31 
*END

*D_NET *449 0.000483997
*CONN
*I *2614:A3 I *D gf180mcu_fd_sc_mcu7t5v0__and3_1
*I *2613:ZN O *D gf180mcu_fd_sc_mcu7t5v0__nor4_1
*CAP
1 *2614:A3 0.000167705
2 *2613:ZN 0.000167705
3 *2614:A3 *2601:A1 6.08466e-05
4 *2614:A3 *736:63 8.77402e-05
*RES
1 *2613:ZN *2614:A3 10.44 
*END

*D_NET *450 0.00179219
*CONN
*I *2615:A2 I *D gf180mcu_fd_sc_mcu7t5v0__aoi21_1
*I *2614:Z O *D gf180mcu_fd_sc_mcu7t5v0__and3_1
*CAP
1 *2615:A2 4.62567e-05
2 *2614:Z 4.62567e-05
3 *2615:A2 *2597:A2 0.000365454
4 *2615:A2 *735:34 0.000499457
5 *2615:A2 *736:63 0.000365454
6 *2615:A2 *736:74 0.000469308
*RES
1 *2614:Z *2615:A2 11.25 
*END

*D_NET *451 0.000993585
*CONN
*I *2616:I I *D gf180mcu_fd_sc_mcu7t5v0__clkinv_1
*I *2615:ZN O *D gf180mcu_fd_sc_mcu7t5v0__aoi21_1
*CAP
1 *2616:I 0.000140376
2 *2615:ZN 0.000140376
3 *2616:I *2604:A2 3.3982e-05
4 *2616:I *727:10 0.000179602
5 *2622:A3 *2616:I 0.000383339
6 *445:10 *2616:I 0.000115911
*RES
1 *2615:ZN *2616:I 20.79 
*END

*D_NET *452 0.00614004
*CONN
*I *2619:A1 I *D gf180mcu_fd_sc_mcu7t5v0__aoi21_1
*I *2617:A2 I *D gf180mcu_fd_sc_mcu7t5v0__aoi21_1
*I *2616:ZN O *D gf180mcu_fd_sc_mcu7t5v0__clkinv_1
*CAP
1 *2619:A1 0.000162599
2 *2617:A2 0.000496527
3 *2616:ZN 0.000269572
4 *452:8 0.000928698
5 *2617:A2 *2624:A1 0.00035003
6 *2617:A2 *726:41 1.18076e-06
7 *2617:A2 *734:16 5.22092e-05
8 *2619:A1 *2621:A2 0.00037349
9 *2619:A1 *2622:A2 0.00017364
10 *452:8 *727:34 0
11 *452:8 *734:16 0.000172967
12 *2516:A2 *2617:A2 4.6613e-06
13 *2617:A1 *2617:A2 0
14 *2617:B *2617:A2 5.30888e-06
15 *2621:A1 *2619:A1 0.000444513
16 *2622:A1 *2617:A2 0.000145755
17 *2622:A1 *2619:A1 0.00035741
18 *2622:A3 *452:8 0.000881502
19 *2997:D *2617:A2 0.000151417
20 *2998:D *2619:A1 0.000119192
21 *2999:D *2617:A2 0.000653875
22 *213:8 *2617:A2 3.48193e-05
23 *225:47 *2617:A2 8.59949e-05
24 *371:35 *2619:A1 0.000274674
*RES
1 *2616:ZN *452:8 12.15 
2 *452:8 *2617:A2 14.04 
3 *452:8 *2619:A1 12.69 
*END

*D_NET *453 0.00313019
*CONN
*I *2619:A2 I *D gf180mcu_fd_sc_mcu7t5v0__aoi21_1
*I *2620:A2 I *D gf180mcu_fd_sc_mcu7t5v0__and2_1
*I *2618:ZN O *D gf180mcu_fd_sc_mcu7t5v0__nor2_1
*CAP
1 *2619:A2 6.04449e-05
2 *2620:A2 0.000138803
3 *2618:ZN 0.000147195
4 *453:10 0.000346443
5 *2619:A2 *2619:B 0.00023711
6 *2619:A2 *2621:A3 1.99431e-05
7 *2619:A2 *725:21 4.34691e-05
8 *2619:A2 *725:32 4.87375e-05
9 *2620:A2 *2620:A1 7.70028e-05
10 *2620:A2 *2924:CLK 0
11 *2620:A2 *455:10 0.000172267
12 *2620:A2 *727:51 2.31089e-05
13 *453:10 *725:10 0.000106536
14 *453:10 *725:21 0.000845251
15 *2383:B2 *453:10 0.000345504
16 *225:8 *2619:A2 0.000145765
17 *225:8 *453:10 0.000372606
*RES
1 *2618:ZN *453:10 12.24 
2 *453:10 *2620:A2 10.44 
3 *453:10 *2619:A2 10.17 
*END

*D_NET *454 0.000775437
*CONN
*I *2621:A2 I *D gf180mcu_fd_sc_mcu7t5v0__nor3_1
*I *2619:ZN O *D gf180mcu_fd_sc_mcu7t5v0__aoi21_1
*CAP
1 *2621:A2 1.42288e-05
2 *2619:ZN 1.42288e-05
3 *2619:A1 *2621:A2 0.00037349
4 *371:35 *2621:A2 0.00037349
*RES
1 *2619:ZN *2621:A2 9.99 
*END

*D_NET *455 0.00340163
*CONN
*I *2621:A3 I *D gf180mcu_fd_sc_mcu7t5v0__nor3_1
*I *2625:A2 I *D gf180mcu_fd_sc_mcu7t5v0__nor2_1
*I *2620:Z O *D gf180mcu_fd_sc_mcu7t5v0__and2_1
*CAP
1 *2621:A3 0.000106977
2 *2625:A2 0.000375417
3 *2620:Z 0.000345095
4 *455:10 0.000827489
5 *2621:A3 *727:34 1.99431e-05
6 *2625:A2 *2624:A3 0.0003073
7 *2625:A2 *486:20 0.000563806
8 *2625:A2 *727:51 0.000175108
9 *2625:A2 *734:16 1.61174e-05
10 *455:10 *2998:CLK 0
11 *455:10 *3136:I 0.000101624
12 *455:10 *725:21 0.000213928
13 *455:10 *727:34 9.72182e-06
14 *455:10 *727:51 8.02954e-05
15 *2383:B2 *455:10 3.58953e-05
16 *2619:A2 *2621:A3 1.99431e-05
17 *2620:A2 *455:10 0.000172267
18 *225:8 *2621:A3 3.0177e-06
19 *225:8 *455:10 2.76794e-05
*RES
1 *2620:Z *455:10 12.06 
2 *455:10 *2625:A2 13.05 
3 *455:10 *2621:A3 9.81 
*END

*D_NET *456 0.0211854
*CONN
*I *2644:A1 I *D gf180mcu_fd_sc_mcu7t5v0__nor3_1
*I *2639:A1 I *D gf180mcu_fd_sc_mcu7t5v0__nor3_1
*I *2634:A1 I *D gf180mcu_fd_sc_mcu7t5v0__nor3_1
*I *2626:A1 I *D gf180mcu_fd_sc_mcu7t5v0__nor3_1
*I *2623:I I *D gf180mcu_fd_sc_mcu7t5v0__clkinv_1
*I *2629:A1 I *D gf180mcu_fd_sc_mcu7t5v0__nor3_1
*I *2658:A1 I *D gf180mcu_fd_sc_mcu7t5v0__nor3_1
*I *2650:A1 I *D gf180mcu_fd_sc_mcu7t5v0__nor3_1
*I *2647:A1 I *D gf180mcu_fd_sc_mcu7t5v0__nor3_1
*I *2622:ZN O *D gf180mcu_fd_sc_mcu7t5v0__oai31_1
*CAP
1 *2644:A1 0.00086064
2 *2639:A1 0
3 *2634:A1 7.83467e-05
4 *2626:A1 0.000277233
5 *2623:I 3.44897e-05
6 *2629:A1 0.000823482
7 *2658:A1 0.000322396
8 *2650:A1 0
9 *2647:A1 0
10 *2622:ZN 0.000185224
11 *456:91 0.00119975
12 *456:67 0.000561738
13 *456:65 0.000545266
14 *456:25 0.000624808
15 *456:16 0.0019562
16 *456:10 0.00261307
17 *456:8 0.000798163
18 *456:6 0.000813096
19 *2626:A1 *2667:A1 5.74621e-06
20 *2626:A1 *486:20 0.000225331
21 *2626:A1 *698:10 0.00014822
22 *2626:A1 *698:12 0.000149577
23 *2629:A1 *2629:A2 0
24 *2629:A1 *2629:A3 0.000151427
25 *2629:A1 *2630:B 7.82351e-05
26 *2629:A1 *2633:A2 0.000747296
27 *2629:A1 *3002:CLK 5.58654e-05
28 *2629:A1 *460:10 0
29 *2629:A1 *460:25 0
30 *2629:A1 *736:51 0
31 *2634:A1 *458:12 0
32 *2634:A1 *486:20 3.21686e-05
33 *2644:A1 *2294:I 0.000220381
34 *2644:A1 *2600:A1 6.93366e-05
35 *2644:A1 *2601:A1 0
36 *2644:A1 *735:34 2.76794e-05
37 *2658:A1 *2648:A2 0.000510176
38 *2658:A1 *2650:A2 0.000463466
39 *2658:A1 *2659:A1 0.000291749
40 *2658:A1 *2662:B 0.000354738
41 *2658:A1 *480:8 0.000214714
42 *456:6 *698:10 6.75874e-06
43 *456:6 *723:18 0.000213209
44 *456:8 *463:14 0
45 *456:8 *463:20 0
46 *456:8 *698:10 1.20093e-05
47 *456:8 *698:92 0
48 *456:8 *723:18 0.000399257
49 *456:8 *737:19 9.9874e-05
50 *456:8 *737:30 2.44125e-05
51 *456:10 *2630:B 8.91159e-05
52 *456:10 *2635:A2 0
53 *456:10 *457:6 3.00764e-05
54 *456:10 *463:20 0
55 *456:10 *698:96 0
56 *456:10 *737:8 0.00014044
57 *456:10 *737:19 3.72424e-05
58 *456:16 *2630:B 7.77227e-05
59 *456:16 *2635:A2 0
60 *456:16 *737:8 0.000183652
61 *456:25 *2647:A2 0
62 *456:25 *2647:A3 0.000247389
63 *456:25 *2648:A2 0.000903329
64 *456:25 *472:19 0.000174497
65 *456:67 *486:20 1.52092e-05
66 *456:67 *698:10 0.000382916
67 *456:67 *735:19 6.18244e-05
68 *456:67 *735:34 9.78578e-05
69 *456:91 *2639:A3 0.000656875
70 *456:91 *698:10 0.00018902
71 *456:91 *735:34 0.00038462
72 *2383:B2 *2626:A1 0.000685623
73 *2608:A2 *2644:A1 9.92342e-05
74 *2608:A3 *2644:A1 1.23715e-05
75 *2614:A2 *2644:A1 0.000222269
76 *3003:D *456:10 0
77 *3117:I *2626:A1 0
78 *3117:I *2644:A1 0.000192684
79 *3117:I *456:91 7.57396e-05
80 *225:47 *2626:A1 3.01487e-05
*RES
1 *2622:ZN *456:6 6.03 
2 *456:6 *456:8 4.77 
3 *456:8 *456:10 1.53 
4 *456:10 *456:16 18.18 
5 *456:16 *2647:A1 9 
6 *456:16 *456:25 3.87 
7 *456:25 *2650:A1 9 
8 *456:25 *2658:A1 13.86 
9 *456:10 *2629:A1 20.34 
10 *456:8 *2623:I 4.77 
11 *456:6 *456:65 4.5 
12 *456:65 *456:67 2.43 
13 *456:67 *2626:A1 12.78 
14 *456:67 *2634:A1 9.45 
15 *456:65 *456:91 4.86 
16 *456:91 *2639:A1 9 
17 *456:91 *2644:A1 16.02 
*END

*D_NET *457 0.0169942
*CONN
*I *2660:B I *D gf180mcu_fd_sc_mcu7t5v0__oai21_1
*I *2654:B I *D gf180mcu_fd_sc_mcu7t5v0__oai21_1
*I *2662:B I *D gf180mcu_fd_sc_mcu7t5v0__oai21_1
*I *2652:B I *D gf180mcu_fd_sc_mcu7t5v0__oai21_1
*I *2640:B I *D gf180mcu_fd_sc_mcu7t5v0__oai21_1
*I *2635:B I *D gf180mcu_fd_sc_mcu7t5v0__oai21_1
*I *2630:B I *D gf180mcu_fd_sc_mcu7t5v0__oai21_1
*I *2623:ZN O *D gf180mcu_fd_sc_mcu7t5v0__clkinv_1
*CAP
1 *2660:B 0.000332919
2 *2654:B 3.64251e-05
3 *2662:B 0.0002473
4 *2652:B 0.000179152
5 *2640:B 0.000181824
6 *2635:B 0.000208532
7 *2630:B 0.000491016
8 *2623:ZN 2.79491e-05
9 *457:71 0.000990523
10 *457:58 0.00102346
11 *457:47 0.00104884
12 *457:36 0.00132634
13 *457:25 0.000881546
14 *457:6 0.000762166
15 *2630:B *2630:A1 3.77882e-05
16 *2630:B *2633:B 1.79237e-05
17 *2630:B *3003:CLK 0.000109323
18 *2630:B *736:36 0.000132776
19 *2630:B *737:8 0.000268962
20 *2635:B *2635:A1 0.000255131
21 *2635:B *738:14 0
22 *2640:B *2641:B 0.000109868
23 *2640:B *2643:A1 6.1299e-06
24 *2640:B *741:12 1.23715e-05
25 *2640:B *741:25 8.18228e-05
26 *2652:B *2648:A1 0.000183652
27 *2652:B *2652:A1 2.9185e-05
28 *2652:B *733:14 0.000103446
29 *2654:B *2658:A2 0.000240548
30 *2654:B *2660:A2 3.08015e-05
31 *2660:B *2660:A1 0.000120999
32 *2660:B *2660:A2 0
33 *2660:B *2661:A1 0.000161479
34 *2660:B *769:12 9.89629e-06
35 *2662:B *2658:A3 3.99116e-05
36 *2662:B *2659:A1 0.000345164
37 *2662:B *2662:A1 8.77402e-05
38 *2662:B *743:30 0
39 *457:25 *2637:A3 0.000101792
40 *457:25 *3003:CLK 0.000111891
41 *457:25 *3005:CLK 5.59457e-05
42 *457:25 *463:20 8.81852e-05
43 *457:25 *736:63 0
44 *457:36 *2637:A3 0.000310052
45 *457:36 *2639:A2 4.24734e-05
46 *457:36 *2640:A2 4.3945e-05
47 *457:36 *3005:CLK 0.000177296
48 *457:36 *466:19 3.9039e-05
49 *457:36 *466:29 0.000137711
50 *457:36 *740:31 0
51 *457:36 *741:12 0.000238643
52 *457:47 *2599:A2 0
53 *457:47 *2646:A1 0.000435339
54 *457:47 *2648:A1 2.60549e-05
55 *457:47 *2651:A1 2.48332e-05
56 *457:47 *466:29 6.56516e-05
57 *457:47 *470:19 0.000731081
58 *457:47 *470:32 1.78063e-05
59 *457:47 *474:12 0.00110932
60 *457:47 *475:10 3.10746e-05
61 *457:47 *699:21 2.12098e-05
62 *457:47 *740:14 9.83962e-05
63 *457:47 *740:66 0
64 *457:47 *741:12 0.000303031
65 *457:47 *742:10 0.000365635
66 *457:47 *742:12 0.000295931
67 *457:58 *475:10 0.000121958
68 *457:71 *2655:B 1.68605e-05
69 *457:71 *2660:A2 0
70 *457:71 *475:10 0.000177529
71 *457:71 *475:31 0.000103373
72 *457:71 *699:83 7.58849e-05
73 *2629:A1 *2630:B 7.82351e-05
74 *2658:A1 *2662:B 0.000354738
75 *3003:D *2630:B 9.10973e-06
76 *3003:D *457:6 4.35286e-06
77 *3006:D *457:47 0.000111418
78 *3009:D *2652:B 0.000218459
79 *3009:D *457:47 1.86249e-05
80 *3009:D *457:58 0.000202387
81 *3009:D *457:71 6.24947e-05
82 *3011:D *2662:B 0.000246588
83 *3012:D *2654:B 0
84 *456:10 *2630:B 8.91159e-05
85 *456:10 *457:6 3.00764e-05
86 *456:16 *2630:B 7.77227e-05
*RES
1 *2623:ZN *457:6 4.77 
2 *457:6 *2630:B 18.09 
3 *457:6 *457:25 6.75 
4 *457:25 *2635:B 10.71 
5 *457:25 *457:36 4.95 
6 *457:36 *2640:B 10.53 
7 *457:36 *457:47 9.99 
8 *457:47 *2652:B 11.07 
9 *457:47 *457:58 1.89 
10 *457:58 *2662:B 12.33 
11 *457:58 *457:71 4.32 
12 *457:71 *2654:B 9.63 
13 *457:71 *2660:B 11.16 
*END

*D_NET *458 0.00706118
*CONN
*I *2626:A2 I *D gf180mcu_fd_sc_mcu7t5v0__nor3_1
*I *2627:A2 I *D gf180mcu_fd_sc_mcu7t5v0__and2_1
*I *2628:A2 I *D gf180mcu_fd_sc_mcu7t5v0__nor2_1
*I *2632:A4 I *D gf180mcu_fd_sc_mcu7t5v0__and4_1
*I *2624:Z O *D gf180mcu_fd_sc_mcu7t5v0__and4_1
*CAP
1 *2626:A2 7.62938e-05
2 *2627:A2 0
3 *2628:A2 0.000118435
4 *2632:A4 0.000318558
5 *2624:Z 8.52515e-05
6 *458:14 0.000457338
7 *458:12 0.000165566
8 *458:10 0.000306768
9 *2626:A2 *698:67 6.78995e-05
10 *2628:A2 *2628:A1 0.000862235
11 *2628:A2 *722:22 3.31517e-06
12 *2632:A4 *2632:A3 2.58417e-07
13 *2632:A4 *2634:A3 0.00041298
14 *2632:A4 *3098:I 0.000153299
15 *2632:A4 *460:6 4.72347e-05
16 *2632:A4 *722:22 0.000672279
17 *2632:A4 *723:18 0.000127515
18 *2632:A4 *735:6 0.000195939
19 *458:10 *698:10 0.000726758
20 *458:10 *698:12 0.00023968
21 *458:12 *486:20 0
22 *458:12 *698:67 1.39839e-05
23 *458:12 *735:6 1.0415e-05
24 *458:14 *735:6 3.12451e-05
25 *2383:B2 *2626:A2 0.000461264
26 *2383:B2 *2628:A2 0.000163256
27 *2383:B2 *2632:A4 0.000286386
28 *2383:B2 *458:12 0.00044647
29 *2383:B2 *458:14 6.02974e-05
30 *2634:A1 *458:12 0
31 *2999:D *2626:A2 0.000169515
32 *3117:I *458:10 0.000380747
*RES
1 *2624:Z *458:10 15.93 
2 *458:10 *458:12 1.35 
3 *458:12 *458:14 0.27 
4 *458:14 *2632:A4 17.91 
5 *458:14 *2628:A2 15.75 
6 *458:12 *2627:A2 4.5 
7 *458:10 *2626:A2 5.85 
*END

*D_NET *459 0.000791666
*CONN
*I *2626:A3 I *D gf180mcu_fd_sc_mcu7t5v0__nor3_1
*I *2625:ZN O *D gf180mcu_fd_sc_mcu7t5v0__nor2_1
*CAP
1 *2626:A3 7.48202e-05
2 *2625:ZN 7.48202e-05
3 *2626:A3 *2624:A1 5.92385e-05
4 *2626:A3 *698:67 9.04462e-05
5 *2624:A4 *2626:A3 0.000362328
6 *2999:D *2626:A3 0.000130013
*RES
1 *2625:ZN *2626:A3 19.26 
*END

*D_NET *460 0.005777
*CONN
*I *2633:A2 I *D gf180mcu_fd_sc_mcu7t5v0__aoi21_1
*I *2631:A2 I *D gf180mcu_fd_sc_mcu7t5v0__aoi21_1
*I *2630:A2 I *D gf180mcu_fd_sc_mcu7t5v0__oai21_1
*I *2629:A2 I *D gf180mcu_fd_sc_mcu7t5v0__nor3_1
*I *2627:Z O *D gf180mcu_fd_sc_mcu7t5v0__and2_1
*CAP
1 *2633:A2 0.000215195
2 *2631:A2 0
3 *2630:A2 0.000149928
4 *2629:A2 0.000101132
5 *2627:Z 0.0006518
6 *460:25 0.000417624
7 *460:10 0.000594855
8 *460:6 0.00109302
9 *2629:A2 *3002:CLK 0.000222631
10 *2629:A2 *736:10 8.43025e-06
11 *2630:A2 *2631:B 0.00032797
12 *2630:A2 *736:10 0.000312562
13 *460:6 *2629:A3 0
14 *460:6 *2667:A2 0.000158716
15 *460:6 *735:6 0.000156498
16 *460:10 *2629:A3 0
17 *460:25 *2631:A1 8.68281e-06
18 *460:25 *736:10 6.13096e-05
19 *460:25 *736:21 1.27919e-05
20 *2383:B2 *460:6 8.69576e-05
21 *2629:A1 *2629:A2 0
22 *2629:A1 *2633:A2 0.000747296
23 *2629:A1 *460:10 0
24 *2629:A1 *460:25 0
25 *2632:A4 *460:6 4.72347e-05
26 *3001:D *2629:A2 0.000136885
27 *3001:D *2630:A2 0.000182206
28 *3002:D *460:6 4.6613e-06
29 *3002:D *460:10 7.86152e-05
*RES
1 *2627:Z *460:6 9.45 
2 *460:6 *460:10 6.03 
3 *460:10 *2629:A2 10.89 
4 *460:10 *460:25 6.3 
5 *460:25 *2630:A2 15.39 
6 *460:25 *2631:A2 4.5 
7 *460:6 *2633:A2 15.39 
*END

*D_NET *461 0.00238619
*CONN
*I *2629:A3 I *D gf180mcu_fd_sc_mcu7t5v0__nor3_1
*I *2628:ZN O *D gf180mcu_fd_sc_mcu7t5v0__nor2_1
*CAP
1 *2629:A3 0.000708469
2 *2628:ZN 0.000708469
3 *2629:A3 *2667:A2 0
4 *2629:A1 *2629:A3 0.000151427
5 *3096:I *2629:A3 0.000741032
6 *3117:I *2629:A3 7.67885e-05
7 *460:6 *2629:A3 0
8 *460:10 *2629:A3 0
*RES
1 *2628:ZN *2629:A3 15.3 
*END

*D_NET *462 0.000498291
*CONN
*I *2631:B I *D gf180mcu_fd_sc_mcu7t5v0__aoi21_1
*I *2630:ZN O *D gf180mcu_fd_sc_mcu7t5v0__oai21_1
*CAP
1 *2631:B 8.51601e-05
2 *2630:ZN 8.51601e-05
3 *2630:A2 *2631:B 0.00032797
*RES
1 *2630:ZN *2631:B 18.99 
*END

*D_NET *463 0.00843955
*CONN
*I *2634:A2 I *D gf180mcu_fd_sc_mcu7t5v0__nor3_1
*I *2638:A2 I *D gf180mcu_fd_sc_mcu7t5v0__aoi21_1
*I *2636:A2 I *D gf180mcu_fd_sc_mcu7t5v0__aoi21_1
*I *2637:A3 I *D gf180mcu_fd_sc_mcu7t5v0__and3_1
*I *2635:A2 I *D gf180mcu_fd_sc_mcu7t5v0__oai21_1
*I *2632:Z O *D gf180mcu_fd_sc_mcu7t5v0__and4_1
*CAP
1 *2634:A2 0.000268733
2 *2638:A2 0.000131687
3 *2636:A2 0
4 *2637:A3 0.000334066
5 *2635:A2 0.000135855
6 *2632:Z 0
7 *463:20 0.000607481
8 *463:14 0.000282713
9 *463:10 0.00062256
10 *463:4 0.000614451
11 *2634:A2 *2634:A3 0.000782884
12 *2634:A2 *486:20 7.0476e-06
13 *2634:A2 *735:6 0
14 *2635:A2 *2636:B 0.00075429
15 *2635:A2 *698:96 0.000418993
16 *2637:A3 *2637:A2 9.85004e-05
17 *2637:A3 *2639:A2 1.86249e-05
18 *2637:A3 *466:23 0
19 *2637:A3 *736:63 0
20 *2637:A3 *738:14 3.01487e-05
21 *2638:A2 *2638:A1 3.09926e-05
22 *2638:A2 *698:92 0.000481203
23 *2638:A2 *698:96 3.01487e-05
24 *2638:A2 *736:63 0.000194779
25 *2638:A2 *737:30 7.01955e-06
26 *2638:A2 *738:28 0.000291797
27 *463:10 *2634:A3 0.000167939
28 *463:10 *723:18 0.000148021
29 *463:10 *736:63 0.000886727
30 *463:10 *737:30 2.92596e-05
31 *463:14 *698:96 0.000168493
32 *463:20 *698:96 6.16286e-05
33 *3002:D *2634:A2 8.4612e-05
34 *3002:D *463:10 3.52536e-05
35 *3003:D *463:20 3.01487e-05
36 *371:45 *463:10 0.000183465
37 *456:8 *463:14 0
38 *456:8 *463:20 0
39 *456:10 *2635:A2 0
40 *456:10 *463:20 0
41 *456:16 *2635:A2 0
42 *457:25 *2637:A3 0.000101792
43 *457:25 *463:20 8.81852e-05
44 *457:36 *2637:A3 0.000310052
*RES
1 *2632:Z *463:4 4.5 
2 *463:4 *463:10 8.64 
3 *463:10 *463:14 5.67 
4 *463:14 *463:20 5.58 
5 *463:20 *2635:A2 11.07 
6 *463:20 *2637:A3 11.88 
7 *463:14 *2636:A2 4.5 
8 *463:10 *2638:A2 10.98 
9 *463:4 *2634:A2 7.29 
*END

*D_NET *464 0.00289146
*CONN
*I *2634:A3 I *D gf180mcu_fd_sc_mcu7t5v0__nor3_1
*I *2633:ZN O *D gf180mcu_fd_sc_mcu7t5v0__aoi21_1
*CAP
1 *2634:A3 0.000434804
2 *2633:ZN 0.000434804
3 *2634:A3 *2632:A3 0.000119909
4 *2634:A3 *3098:I 0.000109148
5 *2634:A3 *486:20 0
6 *2634:A3 *736:51 0.000310666
7 *2632:A4 *2634:A3 0.00041298
8 *2634:A2 *2634:A3 0.000782884
9 *3002:D *2634:A3 0.000118327
10 *463:10 *2634:A3 0.000167939
*RES
1 *2633:ZN *2634:A3 14.76 
*END

*D_NET *465 0.00172215
*CONN
*I *2636:B I *D gf180mcu_fd_sc_mcu7t5v0__aoi21_1
*I *2635:ZN O *D gf180mcu_fd_sc_mcu7t5v0__oai21_1
*CAP
1 *2636:B 5.79147e-05
2 *2635:ZN 5.79147e-05
3 *2636:B *2635:A1 0.000822641
4 *2636:B *698:96 2.93938e-05
5 *2635:A2 *2636:B 0.00075429
*RES
1 *2635:ZN *2636:B 11.25 
*END

*D_NET *466 0.00797811
*CONN
*I *2640:A2 I *D gf180mcu_fd_sc_mcu7t5v0__oai21_1
*I *2641:A2 I *D gf180mcu_fd_sc_mcu7t5v0__aoi21_1
*I *2642:A2 I *D gf180mcu_fd_sc_mcu7t5v0__aoi21_1
*I *2643:A3 I *D gf180mcu_fd_sc_mcu7t5v0__and3_1
*I *2639:A2 I *D gf180mcu_fd_sc_mcu7t5v0__nor3_1
*I *2637:Z O *D gf180mcu_fd_sc_mcu7t5v0__and3_1
*CAP
1 *2640:A2 0.00015391
2 *2641:A2 0
3 *2642:A2 0.000189134
4 *2643:A3 0
5 *2639:A2 0.000574544
6 *2637:Z 0
7 *466:29 0.000507751
8 *466:23 0.000535613
9 *466:19 0.000444811
10 *466:6 0.000648449
11 *2639:A2 *2612:A3 1.06861e-05
12 *2639:A2 *2637:A1 0.000674964
13 *2639:A2 *2639:A3 0
14 *2639:A2 *736:63 0.000105483
15 *2640:A2 *2612:A1 3.6437e-05
16 *2640:A2 *2641:A1 8.38699e-05
17 *2640:A2 *2641:B 0.000214283
18 *2640:A2 *740:31 3.60134e-05
19 *2642:A2 *2643:A2 9.04462e-05
20 *2642:A2 *2644:A3 0.000112532
21 *2642:A2 *740:14 5.60661e-06
22 *2642:A2 *740:25 0.000755891
23 *2642:A2 *740:66 0.000627577
24 *2642:A2 *741:25 0.00066358
25 *466:19 *2294:I 0
26 *466:19 *2612:A1 2.84815e-05
27 *466:19 *736:63 2.52908e-05
28 *466:23 *2637:A1 0
29 *466:23 *2641:A1 0.000160154
30 *466:23 *738:14 7.96333e-06
31 *466:29 *740:14 9.39061e-05
32 *2615:A1 *2639:A2 0.000691311
33 *2637:A3 *2639:A2 1.86249e-05
34 *2637:A3 *466:23 0
35 *3004:D *2639:A2 3.38463e-05
36 *3006:D *2642:A2 0.000118129
37 *457:36 *2639:A2 4.24734e-05
38 *457:36 *2640:A2 4.3945e-05
39 *457:36 *466:19 3.9039e-05
40 *457:36 *466:29 0.000137711
41 *457:47 *466:29 6.56516e-05
*RES
1 *2637:Z *466:6 9 
2 *466:6 *2639:A2 14.4 
3 *466:6 *466:19 0.81 
4 *466:19 *466:23 6.21 
5 *466:23 *466:29 11.79 
6 *466:29 *2643:A3 4.5 
7 *466:29 *2642:A2 17.64 
8 *466:23 *2641:A2 4.5 
9 *466:19 *2640:A2 10.62 
*END

*D_NET *467 0.00158491
*CONN
*I *2639:A3 I *D gf180mcu_fd_sc_mcu7t5v0__nor3_1
*I *2638:ZN O *D gf180mcu_fd_sc_mcu7t5v0__aoi21_1
*CAP
1 *2639:A3 0.0003602
2 *2638:ZN 0.0003602
3 *2639:A3 *698:10 0
4 *2639:A3 *698:92 5.50498e-05
5 *2639:A2 *2639:A3 0
6 *3117:I *2639:A3 0.000152587
7 *456:91 *2639:A3 0.000656875
*RES
1 *2638:ZN *2639:A3 21.6 
*END

*D_NET *468 0.00109656
*CONN
*I *2641:B I *D gf180mcu_fd_sc_mcu7t5v0__aoi21_1
*I *2640:ZN O *D gf180mcu_fd_sc_mcu7t5v0__oai21_1
*CAP
1 *2641:B 0.000232968
2 *2640:ZN 0.000232968
3 *2641:B *2641:A1 0.000235448
4 *2641:B *2643:A1 0
5 *2641:B *741:12 7.10237e-05
6 *2640:A2 *2641:B 0.000214283
7 *2640:B *2641:B 0.000109868
*RES
1 *2640:ZN *2641:B 11.61 
*END

*D_NET *469 0.00100339
*CONN
*I *2644:A2 I *D gf180mcu_fd_sc_mcu7t5v0__nor3_1
*I *2642:ZN O *D gf180mcu_fd_sc_mcu7t5v0__aoi21_1
*CAP
1 *2644:A2 0.00015029
2 *2642:ZN 0.00015029
3 *2644:A2 *2294:I 3.53802e-05
4 *2644:A2 *2592:A1 2.08301e-05
5 *2644:A2 *740:66 1.0415e-05
6 *2644:A2 *741:25 0.000636185
*RES
1 *2642:ZN *2644:A2 19.98 
*END

*D_NET *470 0.0115629
*CONN
*I *2651:A4 I *D gf180mcu_fd_sc_mcu7t5v0__and4_1
*I *2645:A2 I *D gf180mcu_fd_sc_mcu7t5v0__nor2_1
*I *2646:A2 I *D gf180mcu_fd_sc_mcu7t5v0__and2_1
*I *2644:A3 I *D gf180mcu_fd_sc_mcu7t5v0__nor3_1
*I *2643:Z O *D gf180mcu_fd_sc_mcu7t5v0__and3_1
*CAP
1 *2651:A4 9.10172e-05
2 *2645:A2 0.000651441
3 *2646:A2 0.000118033
4 *2644:A3 0.000337991
5 *2643:Z 0
6 *470:32 0.00107238
7 *470:19 0.000616662
8 *470:4 0.000506702
9 *2644:A3 *740:14 0
10 *2644:A3 *741:25 5.05634e-06
11 *2645:A2 *2602:A1 0
12 *2645:A2 *2602:A2 4.55586e-05
13 *2645:A2 *2647:A2 0.0024867
14 *2645:A2 *728:32 0.00109098
15 *2646:A2 *2646:A1 0.000390015
16 *2646:A2 *2649:A2 0.000955358
17 *2651:A4 *2647:A2 0.000161479
18 *2651:A4 *2651:A1 4.73908e-05
19 *2651:A4 *742:36 6.34901e-05
20 *470:19 *699:21 5.00297e-05
21 *470:19 *728:10 3.60134e-05
22 *470:19 *740:14 0.000101615
23 *470:32 *2646:A1 3.33106e-05
24 *470:32 *2649:A1 2.14748e-05
25 *470:32 *2649:A2 0.000183818
26 *470:32 *2651:A1 6.71551e-05
27 *470:32 *3006:CLK 0
28 *470:32 *474:12 6.7442e-05
29 *470:32 *728:25 0
30 *470:32 *728:32 0
31 *2606:A4 *2645:A2 0.000458848
32 *2607:A2 *2645:A2 9.20698e-05
33 *2642:A2 *2644:A3 0.000112532
34 *3006:D *2644:A3 0.000285306
35 *3007:D *470:19 0.000664144
36 *457:47 *470:19 0.000731081
37 *457:47 *470:32 1.78063e-05
*RES
1 *2643:Z *470:4 4.5 
2 *470:4 *2644:A3 7.02 
3 *470:4 *470:19 13.05 
4 *470:19 *2646:A2 7.11 
5 *470:19 *470:32 7.38 
6 *470:32 *2645:A2 18.09 
7 *470:32 *2651:A4 9.9 
*END

*D_NET *471 0.00761015
*CONN
*I *2647:A2 I *D gf180mcu_fd_sc_mcu7t5v0__nor3_1
*I *2645:ZN O *D gf180mcu_fd_sc_mcu7t5v0__nor2_1
*CAP
1 *2647:A2 0.00154318
2 *2645:ZN 0.00154318
3 *2647:A2 *2645:A1 6.93035e-05
4 *2647:A2 *2646:A1 0
5 *2647:A2 *2648:A1 2.16372e-05
6 *2647:A2 *2649:A2 0
7 *2647:A2 *2651:A3 0.000269245
8 *2647:A2 *3008:CLK 9.09867e-05
9 *2647:A2 *699:8 3.22829e-05
10 *2647:A2 *728:10 6.95539e-05
11 *2647:A2 *728:21 0.00011394
12 *2647:A2 *728:25 0.000104415
13 *2647:A2 *728:32 4.266e-05
14 *2647:A2 *742:36 0.000328743
15 *2647:A2 *742:49 0.000308415
16 *2606:A3 *2647:A2 0.00017978
17 *2607:A2 *2647:A2 0.000120293
18 *2608:A4 *2647:A2 2.99793e-06
19 *2645:A2 *2647:A2 0.0024867
20 *2651:A4 *2647:A2 0.000161479
21 *3007:D *2647:A2 0.000121356
22 *456:25 *2647:A2 0
*RES
1 *2645:ZN *2647:A2 34.29 
*END

*D_NET *472 0.00452445
*CONN
*I *2648:A2 I *D gf180mcu_fd_sc_mcu7t5v0__nor2_1
*I *2649:A2 I *D gf180mcu_fd_sc_mcu7t5v0__and2_1
*I *2647:A3 I *D gf180mcu_fd_sc_mcu7t5v0__nor3_1
*I *2646:Z O *D gf180mcu_fd_sc_mcu7t5v0__and2_1
*CAP
1 *2648:A2 0.000219689
2 *2649:A2 0.00034939
3 *2647:A3 8.91951e-05
4 *2646:Z 0
5 *472:19 0.000605097
6 *472:6 0.000125213
7 *2649:A2 *2646:A1 2.14748e-05
8 *2649:A2 *2649:A1 0.000139825
9 *2646:A2 *2649:A2 0.000955358
10 *2647:A2 *2649:A2 0
11 *2658:A1 *2648:A2 0.000510176
12 *3007:D *2649:A2 0
13 *456:25 *2647:A3 0.000247389
14 *456:25 *2648:A2 0.000903329
15 *456:25 *472:19 0.000174497
16 *470:32 *2649:A2 0.000183818
*RES
1 *2646:Z *472:6 9 
2 *472:6 *2647:A3 9.9 
3 *472:6 *472:19 0.45 
4 *472:19 *2649:A2 12.69 
5 *472:19 *2648:A2 12.51 
*END

*D_NET *473 0.00075735
*CONN
*I *2650:A2 I *D gf180mcu_fd_sc_mcu7t5v0__nor3_1
*I *2648:ZN O *D gf180mcu_fd_sc_mcu7t5v0__nor2_1
*CAP
1 *2650:A2 0.000146942
2 *2648:ZN 0.000146942
3 *2658:A1 *2650:A2 0.000463466
*RES
1 *2648:ZN *2650:A2 19.17 
*END

*D_NET *474 0.00369348
*CONN
*I *2652:A2 I *D gf180mcu_fd_sc_mcu7t5v0__oai21_1
*I *2650:A3 I *D gf180mcu_fd_sc_mcu7t5v0__nor3_1
*I *2649:Z O *D gf180mcu_fd_sc_mcu7t5v0__and2_1
*CAP
1 *2652:A2 0
2 *2650:A3 0.000295927
3 *2649:Z 0.000242921
4 *474:12 0.000538848
5 *2650:A3 *2648:A1 0.000145904
6 *2650:A3 *2653:A2 3.55118e-05
7 *2650:A3 *3008:CLK 1.32722e-05
8 *474:12 *2651:A1 0.000367461
9 *474:12 *2653:A2 0.000683203
10 *474:12 *3008:CLK 1.31349e-05
11 *474:12 *699:8 1.64952e-05
12 *474:12 *742:10 0.000164036
13 *3008:D *2650:A3 0
14 *457:47 *474:12 0.00110932
15 *470:32 *474:12 6.7442e-05
*RES
1 *2649:Z *474:12 18.36 
2 *474:12 *2650:A3 6.93 
3 *474:12 *2652:A2 4.5 
*END

*D_NET *475 0.00787228
*CONN
*I *2653:A1 I *D gf180mcu_fd_sc_mcu7t5v0__nor2_1
*I *2655:A2 I *D gf180mcu_fd_sc_mcu7t5v0__aoi21_1
*I *2656:A2 I *D gf180mcu_fd_sc_mcu7t5v0__aoi21_1
*I *2654:A2 I *D gf180mcu_fd_sc_mcu7t5v0__oai21_1
*I *2657:A3 I *D gf180mcu_fd_sc_mcu7t5v0__and3_1
*I *2651:Z O *D gf180mcu_fd_sc_mcu7t5v0__and4_1
*CAP
1 *2653:A1 3.94931e-05
2 *2655:A2 0.000168867
3 *2656:A2 0.000164902
4 *2654:A2 0
5 *2657:A3 0.000294297
6 *2651:Z 0
7 *475:49 0.000548808
8 *475:31 0.000231914
9 *475:10 0.000878734
10 *475:4 0.000857873
11 *2655:A2 *2610:A2 2.44598e-07
12 *2655:A2 *2655:B 3.76403e-05
13 *2655:A2 *742:36 0
14 *2656:A2 *2657:A1 6.02564e-05
15 *2656:A2 *730:19 3.12451e-05
16 *2656:A2 *730:28 0.000133341
17 *2657:A3 *2657:A1 0.000289112
18 *2657:A3 *2657:A2 2.16474e-05
19 *2657:A3 *699:77 0.000540278
20 *2657:A3 *743:30 0.000185153
21 *475:10 *2651:A1 0.000455748
22 *475:10 *2653:A2 1.17725e-05
23 *475:10 *2655:B 0.00128548
24 *475:10 *699:8 0.000106536
25 *475:10 *729:34 0
26 *475:31 *2655:B 0.000430589
27 *475:49 *2653:A2 0.00011208
28 *475:49 *699:8 0.000261724
29 *475:49 *742:36 0.000260454
30 *2608:A4 *2655:A2 3.01487e-05
31 *457:47 *475:10 3.10746e-05
32 *457:58 *475:10 0.000121958
33 *457:71 *475:10 0.000177529
34 *457:71 *475:31 0.000103373
*RES
1 *2651:Z *475:4 4.5 
2 *475:4 *475:10 10.44 
3 *475:10 *2657:A3 12.69 
4 *475:10 *475:31 5.67 
5 *475:31 *2654:A2 4.5 
6 *475:31 *2656:A2 5.94 
7 *475:4 *475:49 3.6 
8 *475:49 *2655:A2 5.85 
9 *475:49 *2653:A1 4.95 
*END

*D_NET *476 0.00288584
*CONN
*I *2653:A2 I *D gf180mcu_fd_sc_mcu7t5v0__nor2_1
*I *2652:ZN O *D gf180mcu_fd_sc_mcu7t5v0__oai21_1
*CAP
1 *2653:A2 0.000310334
2 *2652:ZN 0.000310334
3 *2653:A2 *2652:A1 0.000433797
4 *2653:A2 *699:8 8.44077e-06
5 *2653:A2 *729:13 0.000391517
6 *2653:A2 *729:34 0.000530755
7 *2650:A3 *2653:A2 3.55118e-05
8 *3009:D *2653:A2 5.80964e-05
9 *474:12 *2653:A2 0.000683203
10 *475:10 *2653:A2 1.17725e-05
11 *475:49 *2653:A2 0.00011208
*RES
1 *2652:ZN *2653:A2 13.68 
*END

*D_NET *477 0.00439236
*CONN
*I *2655:B I *D gf180mcu_fd_sc_mcu7t5v0__aoi21_1
*I *2654:ZN O *D gf180mcu_fd_sc_mcu7t5v0__oai21_1
*CAP
1 *2655:B 0.000727444
2 *2654:ZN 0.000727444
3 *2655:B *3010:CLK 7.13114e-05
4 *2655:B *699:68 4.57514e-05
5 *2655:B *729:34 0.000823502
6 *2655:B *732:20 0
7 *2655:B *733:14 0.000157023
8 *2655:A2 *2655:B 3.76403e-05
9 *3009:D *2655:B 6.93127e-05
10 *457:71 *2655:B 1.68605e-05
11 *475:10 *2655:B 0.00128548
12 *475:31 *2655:B 0.000430589
*RES
1 *2654:ZN *2655:B 26.1 
*END

*D_NET *478 0.00428397
*CONN
*I *2658:A2 I *D gf180mcu_fd_sc_mcu7t5v0__nor3_1
*I *2656:ZN O *D gf180mcu_fd_sc_mcu7t5v0__aoi21_1
*CAP
1 *2658:A2 0.000488495
2 *2656:ZN 0.000488495
3 *2658:A2 *2657:A2 1.84507e-05
4 *2658:A2 *2659:A2 7.77106e-05
5 *2658:A2 *2660:A2 0.000490976
6 *2658:A2 *2661:A1 0
7 *2658:A2 *2661:A2 2.63784e-05
8 *2658:A2 *3013:CLK 0.00048874
9 *2658:A2 *479:8 6.64234e-05
10 *2658:A2 *730:19 0.000248583
11 *2658:A2 *730:28 0.000228548
12 *2658:A2 *733:8 0.00123841
13 *2658:A2 *733:14 0.000182206
14 *2654:B *2658:A2 0.000240548
15 *3012:D *2658:A2 0
*RES
1 *2656:ZN *2658:A2 25.2 
*END

*D_NET *479 0.00402977
*CONN
*I *2660:A2 I *D gf180mcu_fd_sc_mcu7t5v0__oai21_1
*I *2658:A3 I *D gf180mcu_fd_sc_mcu7t5v0__nor3_1
*I *2659:A2 I *D gf180mcu_fd_sc_mcu7t5v0__and2_1
*I *2657:Z O *D gf180mcu_fd_sc_mcu7t5v0__and3_1
*CAP
1 *2660:A2 0.000657389
2 *2658:A3 4.44225e-05
3 *2659:A2 0.000269614
4 *2657:Z 0
5 *479:8 0.000407869
6 *479:6 0.000751221
7 *2658:A3 *743:30 1.75631e-05
8 *2659:A2 *2648:A1 0
9 *2659:A2 *2659:A1 0.000195949
10 *2659:A2 *733:14 0.000327794
11 *2660:A2 *2661:A1 7.0736e-05
12 *2660:A2 *699:83 7.58849e-05
13 *2660:A2 *733:8 0.000104446
14 *2654:B *2660:A2 3.08015e-05
15 *2658:A2 *2659:A2 7.77106e-05
16 *2658:A2 *2660:A2 0.000490976
17 *2658:A2 *479:8 6.64234e-05
18 *2660:B *2660:A2 0
19 *2662:B *2658:A3 3.99116e-05
20 *3009:D *2659:A2 2.91655e-05
21 *3009:D *2660:A2 8.65553e-07
22 *3009:D *479:8 6.53509e-06
23 *3011:D *2658:A3 3.01487e-05
24 *3012:D *2660:A2 0.000334344
25 *457:71 *2660:A2 0
*RES
1 *2657:Z *479:6 9 
2 *479:6 *479:8 0.63 
3 *479:8 *2659:A2 11.7 
4 *479:8 *2658:A3 9.45 
5 *479:6 *2660:A2 14.94 
*END

*D_NET *480 0.00803958
*CONN
*I *2663:A2 I *D gf180mcu_fd_sc_mcu7t5v0__aoi21_1
*I *2661:A1 I *D gf180mcu_fd_sc_mcu7t5v0__nor2_1
*I *2662:A2 I *D gf180mcu_fd_sc_mcu7t5v0__oai21_1
*I *2659:Z O *D gf180mcu_fd_sc_mcu7t5v0__and2_1
*CAP
1 *2663:A2 6.61648e-05
2 *2661:A1 0.00060795
3 *2662:A2 4.71538e-05
4 *2659:Z 0.00029103
5 *480:21 0.000971171
6 *480:8 0.000635239
7 *2661:A1 *2660:A1 0.000243312
8 *2661:A1 *2808:A2 4.34467e-06
9 *2662:A2 *2662:A1 4.45729e-05
10 *2662:A2 *743:30 3.58674e-05
11 *2663:A2 *2663:A1 9.3226e-06
12 *2663:A2 *2663:B 0.00104909
13 *480:8 *2663:B 2.69292e-05
14 *480:8 *733:8 1.69848e-05
15 *480:8 *733:14 0.00010449
16 *480:21 *2663:B 0.000562448
17 *480:21 *733:8 0.000283329
18 *480:21 *758:16 0.000392186
19 *2658:A1 *480:8 0.000214714
20 *2658:A2 *2661:A1 0
21 *2660:A2 *2661:A1 7.0736e-05
22 *2660:B *2661:A1 0.000161479
23 *2811:A3 *2661:A1 0.000350019
24 *3012:D *2661:A1 0.00107975
25 *3013:D *2661:A1 4.45441e-05
26 *3013:D *2663:A2 0.000479381
27 *3013:D *480:21 0.000247379
*RES
1 *2659:Z *480:8 11.43 
2 *480:8 *2662:A2 9.45 
3 *480:8 *480:21 4.68 
4 *480:21 *2661:A1 15.21 
5 *480:21 *2663:A2 11.88 
*END

*D_NET *481 0.00102099
*CONN
*I *2661:A2 I *D gf180mcu_fd_sc_mcu7t5v0__nor2_1
*I *2660:ZN O *D gf180mcu_fd_sc_mcu7t5v0__oai21_1
*CAP
1 *2661:A2 0.000238103
2 *2660:ZN 0.000238103
3 *2661:A2 *2656:B 0.000349506
4 *2661:A2 *730:28 5.7233e-06
5 *2658:A2 *2661:A2 2.63784e-05
6 *3012:D *2661:A2 0.000163177
*RES
1 *2660:ZN *2661:A2 11.43 
*END

*D_NET *482 0.00402076
*CONN
*I *2663:B I *D gf180mcu_fd_sc_mcu7t5v0__aoi21_1
*I *2662:ZN O *D gf180mcu_fd_sc_mcu7t5v0__oai21_1
*CAP
1 *2663:B 0.000549452
2 *2662:ZN 0.000549452
3 *2663:B *758:16 0.000400853
4 *2663:A2 *2663:B 0.00104909
5 *3013:D *2663:B 4.4391e-05
6 *3203:I *2663:B 0.000838147
7 *480:8 *2663:B 2.69292e-05
8 *480:21 *2663:B 0.000562448
*RES
1 *2662:ZN *2663:B 26.19 
*END

*D_NET *483 0.00353044
*CONN
*I *2770:A1 I *D gf180mcu_fd_sc_mcu7t5v0__nor2_1
*I *2683:A2 I *D gf180mcu_fd_sc_mcu7t5v0__aoi21_1
*I *2664:ZN O *D gf180mcu_fd_sc_mcu7t5v0__nor2_1
*CAP
1 *2770:A1 0.000544615
2 *2683:A2 0
3 *2664:ZN 4.51743e-05
4 *483:8 0.000589789
5 *2770:A1 *2380:A2 0
6 *2770:A1 *2682:A1 0
7 *2770:A1 *2682:A2 0.000405522
8 *2770:A1 *2685:A2 2.8512e-05
9 *2770:A1 *2771:A1 0.000244792
10 *2770:A1 *2831:A2 1.3026e-05
11 *2770:A1 *486:20 5.97457e-06
12 *2770:A1 *694:13 0.000414575
13 *483:8 *694:13 0.000173952
14 *483:8 *723:78 0.000149596
15 *2621:A1 *2770:A1 0.000914908
*RES
1 *2664:ZN *483:8 9.99 
2 *483:8 *2683:A2 9 
3 *483:8 *2770:A1 14.94 
*END

*D_NET *484 0.00350696
*CONN
*I *2666:A2 I *D gf180mcu_fd_sc_mcu7t5v0__nand2_1
*I *2770:A2 I *D gf180mcu_fd_sc_mcu7t5v0__nor2_1
*I *2771:A2 I *D gf180mcu_fd_sc_mcu7t5v0__aoi22_1
*I *2665:Z O *D gf180mcu_fd_sc_mcu7t5v0__and2_1
*CAP
1 *2666:A2 0.000188218
2 *2770:A2 9.24771e-05
3 *2771:A2 3.665e-05
4 *2665:Z 0
5 *484:6 0.000215111
6 *484:4 0.000274202
7 *2666:A2 *2666:A1 0.00098739
8 *2666:A2 *2683:A1 2.08301e-05
9 *2666:A2 *2683:B 0.000465829
10 *2666:A2 *2771:A1 7.71021e-06
11 *2666:A2 *2842:B2 2.08301e-05
12 *2666:A2 *502:18 0.00023578
13 *2770:A2 *631:16 0.000378035
14 *2770:A2 *723:68 0.000388581
15 *2771:A2 *2771:A1 7.20436e-05
16 *2771:A2 *2842:B2 3.54696e-05
17 *484:6 *2771:A1 6.11784e-05
18 *484:6 *2842:B2 2.66244e-05
*RES
1 *2665:Z *484:4 4.5 
2 *484:4 *484:6 0.63 
3 *484:6 *2771:A2 4.95 
4 *484:6 *2770:A2 15.75 
5 *484:4 *2666:A2 7.74 
*END

*D_NET *485 0.0019743
*CONN
*I *2682:B I *D gf180mcu_fd_sc_mcu7t5v0__aoi21_1
*I *2681:A1 I *D gf180mcu_fd_sc_mcu7t5v0__nor2_1
*I *2666:ZN O *D gf180mcu_fd_sc_mcu7t5v0__nand2_1
*CAP
1 *2682:B 0
2 *2681:A1 0.000168909
3 *2666:ZN 0.000342427
4 *485:8 0.000511336
5 *2681:A1 *2682:A1 0.000457785
6 *2681:A1 *2685:A2 9.3226e-06
7 *2681:A1 *2842:B2 9.00618e-05
8 *485:8 *2682:A2 0
9 *485:8 *2685:A2 0.000157534
10 *485:8 *2842:B2 0.00023506
11 *485:8 *499:20 1.86887e-06
*RES
1 *2666:ZN *485:8 7.38 
2 *485:8 *2681:A1 6.03 
3 *485:8 *2682:B 4.5 
*END

*D_NET *486 0.0119387
*CONN
*I *2681:A2 I *D gf180mcu_fd_sc_mcu7t5v0__nor2_1
*I *2682:A1 I *D gf180mcu_fd_sc_mcu7t5v0__aoi21_1
*I *2667:ZN O *D gf180mcu_fd_sc_mcu7t5v0__nor2_1
*CAP
1 *2681:A2 0
2 *2682:A1 0.000196867
3 *2667:ZN 0.00226591
4 *486:20 0.00246278
5 *2682:A1 *2685:A2 0.000190803
6 *2682:A1 *2842:B2 1.27836e-05
7 *486:20 *2385:A1 2.09122e-05
8 *486:20 *2620:A1 0.000425752
9 *486:20 *2624:A2 9.3226e-06
10 *486:20 *2628:A1 0.000664126
11 *486:20 *2842:B2 2.59097e-05
12 *486:20 *2923:CLK 1.77471e-05
13 *486:20 *2924:CLK 4.76605e-05
14 *486:20 *3093:I 2.30981e-05
15 *486:20 *3229:I 7.71821e-06
16 *486:20 *691:6 9.84908e-05
17 *486:20 *691:25 0.000619401
18 *486:20 *692:6 0.000169515
19 *486:20 *692:25 0.000335306
20 *486:20 *693:8 0.000169515
21 *486:20 *698:12 6.84426e-06
22 *486:20 *698:16 6.15984e-05
23 *486:20 *727:51 0.000375068
24 *486:20 *734:16 2.9185e-05
25 *486:20 *735:19 0.000538918
26 *2385:A2 *486:20 0.000107788
27 *2621:A1 *486:20 2.40009e-05
28 *2624:A4 *486:20 0.000195949
29 *2625:A2 *486:20 0.000563806
30 *2626:A1 *486:20 0.000225331
31 *2634:A1 *486:20 3.21686e-05
32 *2634:A2 *486:20 7.0476e-06
33 *2634:A3 *486:20 0
34 *2681:A1 *2682:A1 0.000457785
35 *2770:A1 *2682:A1 0
36 *2770:A1 *486:20 5.97457e-06
37 *2923:D *486:20 9.85004e-05
38 *2924:D *486:20 0.000141647
39 *371:35 *486:20 0.00107072
40 *371:45 *486:20 0.000217509
41 *456:67 *486:20 1.52092e-05
42 *458:12 *486:20 0
*RES
1 *2667:ZN *486:20 37.26 
2 *486:20 *2682:A1 6.75 
3 *486:20 *2681:A2 4.5 
*END

*D_NET *487 0.00190592
*CONN
*I *2672:B I *D gf180mcu_fd_sc_mcu7t5v0__aoi21_1
*I *2723:A3 I *D gf180mcu_fd_sc_mcu7t5v0__nor4_1
*I *2668:ZN O *D gf180mcu_fd_sc_mcu7t5v0__nand2_1
*CAP
1 *2672:B 0.000112841
2 *2723:A3 0.000223781
3 *2668:ZN 0.000217455
4 *487:8 0.000554077
5 *2672:B *934:29 0
6 *2723:A3 *2672:A2 0.000166941
7 *2723:A3 *2676:A3 3.71764e-06
8 *2723:A3 *531:10 0.000107079
9 *487:8 *531:10 0.000321574
10 *2711:A1 *2723:A3 3.25134e-05
11 *2723:A2 *2723:A3 5.42945e-05
12 *220:15 *2672:B 0.000111645
*RES
1 *2668:ZN *487:8 11.07 
2 *487:8 *2723:A3 10.8 
3 *487:8 *2672:B 9.81 
*END

*D_NET *488 0.00211462
*CONN
*I *2670:A2 I *D gf180mcu_fd_sc_mcu7t5v0__nand2_1
*I *2669:ZN O *D gf180mcu_fd_sc_mcu7t5v0__oai211_1
*CAP
1 *2670:A2 0.000640333
2 *2669:ZN 0.000640333
3 *2670:A2 *2462:A1 3.60134e-05
4 *2670:A2 *2465:A1 4.84588e-05
5 *2670:A2 *778:59 0
6 *2670:A2 *927:44 0.000320262
7 *2467:A1 *2670:A2 0
8 *2670:A1 *2670:A2 0.000429224
*RES
1 *2669:ZN *2670:A2 24.12 
*END

*D_NET *489 0.00296202
*CONN
*I *2671:A2 I *D gf180mcu_fd_sc_mcu7t5v0__aoi211_1
*I *2670:ZN O *D gf180mcu_fd_sc_mcu7t5v0__nand2_1
*CAP
1 *2671:A2 0.000375666
2 *2670:ZN 0.000375666
3 *2671:A2 *2293:I 0.000388209
4 *2671:A2 *2671:C 6.51736e-05
5 *2671:A2 *2708:A1 0.000320271
6 *2671:A2 *3022:CLK 9.04462e-05
7 *2671:A2 *520:8 0.000531209
8 *2671:A2 *520:19 0.000229402
9 *2671:A2 *520:34 0.000101624
10 *2671:A2 *929:53 1.17725e-05
11 *2671:A2 *931:12 3.01487e-05
12 *2671:A2 *931:14 0.000416747
13 *2714:C *2671:A2 2.56839e-05
*RES
1 *2670:ZN *2671:A2 22.95 
*END

*D_NET *490 0.00261813
*CONN
*I *2672:A2 I *D gf180mcu_fd_sc_mcu7t5v0__aoi21_1
*I *2671:ZN O *D gf180mcu_fd_sc_mcu7t5v0__aoi211_1
*CAP
1 *2672:A2 0.00057624
2 *2671:ZN 0.00057624
3 *2672:A2 *2473:A1 0.00012723
4 *2672:A2 *2713:A2 0.000229812
5 *2672:A2 *2713:B1 6.34901e-05
6 *2672:A2 *2715:A2 0
7 *2672:A2 *2723:A4 6.59126e-05
8 *2672:A2 *502:214 3.01487e-05
9 *2672:A2 *503:131 2.93938e-05
10 *2672:A2 *503:142 6.98034e-05
11 *2672:A2 *520:34 0.000237101
12 *2672:A2 *523:8 0
13 *2672:A2 *932:17 0
14 *2480:A1 *2672:A2 6.1368e-06
15 *2711:A1 *2672:A2 3.6719e-05
16 *2723:A2 *2672:A2 0.000282783
17 *2723:A3 *2672:A2 0.000166941
18 *220:6 *2672:A2 7.96049e-05
19 *220:15 *2672:A2 2.8215e-05
20 *220:37 *2672:A2 1.23607e-05
*RES
1 *2671:ZN *2672:A2 23.49 
*END

*D_NET *491 0.00463224
*CONN
*I *2676:A3 I *D gf180mcu_fd_sc_mcu7t5v0__oai31_1
*I *2672:ZN O *D gf180mcu_fd_sc_mcu7t5v0__aoi21_1
*CAP
1 *2676:A3 0.00133512
2 *2672:ZN 0.00133512
3 *2676:A3 *2474:C 0.000274714
4 *2676:A3 *2485:A1 1.0415e-05
5 *2676:A3 *2834:A1 8.68398e-06
6 *2676:A3 *778:264 0.000384864
7 *2676:A3 *778:288 0.000144947
8 *2676:A3 *778:301 0.000168523
9 *2676:A3 *913:45 1.48005e-05
10 *2472:A1 *2676:A3 0.000384868
11 *2484:B *2676:A3 0.000559004
12 *2723:A3 *2676:A3 3.71764e-06
13 *2726:A1 *2676:A3 7.45535e-06
*RES
1 *2672:ZN *2676:A3 30.6 
*END

*D_NET *492 0.00168939
*CONN
*I *2675:A3 I *D gf180mcu_fd_sc_mcu7t5v0__nor4_1
*I *2673:ZN O *D gf180mcu_fd_sc_mcu7t5v0__nand2_1
*CAP
1 *2675:A3 0.000320224
2 *2673:ZN 0.000320224
3 *2675:A3 *2675:A2 0.000113096
4 *2675:A3 *2680:A3 8.69576e-05
5 *2675:A3 *2752:I 0.00020197
6 *2675:A3 *2754:A1 0
7 *2675:A3 *2758:B 0.000168028
8 *2675:A3 *499:20 9.20698e-05
9 *2675:A3 *552:16 0.000299724
10 *2675:A3 *918:33 4.55835e-05
11 *2679:A1 *2675:A3 4.15169e-05
*RES
1 *2673:ZN *2675:A3 21.15 
*END

*D_NET *493 0.00339398
*CONN
*I *2675:A4 I *D gf180mcu_fd_sc_mcu7t5v0__nor4_1
*I *2674:ZN O *D gf180mcu_fd_sc_mcu7t5v0__nand3_1
*CAP
1 *2675:A4 0.000401305
2 *2674:ZN 0.000401305
3 *2675:A4 *2674:A2 0.000106536
4 *2675:A4 *2674:A3 0.000106536
5 *2675:A4 *2741:A2 0.000114264
6 *2675:A4 *2747:A1 8.68398e-06
7 *2675:A4 *2750:A2 1.47845e-05
8 *2675:A4 *2754:B 0.00052864
9 *2675:A4 *502:56 1.18477e-05
10 *2675:A4 *503:87 0.000173125
11 *2675:A4 *549:12 8.16511e-05
12 *2675:A4 *599:44 0.0014453
13 *2675:A4 *704:10 0
*RES
1 *2674:ZN *2675:A4 23.67 
*END

*D_NET *494 0.00136595
*CONN
*I *2676:B I *D gf180mcu_fd_sc_mcu7t5v0__oai31_1
*I *2675:ZN O *D gf180mcu_fd_sc_mcu7t5v0__nor4_1
*CAP
1 *2676:B 0.000457666
2 *2675:ZN 0.000457666
3 *2676:B *2676:A1 1.61174e-05
4 *2676:B *2680:A1 0.000161585
5 *2676:B *2680:A3 0.000272918
*RES
1 *2675:ZN *2676:B 12.87 
*END

*D_NET *495 0.000573116
*CONN
*I *2680:A1 I *D gf180mcu_fd_sc_mcu7t5v0__and3_1
*I *2676:ZN O *D gf180mcu_fd_sc_mcu7t5v0__oai31_1
*CAP
1 *2680:A1 0.000195249
2 *2676:ZN 0.000195249
3 *2680:A1 *2485:A1 1.0415e-05
4 *2680:A1 *2676:A1 1.06178e-05
5 *2680:A1 *3134:I 0
6 *2680:A1 *913:45 0
7 *2676:B *2680:A1 0.000161585
*RES
1 *2676:ZN *2680:A1 10.71 
*END

*D_NET *496 0.0123924
*CONN
*I *2680:A2 I *D gf180mcu_fd_sc_mcu7t5v0__and3_1
*I *2677:ZN O *D gf180mcu_fd_sc_mcu7t5v0__nor4_1
*CAP
1 *2680:A2 0
2 *2677:ZN 0.00200874
3 *496:24 0.00200874
4 *496:24 *2488:C 0.000205479
5 *496:24 *2674:A3 3.53186e-05
6 *496:24 *2677:A1 0.000341562
7 *496:24 *2764:A1 0.000269346
8 *496:24 *2850:A1 1.02057e-05
9 *496:24 *2850:C2 0.000481772
10 *496:24 *2884:A2 0.00190839
11 *496:24 *2887:A2 0.000315592
12 *496:24 *3139:I 4.32041e-05
13 *496:24 *3146:I 1.32133e-05
14 *496:24 *502:111 5.78854e-06
15 *496:24 *543:25 0
16 *496:24 *756:598 0.000140944
17 *496:24 *756:600 0.000242359
18 *496:24 *778:312 0.000823691
19 *496:24 *778:340 0.000416747
20 *496:24 *783:100 0.000159253
21 *496:24 *784:116 0
22 *496:24 *784:158 0.000273915
23 *496:24 *917:36 0
24 *2472:A1 *496:24 0.000126524
25 *2488:A1 *496:24 0.000382875
26 *2488:B *496:24 0.000276264
27 *2742:A1 *496:24 0.000579694
28 *2953:D *496:24 1.59275e-05
29 *2969:D *496:24 0.00128927
30 *3202:I *496:24 1.75972e-05
*RES
1 *2677:ZN *496:24 46.08 
2 *496:24 *2680:A2 4.5 
*END

*D_NET *497 0.000524297
*CONN
*I *2679:A2 I *D gf180mcu_fd_sc_mcu7t5v0__or2_1
*I *2678:ZN O *D gf180mcu_fd_sc_mcu7t5v0__aoi21_1
*CAP
1 *2679:A2 5.5337e-05
2 *2678:ZN 5.5337e-05
3 *2679:A2 *2758:B 0.000201539
4 *2679:A2 *704:10 0.000212085
*RES
1 *2678:ZN *2679:A2 19.17 
*END

*D_NET *498 0.00166593
*CONN
*I *2680:A3 I *D gf180mcu_fd_sc_mcu7t5v0__and3_1
*I *2679:Z O *D gf180mcu_fd_sc_mcu7t5v0__or2_1
*CAP
1 *2680:A3 0.000525806
2 *2679:Z 0.000525806
3 *2680:A3 *2675:A2 2.98728e-05
4 *2680:A3 *2678:A2 0
5 *2680:A3 *2754:A1 0
6 *2680:A3 *499:20 0.000224566
7 *2675:A3 *2680:A3 8.69576e-05
8 *2676:B *2680:A3 0.000272918
*RES
1 *2679:Z *2680:A3 13.95 
*END

*D_NET *499 0.0116659
*CONN
*I *2682:A2 I *D gf180mcu_fd_sc_mcu7t5v0__aoi21_1
*I *2685:A1 I *D gf180mcu_fd_sc_mcu7t5v0__and2_1
*I *2680:Z O *D gf180mcu_fd_sc_mcu7t5v0__and3_1
*CAP
1 *2682:A2 0.000306638
2 *2685:A1 0
3 *2680:Z 0.00204149
4 *499:20 0.00234813
5 *2682:A2 *2685:A2 8.91939e-05
6 *2682:A2 *694:13 5.96565e-05
7 *2682:A2 *781:14 7.55765e-06
8 *499:20 *2380:A2 0.000107995
9 *499:20 *2495:A1 0.000812045
10 *499:20 *2497:A1 0.000142647
11 *499:20 *2673:A1 9.04462e-05
12 *499:20 *2675:A2 4.44935e-05
13 *499:20 *2678:A1 0.00025481
14 *499:20 *2678:B 2.6147e-05
15 *499:20 *2748:I 0.000192205
16 *499:20 *2749:B2 0.000129889
17 *499:20 *2842:A1 0.000120734
18 *499:20 *3032:CLK 0.000354738
19 *499:20 *3142:I 0.000152959
20 *499:20 *552:16 2.36813e-05
21 *499:20 *720:14 0.000182206
22 *499:20 *778:10 3.92172e-06
23 *499:20 *779:10 0.000238861
24 *499:20 *781:14 9.85004e-05
25 *499:20 *918:33 5.79144e-05
26 *499:20 *919:29 0.000196928
27 *499:20 *920:45 7.26205e-05
28 *2345:A2 *499:20 0
29 *2381:A2 *499:20 6.62799e-05
30 *2382:A1 *499:20 0.00028672
31 *2382:B1 *499:20 0.000128628
32 *2486:B *499:20 0
33 *2621:A1 *2682:A2 0.000404379
34 *2621:A1 *499:20 8.65555e-05
35 *2675:A3 *499:20 9.20698e-05
36 *2679:A1 *499:20 1.91431e-05
37 *2680:A3 *499:20 0.000224566
38 *2770:A1 *2682:A2 0.000405522
39 *3212:I *499:20 0
40 *3213:I *499:20 0.000141335
41 *3232:I *499:20 0.00103697
42 *294:8 *499:20 7.71476e-06
43 *295:10 *499:20 0.000206238
44 *295:55 *499:20 7.20436e-05
45 *295:145 *499:20 0.000204012
46 *296:35 *499:20 0.000125409
47 *485:8 *2682:A2 0
48 *485:8 *499:20 1.86887e-06
*RES
1 *2680:Z *499:20 35.28 
2 *499:20 *2685:A1 4.5 
3 *499:20 *2682:A2 7.83 
*END

*D_NET *500 0.00150816
*CONN
*I *2685:A2 I *D gf180mcu_fd_sc_mcu7t5v0__and2_1
*I *2681:ZN O *D gf180mcu_fd_sc_mcu7t5v0__nor2_1
*CAP
1 *2685:A2 0.00048657
2 *2681:ZN 0.00048657
3 *2685:A2 *694:13 5.96565e-05
4 *2681:A1 *2685:A2 9.3226e-06
5 *2682:A1 *2685:A2 0.000190803
6 *2682:A2 *2685:A2 8.91939e-05
7 *2770:A1 *2685:A2 2.8512e-05
8 *485:8 *2685:A2 0.000157534
*RES
1 *2681:ZN *2685:A2 12.6 
*END

*D_NET *501 0.00456037
*CONN
*I *2683:B I *D gf180mcu_fd_sc_mcu7t5v0__aoi21_1
*I *2769:A2 I *D gf180mcu_fd_sc_mcu7t5v0__nor2_1
*I *2682:ZN O *D gf180mcu_fd_sc_mcu7t5v0__aoi21_1
*CAP
1 *2683:B 5.92427e-05
2 *2769:A2 0.000153105
3 *2682:ZN 5.76742e-05
4 *501:8 0.000270022
5 *2683:B *2683:A1 0.000397478
6 *2683:B *502:18 2.93938e-05
7 *2769:A2 *2683:A1 0.000101624
8 *2769:A2 *2831:A2 0.000208109
9 *2769:A2 *562:10 0.000435192
10 *501:8 *2683:A1 0.000127778
11 *501:8 *721:26 0.000570706
12 *2377:A1 *2769:A2 0.000190382
13 *2377:A1 *501:8 0.000695914
14 *2664:A1 *2769:A2 0.000372588
15 *2666:A2 *2683:B 0.000465829
16 *2769:A1 *2769:A2 0.000150153
17 *214:24 *2769:A2 0.000132926
18 *268:8 *2769:A2 0.000142255
*RES
1 *2682:ZN *501:8 10.89 
2 *501:8 *2769:A2 12.15 
3 *501:8 *2683:B 10.35 
*END

*D_NET *502 0.0742569
*CONN
*I *2733:A2 I *D gf180mcu_fd_sc_mcu7t5v0__aoi22_1
*I *2720:A2 I *D gf180mcu_fd_sc_mcu7t5v0__aoi22_1
*I *2717:A2 I *D gf180mcu_fd_sc_mcu7t5v0__aoi22_1
*I *2709:A2 I *D gf180mcu_fd_sc_mcu7t5v0__aoi22_1
*I *2706:A2 I *D gf180mcu_fd_sc_mcu7t5v0__aoi22_1
*I *2698:A2 I *D gf180mcu_fd_sc_mcu7t5v0__aoi22_1
*I *2690:A2 I *D gf180mcu_fd_sc_mcu7t5v0__aoi22_1
*I *2694:A2 I *D gf180mcu_fd_sc_mcu7t5v0__aoi22_1
*I *2684:I I *D gf180mcu_fd_sc_mcu7t5v0__clkinv_1
*I *2702:A2 I *D gf180mcu_fd_sc_mcu7t5v0__aoi22_1
*I *2713:A2 I *D gf180mcu_fd_sc_mcu7t5v0__aoi22_1
*I *2725:A2 I *D gf180mcu_fd_sc_mcu7t5v0__aoi22_1
*I *2729:A2 I *D gf180mcu_fd_sc_mcu7t5v0__aoi22_1
*I *2737:A2 I *D gf180mcu_fd_sc_mcu7t5v0__aoi22_1
*I *2760:A2 I *D gf180mcu_fd_sc_mcu7t5v0__aoi21_1
*I *2757:A2 I *D gf180mcu_fd_sc_mcu7t5v0__aoi22_1
*I *2749:A2 I *D gf180mcu_fd_sc_mcu7t5v0__aoi22_1
*I *2762:A3 I *D gf180mcu_fd_sc_mcu7t5v0__and3_1
*I *2763:A3 I *D gf180mcu_fd_sc_mcu7t5v0__and3_1
*I *2764:A3 I *D gf180mcu_fd_sc_mcu7t5v0__and3_1
*I *2765:A3 I *D gf180mcu_fd_sc_mcu7t5v0__and3_1
*I *2744:A2 I *D gf180mcu_fd_sc_mcu7t5v0__aoi22_1
*I *2741:A2 I *D gf180mcu_fd_sc_mcu7t5v0__aoi22_1
*I *2753:A2 I *D gf180mcu_fd_sc_mcu7t5v0__aoi22_1
*I *2683:ZN O *D gf180mcu_fd_sc_mcu7t5v0__aoi21_1
*CAP
1 *2733:A2 2.25718e-05
2 *2720:A2 0
3 *2717:A2 0.000104509
4 *2709:A2 0
5 *2706:A2 0.000278333
6 *2698:A2 0
7 *2690:A2 0.000355464
8 *2694:A2 6.62832e-05
9 *2684:I 0.000474202
10 *2702:A2 0
11 *2713:A2 0.000190723
12 *2725:A2 0.000304545
13 *2729:A2 0
14 *2737:A2 0
15 *2760:A2 5.74829e-05
16 *2757:A2 0.000125086
17 *2749:A2 0.00029488
18 *2762:A3 0
19 *2763:A3 0.000786178
20 *2764:A3 6.64674e-05
21 *2765:A3 6.91426e-05
22 *2744:A2 0
23 *2741:A2 0.000412937
24 *2753:A2 0
25 *2683:ZN 0.00184712
26 *502:280 0.00104981
27 *502:254 0.000662485
28 *502:250 0.00128881
29 *502:244 0.00084481
30 *502:231 0.00017998
31 *502:229 0.000122322
32 *502:214 0.000696028
33 *502:208 0.00095878
34 *502:206 0.000858435
35 *502:191 0.00112057
36 *502:178 0.000603912
37 *502:172 0.000622166
38 *502:161 0.00041433
39 *502:111 0.00152979
40 *502:84 0.0018342
41 *502:67 0.00156764
42 *502:56 0.000596223
43 *502:41 0.000664389
44 *502:37 0.000627399
45 *502:26 0.000355906
46 *502:22 0.00058986
47 *502:18 0.00214063
48 *2684:I *2695:A2 0.00121143
49 *2684:I *711:46 0
50 *2684:I *711:57 0
51 *2690:A2 *2690:B1 0.000570612
52 *2690:A2 *2690:B2 0.00031899
53 *2690:A2 *2699:A2 0.000692675
54 *2690:A2 *928:6 8.68281e-06
55 *2690:A2 *928:10 0.000521459
56 *2690:A2 *928:21 0.000145765
57 *2694:A2 *2695:A2 0.000151417
58 *2694:A2 *503:162 1.33462e-05
59 *2694:A2 *503:164 1.07374e-05
60 *2694:A2 *911:47 0.000496766
61 *2706:A2 *2705:A1 0.000260468
62 *2706:A2 *2706:A1 3.12451e-05
63 *2706:A2 *929:6 0
64 *2706:A2 *930:12 0
65 *2713:A2 *2671:A1 8.68281e-06
66 *2713:A2 *2671:B 0.000354728
67 *2713:A2 *2713:B1 6.33288e-05
68 *2713:A2 *3022:CLK 1.75631e-05
69 *2717:A2 *2717:B1 9.07783e-05
70 *2717:A2 *2718:B 6.31783e-05
71 *2725:A2 *2725:A1 3.30242e-05
72 *2725:A2 *3023:CLK 0
73 *2733:A2 *2733:A1 3.12451e-05
74 *2733:A2 *704:43 9.04462e-05
75 *2741:A2 *2674:A2 5.74748e-05
76 *2741:A2 *2674:A3 0.00138734
77 *2741:A2 *2737:A1 2.75149e-05
78 *2741:A2 *2741:A1 1.60989e-05
79 *2741:A2 *2742:B 0.000649305
80 *2741:A2 *503:87 2.91742e-05
81 *2741:A2 *549:12 4.62661e-05
82 *2749:A2 *2747:A1 0.000559303
83 *2749:A2 *2749:A1 0.000427029
84 *2757:A2 *2757:B1 9.16703e-05
85 *2763:A3 *2763:A1 0.000168646
86 *2763:A3 *2763:A2 0.000110083
87 *2763:A3 *2867:C2 5.52699e-05
88 *2763:A3 *3145:I 0.000162659
89 *2763:A3 *3148:I 1.4382e-06
90 *2763:A3 *706:78 0.000101624
91 *2763:A3 *706:89 0.000496776
92 *2763:A3 *784:170 0.000140719
93 *2763:A3 *923:12 0
94 *2763:A3 *924:16 0.000257557
95 *2763:A3 *949:10 7.01603e-06
96 *2764:A3 *2887:A2 3.58674e-05
97 *2765:A3 *2765:A2 0.000347906
98 *2765:A3 *756:116 7.44548e-05
99 *2765:A3 *784:135 0.000161479
100 *2765:A3 *938:10 9.84908e-05
101 *502:18 *2285:I 1.32106e-05
102 *502:18 *2306:I 3.95023e-05
103 *502:18 *2380:A1 2.33065e-05
104 *502:18 *2380:A2 0.000198467
105 *502:18 *2501:A1 0.000937873
106 *502:18 *2666:A1 2.08301e-05
107 *502:18 *2683:A1 9.84908e-05
108 *502:18 *2842:B2 0.000896228
109 *502:18 *2844:A1 1.11328e-05
110 *502:18 *2844:A2 0.000111278
111 *502:18 *2847:A2 0.000100113
112 *502:18 *503:36 0.000248744
113 *502:18 *778:10 0
114 *502:18 *783:24 2.85793e-05
115 *502:18 *910:6 9.07783e-05
116 *502:18 *942:8 0
117 *502:22 *2757:B1 0.000237716
118 *502:22 *2761:B 0
119 *502:22 *921:14 0
120 *502:26 *2673:A1 0.000302284
121 *502:26 *2748:I 0.000445479
122 *502:26 *2752:I 0.000510176
123 *502:26 *2755:A1 0.000171937
124 *502:26 *2758:B 0.000126715
125 *502:26 *2761:B 4.06025e-05
126 *502:26 *503:40 0
127 *502:26 *549:29 0.000734439
128 *502:26 *552:16 0.000568127
129 *502:26 *919:14 0
130 *502:26 *921:14 0.00023968
131 *502:37 *2755:A1 0.00074823
132 *502:37 *3029:CLK 0.000292006
133 *502:37 *503:62 0
134 *502:37 *549:29 0.000200669
135 *502:41 *2747:A1 0.000726001
136 *502:41 *503:87 0.000269245
137 *502:41 *549:12 2.91742e-05
138 *502:56 *2747:A1 0.00012775
139 *502:56 *2747:A3 0.00051581
140 *502:56 *2750:A2 5.62944e-05
141 *502:56 *546:12 0.000435219
142 *502:56 *599:44 9.65086e-05
143 *502:56 *917:23 0.000171937
144 *502:67 *2471:A1 0.00043778
145 *502:67 *2755:A2 2.16372e-05
146 *502:67 *2765:A1 2.48332e-05
147 *502:67 *546:12 0.000283821
148 *502:67 *599:18 0.000653848
149 *502:67 *599:38 0.000359608
150 *502:67 *694:223 0
151 *502:67 *784:158 3.55431e-05
152 *502:67 *917:19 0.00131542
153 *502:67 *917:23 0.00032797
154 *502:84 *2677:A1 5.82634e-05
155 *502:84 *2764:A1 2.89427e-06
156 *502:84 *2883:A3 0
157 *502:84 *2884:A2 1.03692e-05
158 *502:84 *2886:A2 0
159 *502:84 *596:8 0.000223398
160 *502:84 *599:18 5.14837e-05
161 *502:84 *706:10 0.000268694
162 *502:84 *706:12 0.000264718
163 *502:84 *783:92 5.12535e-05
164 *502:84 *784:135 0.00018615
165 *502:84 *784:158 1.30271e-05
166 *502:84 *926:8 4.04802e-05
167 *502:84 *926:16 0.00017794
168 *502:84 *938:10 0.000346684
169 *502:84 *947:10 3.12451e-05
170 *502:111 *2677:A3 2.09112e-05
171 *502:111 *2677:A4 1.27493e-05
172 *502:111 *2764:A1 1.86887e-06
173 *502:111 *2886:A1 0
174 *502:111 *2887:A2 0.000796852
175 *502:111 *2888:B2 0.000196862
176 *502:111 *784:170 1.39839e-05
177 *502:111 *923:16 2.58224e-05
178 *502:111 *924:16 8.67164e-05
179 *502:111 *925:27 5.77481e-05
180 *502:111 *949:10 3.58674e-05
181 *502:161 *2674:A3 1.49931e-05
182 *502:161 *2737:A1 0.000145991
183 *502:161 *503:98 3.59229e-05
184 *502:172 *2288:I 6.13566e-05
185 *502:172 *2738:B 0.000302466
186 *502:172 *503:98 4.6613e-06
187 *502:172 *541:21 5.78854e-06
188 *502:172 *704:47 9.39061e-05
189 *502:172 *704:91 0.000614846
190 *502:178 *2731:A1 1.0415e-05
191 *502:178 *2736:A4 3.08806e-05
192 *502:178 *503:106 9.3226e-06
193 *502:178 *531:23 3.2519e-05
194 *502:178 *704:47 0.00137592
195 *502:178 *914:52 0.000510662
196 *502:191 *2473:A1 0.000180473
197 *502:191 *2730:A1 0.000455757
198 *502:191 *3023:CLK 0.000385445
199 *502:191 *503:106 1.39839e-05
200 *502:191 *704:47 0.000583544
201 *502:191 *704:49 0.000737008
202 *502:191 *704:51 0.000309993
203 *502:191 *784:52 8.429e-05
204 *502:191 *784:69 0
205 *502:206 *2473:A1 8.80893e-05
206 *502:206 *2720:B1 0
207 *502:206 *2725:B1 4.09076e-06
208 *502:206 *3023:CLK 6.51329e-06
209 *502:206 *503:117 8.6297e-05
210 *502:208 *2717:A1 4.51945e-05
211 *502:208 *2720:A1 0.00035461
212 *502:208 *2721:A2 9.0696e-05
213 *502:208 *2722:A1 0.000724161
214 *502:208 *503:117 2.29071e-05
215 *502:208 *503:119 1.38456e-05
216 *502:208 *503:121 0.000328154
217 *502:208 *503:131 5.00713e-05
218 *502:208 *525:12 0.000427492
219 *502:214 *2671:A1 3.2326e-06
220 *502:214 *2718:B 2.40587e-06
221 *502:214 *3022:CLK 8.99522e-05
222 *502:214 *503:131 0.000126832
223 *502:229 *2473:A1 0.00028126
224 *502:229 *503:142 0.000789353
225 *502:229 *503:144 0.000218647
226 *502:229 *930:27 0.00071647
227 *502:231 *503:144 0.0012549
228 *502:231 *930:12 0.000201539
229 *502:231 *930:16 0.000309993
230 *502:231 *930:27 0.000434734
231 *502:244 *2703:A2 0.0006118
232 *502:244 *503:144 4.08303e-05
233 *502:244 *930:12 3.48522e-05
234 *502:250 *2701:A1 1.47998e-05
235 *502:250 *2702:B2 1.39839e-05
236 *502:250 *2705:A1 7.91275e-05
237 *502:250 *2705:A2 4.6613e-06
238 *502:250 *2706:B2 1.69023e-06
239 *502:250 *2707:A2 0.000297712
240 *502:250 *503:152 0.000309993
241 *502:250 *929:6 0
242 *502:280 *2468:A1 0
243 *502:280 *2689:A1 1.27836e-05
244 *502:280 *2696:A1 0
245 *502:280 *503:164 1.77281e-05
246 *502:280 *911:47 0.000337849
247 *502:280 *911:51 0.000204787
248 *502:280 *927:36 0
249 *502:280 *928:23 0
250 ERR_O *502:111 0.000152367
251 *2321:A2 *502:84 0.000573172
252 *2472:B *502:67 0.000109311
253 *2476:A1 *502:214 4.47711e-05
254 *2484:A1 *2725:A2 0.000222357
255 *2486:A1 *502:18 5.28485e-05
256 *2486:B *2757:A2 0
257 *2486:B *502:26 0.000684683
258 *2501:A2 *502:18 0.000145212
259 *2510:B *2765:A3 0.000169524
260 *2666:A2 *502:18 0.00023578
261 *2672:A2 *2713:A2 0.000229812
262 *2672:A2 *502:214 3.01487e-05
263 *2675:A4 *2741:A2 0.000114264
264 *2675:A4 *502:56 1.18477e-05
265 *2683:B *502:18 2.93938e-05
266 *2695:A1 *2684:I 2.39462e-05
267 *2738:A1 *502:172 1.0415e-05
268 *2738:C *502:172 3.39564e-05
269 *2884:B *502:84 1.8336e-05
270 *3016:D *2684:I 0.000455766
271 *3022:D *502:214 0.000555624
272 *3024:D *2725:A2 0.000555324
273 *3024:D *502:191 0.000205505
274 *3025:D *502:178 3.97987e-05
275 *3025:D *502:191 2.08301e-05
276 *10:55 *2749:A2 0.000743747
277 *10:55 *502:41 9.97642e-05
278 *214:22 *502:18 0.000526316
279 *219:10 *2725:A2 5.47698e-05
280 *247:80 *502:111 0
281 *252:30 *502:84 0
282 *372:68 *502:18 4.0614e-05
283 *372:68 *502:22 3.01487e-05
284 *372:103 *2725:A2 6.44696e-05
285 *372:103 *502:206 9.40953e-05
286 *372:115 *502:244 0.000294706
287 *372:119 *502:250 2.52908e-05
288 *372:123 *2684:I 0.00058169
289 *372:123 *502:250 0.000168533
290 *372:123 *502:254 4.843e-05
291 *372:129 *2684:I 1.55102e-05
292 *372:129 *2690:A2 0
293 *372:208 *2741:A2 0.000300777
294 *496:24 *502:111 5.78854e-06
*RES
1 *2683:ZN *502:18 21.51 
2 *502:18 *502:22 2.16 
3 *502:22 *502:26 10.89 
4 *502:26 *2753:A2 9 
5 *502:26 *502:37 6.57 
6 *502:37 *502:41 2.7 
7 *502:41 *2741:A2 10.35 
8 *502:41 *502:56 7.11 
9 *502:56 *2744:A2 9 
10 *502:56 *502:67 12.51 
11 *502:67 *2765:A3 5.85 
12 *502:67 *502:84 19.53 
13 *502:84 *2764:A3 4.95 
14 *502:84 *502:111 24.12 
15 *502:111 *2763:A3 19.8 
16 *502:111 *2762:A3 4.5 
17 *502:37 *2749:A2 9.45 
18 *502:22 *2757:A2 5.31 
19 *502:18 *2760:A2 4.95 
20 *2741:A2 *502:161 5.13 
21 *502:161 *2737:A2 4.5 
22 *502:161 *502:172 7.92 
23 *502:172 *502:178 8.46 
24 *502:178 *2729:A2 4.5 
25 *502:178 *502:191 15.3 
26 *502:191 *2725:A2 7.56 
27 *502:191 *502:206 7.92 
28 *502:206 *502:208 5.49 
29 *502:208 *502:214 8.64 
30 *502:214 *2713:A2 6.57 
31 *502:214 *502:229 7.11 
32 *502:229 *502:231 3.15 
33 *502:231 *2702:A2 9 
34 *502:231 *502:244 6.66 
35 *502:244 *502:250 9.36 
36 *502:250 *502:254 0.9 
37 *502:254 *2684:I 15.12 
38 *502:254 *2694:A2 10.35 
39 *502:250 *502:280 9.72 
40 *502:280 *2690:A2 18.45 
41 *502:280 *2698:A2 4.5 
42 *502:244 *2706:A2 6.57 
43 *502:229 *2709:A2 9 
44 *502:208 *2717:A2 9.99 
45 *502:206 *2720:A2 9 
46 *502:172 *2733:A2 9.27 
*END

*D_NET *503 0.0596755
*CONN
*I *2757:B1 I *D gf180mcu_fd_sc_mcu7t5v0__aoi22_1
*I *2744:B1 I *D gf180mcu_fd_sc_mcu7t5v0__aoi22_1
*I *2737:B1 I *D gf180mcu_fd_sc_mcu7t5v0__aoi22_1
*I *2733:B1 I *D gf180mcu_fd_sc_mcu7t5v0__aoi22_1
*I *2725:B1 I *D gf180mcu_fd_sc_mcu7t5v0__aoi22_1
*I *2720:B1 I *D gf180mcu_fd_sc_mcu7t5v0__aoi22_1
*I *2717:B1 I *D gf180mcu_fd_sc_mcu7t5v0__aoi22_1
*I *2709:B1 I *D gf180mcu_fd_sc_mcu7t5v0__aoi22_1
*I *2702:B1 I *D gf180mcu_fd_sc_mcu7t5v0__aoi22_1
*I *2706:B1 I *D gf180mcu_fd_sc_mcu7t5v0__aoi22_1
*I *2686:A2 I *D gf180mcu_fd_sc_mcu7t5v0__oai21_1
*I *2694:B1 I *D gf180mcu_fd_sc_mcu7t5v0__aoi22_1
*I *2698:B1 I *D gf180mcu_fd_sc_mcu7t5v0__aoi22_1
*I *2690:B1 I *D gf180mcu_fd_sc_mcu7t5v0__aoi22_1
*I *2713:B1 I *D gf180mcu_fd_sc_mcu7t5v0__aoi22_1
*I *2729:B1 I *D gf180mcu_fd_sc_mcu7t5v0__aoi22_1
*I *2741:B1 I *D gf180mcu_fd_sc_mcu7t5v0__aoi22_1
*I *2749:B1 I *D gf180mcu_fd_sc_mcu7t5v0__aoi22_1
*I *2753:B1 I *D gf180mcu_fd_sc_mcu7t5v0__aoi22_1
*I *2760:B I *D gf180mcu_fd_sc_mcu7t5v0__aoi21_1
*I *2766:A2 I *D gf180mcu_fd_sc_mcu7t5v0__oai21_1
*I *2767:A3 I *D gf180mcu_fd_sc_mcu7t5v0__oai31_1
*I *2685:Z O *D gf180mcu_fd_sc_mcu7t5v0__and2_1
*CAP
1 *2757:B1 0.000147922
2 *2744:B1 0.000134626
3 *2737:B1 0
4 *2733:B1 0.000142613
5 *2725:B1 0.000497717
6 *2720:B1 5.74752e-05
7 *2717:B1 0.000167586
8 *2709:B1 0
9 *2702:B1 0
10 *2706:B1 7.05354e-05
11 *2686:A2 0
12 *2694:B1 0
13 *2698:B1 3.44897e-05
14 *2690:B1 0.000379748
15 *2713:B1 0.000125152
16 *2729:B1 0
17 *2741:B1 0
18 *2749:B1 0.000168344
19 *2753:B1 0.000136371
20 *2760:B 0
21 *2766:A2 0
22 *2767:A3 0.000122215
23 *2685:Z 0.000172211
24 *503:164 0.000877389
25 *503:162 0.000823831
26 *503:158 0.000568466
27 *503:152 0.000549613
28 *503:144 0.000428381
29 *503:142 0.000242903
30 *503:131 0.000604382
31 *503:121 0.000793631
32 *503:119 0.000316906
33 *503:117 0.0011831
34 *503:106 0.00109365
35 *503:100 0.000845406
36 *503:98 0.000429196
37 *503:87 0.000682553
38 *503:75 0.000799701
39 *503:62 0.000555012
40 *503:49 0.000655332
41 *503:40 0.000565916
42 *503:36 0.00173394
43 *503:10 0.0001934
44 *503:8 0.0015398
45 *2690:B1 *2690:A1 0.000351453
46 *2690:B1 *2697:A1 3.40704e-05
47 *2690:B1 *2698:B2 4.90422e-05
48 *2690:B1 *2699:A2 1.24166e-05
49 *2690:B1 *922:42 1.18117e-05
50 *2690:B1 *928:6 1.19491e-05
51 *2690:B1 *928:10 0.000292542
52 *2706:B1 *2706:A1 2.36813e-05
53 *2706:B1 *2706:B2 0.000250003
54 *2706:B1 *2707:A2 0.000567809
55 *2713:B1 *2713:B2 0.000138375
56 *2713:B1 *2723:A4 0.000223398
57 *2717:B1 *2290:I 4.84662e-05
58 *2717:B1 *2717:B2 1.66859e-06
59 *2717:B1 *2718:B 0
60 *2717:B1 *525:12 0.000119951
61 *2720:B1 *2720:A1 3.12451e-05
62 *2720:B1 *2720:B2 0.000216305
63 *2725:B1 *2720:B2 3.98099e-05
64 *2725:B1 *2725:B2 0.000169566
65 *2725:B1 *2726:A2 7.72906e-05
66 *2725:B1 *2726:B 0.000276344
67 *2733:B1 *2733:A1 0.000120595
68 *2733:B1 *2733:B2 3.01487e-05
69 *2733:B1 *2736:A3 0.000416424
70 *2733:B1 *913:8 0
71 *2733:B1 *914:35 3.01487e-05
72 *2733:B1 *914:44 0.000193969
73 *2744:B1 *2744:B2 3.12451e-05
74 *2744:B1 *2746:A1 8.19004e-05
75 *2744:B1 *2746:A2 9.3226e-06
76 *2744:B1 *2750:A2 0.0005687
77 *2744:B1 *2755:A2 0.000645672
78 *2744:B1 *546:12 3.19584e-05
79 *2749:B1 *2747:A1 0.000806489
80 *2749:B1 *2749:A1 0.000155042
81 *2749:B1 *784:16 0.000713554
82 *2753:B1 *2750:A2 5.78854e-06
83 *2753:B1 *2751:A1 5.9617e-05
84 *2753:B1 *919:10 9.85004e-05
85 *2753:B1 *919:54 0.000400957
86 *2757:B1 *2756:A2 5.97457e-06
87 *2757:B1 *2761:A2 7.083e-05
88 *2767:A3 *2768:A2 8.68281e-06
89 *2767:A3 *2814:B2 6.91924e-05
90 *2767:A3 *781:14 0.000737018
91 *503:8 *781:14 0.000614846
92 *503:10 *781:14 0.000364412
93 *503:36 *2380:A1 2.7437e-05
94 *503:36 *2380:A2 0.000209829
95 *503:36 *2501:A1 5.23429e-06
96 *503:36 *2502:C 3.38463e-05
97 *503:36 *2842:B1 5.55444e-05
98 *503:36 *2842:C2 0
99 *503:36 *2844:A1 0.000352666
100 *503:36 *2960:CLK 0
101 *503:36 *783:24 0.000275527
102 *503:36 *910:6 0.000141012
103 *503:40 *2761:B 0.000174752
104 *503:40 *921:14 0
105 *503:49 *2673:A1 0
106 *503:49 *919:10 0.000356703
107 *503:49 *919:14 0.000862244
108 *503:49 *921:14 0
109 *503:62 *3029:CLK 0
110 *503:62 *3104:I 9.4913e-06
111 *503:62 *549:29 0
112 *503:62 *919:10 0.000101624
113 *503:75 *2747:A1 0.00121521
114 *503:75 *2750:A2 0.000219114
115 *503:75 *2755:A2 0.000149015
116 *503:75 *704:125 0.000415026
117 *503:87 *2674:A1 6.08431e-05
118 *503:87 *2674:A2 0.000717127
119 *503:87 *2741:A1 0.000105838
120 *503:87 *2742:A2 4.73625e-05
121 *503:87 *2747:A1 3.54696e-05
122 *503:87 *2747:A2 0.000146492
123 *503:87 *541:21 0.000820221
124 *503:98 *2288:I 0.000140239
125 *503:98 *2674:A3 5.7233e-06
126 *503:98 *541:21 0.000769986
127 *503:100 *2288:I 9.61923e-06
128 *503:100 *2676:A1 1.91801e-06
129 *503:100 *2736:A1 7.559e-05
130 *503:100 *541:8 0.000351186
131 *503:100 *541:21 0.000128414
132 *503:100 *914:16 5.6378e-06
133 *503:100 *915:25 0.000122364
134 *503:106 *2676:A1 3.72378e-05
135 *503:106 *2731:A1 0.000181724
136 *503:106 *2736:A4 0.000206746
137 *503:106 *531:23 8.53366e-05
138 *503:106 *778:301 0
139 *503:106 *913:41 0.000521561
140 *503:106 *913:45 0.000227498
141 *503:117 *2473:A2 0.000774989
142 *503:117 *2729:B2 0.000228268
143 *503:117 *913:41 3.01487e-05
144 *503:119 *2720:A1 7.14936e-05
145 *503:121 *2720:A1 8.29339e-05
146 *503:131 *2713:B2 7.7847e-05
147 *503:131 *2718:A2 1.1769e-05
148 *503:131 *2718:B 3.99837e-05
149 *503:142 *2473:A1 8.16511e-05
150 *503:142 *2671:C 0.000445479
151 *503:142 *520:34 2.14274e-05
152 *503:142 *931:14 0.000263273
153 *503:144 *2703:A2 0.000109323
154 *503:144 *2708:A1 0.000400853
155 *503:144 *511:22 0
156 *503:144 *511:31 0
157 *503:144 *520:8 2.35868e-05
158 *503:144 *929:38 0.000208596
159 *503:144 *931:14 0.000182206
160 *503:152 *2701:A1 3.27461e-05
161 *503:152 *2703:A2 0.000293745
162 *503:152 *2705:A1 2.08301e-05
163 *503:152 *2706:B2 0.000118966
164 *503:152 *2707:A2 0.00036778
165 *503:158 *2686:B 0.000269353
166 *503:158 *911:10 0.000434734
167 *503:158 *911:12 0.000210938
168 *503:158 *911:14 0.000174506
169 *503:162 *2695:A2 0.000151417
170 *503:162 *911:47 3.14363e-05
171 *503:162 *927:10 3.50214e-05
172 *503:164 *2688:A1 7.13317e-05
173 *503:164 *2689:A1 3.97987e-05
174 *503:164 *2690:B2 1.84476e-05
175 *503:164 *2693:A2 0
176 *503:164 *2698:B2 0.000261916
177 *503:164 *911:47 4.31332e-05
178 *503:164 *922:53 4.48353e-05
179 *503:164 *927:10 3.1927e-06
180 *2476:A1 *503:117 0.00287085
181 *2476:A1 *503:119 0.000203791
182 *2476:A1 *503:121 0.00154646
183 *2476:A1 *503:131 0.000649787
184 *2486:A1 *503:36 0.000734123
185 *2486:B *2757:B1 0.000674335
186 *2486:B *503:36 0.000730102
187 *2672:A2 *2713:B1 6.34901e-05
188 *2672:A2 *503:131 2.93938e-05
189 *2672:A2 *503:142 6.98034e-05
190 *2675:A4 *503:87 0.000173125
191 *2679:A1 *503:49 1.7368e-05
192 *2690:A2 *2690:B1 0.000570612
193 *2694:A2 *503:162 1.33462e-05
194 *2694:A2 *503:164 1.07374e-05
195 *2713:A2 *2713:B1 6.33288e-05
196 *2717:A2 *2717:B1 9.07783e-05
197 *2726:A1 *2725:B1 0.000214618
198 *2726:C *2725:B1 2.08301e-05
199 *2741:A2 *503:87 2.91742e-05
200 *2757:A2 *2757:B1 9.16703e-05
201 *2766:B *503:36 3.87145e-05
202 *2768:A1 *2767:A3 5.31432e-05
203 *2960:D *503:36 0.00119257
204 *2968:D *503:36 0.000174119
205 *3022:D *503:131 0.000103702
206 *3025:D *503:106 3.73774e-06
207 *3025:D *503:117 2.92479e-05
208 *10:55 *2744:B1 2.38751e-06
209 *10:55 *503:87 7.7001e-05
210 *295:145 *503:40 0.000125903
211 *295:145 *503:49 0.000129273
212 *295:149 *503:40 9.78115e-05
213 *296:35 *2767:A3 0.000131256
214 *296:35 *503:8 0.000159886
215 *296:35 *503:10 0.00011019
216 *372:68 *2757:B1 9.04462e-05
217 *372:68 *503:36 0.000405522
218 *372:68 *503:49 4.0103e-05
219 *372:86 *503:40 9.39061e-05
220 *372:103 *2725:B1 0.000272677
221 *372:115 *503:158 0.000236436
222 *372:119 *503:158 9.51953e-05
223 *372:123 *503:158 0.000310687
224 *372:208 *2749:B1 0.000110639
225 *372:208 *503:49 4.21513e-05
226 *372:208 *503:62 0.000121104
227 *372:208 *503:75 0.000332645
228 *502:18 *503:36 0.000248744
229 *502:22 *2757:B1 0.000237716
230 *502:26 *503:40 0
231 *502:37 *503:62 0
232 *502:41 *503:87 0.000269245
233 *502:161 *503:98 3.59229e-05
234 *502:172 *503:98 4.6613e-06
235 *502:178 *503:106 9.3226e-06
236 *502:191 *503:106 1.39839e-05
237 *502:206 *2720:B1 0
238 *502:206 *2725:B1 4.09076e-06
239 *502:206 *503:117 8.6297e-05
240 *502:208 *503:117 2.29071e-05
241 *502:208 *503:119 1.38456e-05
242 *502:208 *503:121 0.000328154
243 *502:208 *503:131 5.00713e-05
244 *502:214 *503:131 0.000126832
245 *502:229 *503:142 0.000789353
246 *502:229 *503:144 0.000218647
247 *502:231 *503:144 0.0012549
248 *502:244 *503:144 4.08303e-05
249 *502:250 *503:152 0.000309993
250 *502:280 *503:164 1.77281e-05
*RES
1 *2685:Z *503:8 10.71 
2 *503:8 *503:10 0.99 
3 *503:10 *2767:A3 11.34 
4 *503:10 *2766:A2 9 
5 *503:8 *503:36 18.27 
6 *503:36 *503:40 6.93 
7 *503:40 *2760:B 9 
8 *503:40 *503:49 3.87 
9 *503:49 *2753:B1 10.53 
10 *503:49 *503:62 6.57 
11 *503:62 *2749:B1 7.83 
12 *503:62 *503:75 8.46 
13 *503:75 *503:87 11.07 
14 *503:87 *2741:B1 4.5 
15 *503:87 *503:98 6.66 
16 *503:98 *503:100 2.07 
17 *503:100 *503:106 9 
18 *503:106 *2729:B1 4.5 
19 *503:106 *503:117 13.86 
20 *503:117 *503:119 0.63 
21 *503:119 *503:121 4.23 
22 *503:121 *503:131 8.46 
23 *503:131 *2713:B1 6.03 
24 *503:131 *503:142 7.11 
25 *503:142 *503:144 4.23 
26 *503:144 *503:152 7.83 
27 *503:152 *503:158 13.59 
28 *503:158 *503:162 2.52 
29 *503:162 *503:164 3.51 
30 *503:164 *2690:B1 16.92 
31 *503:164 *2698:B1 4.77 
32 *503:162 *2694:B1 4.5 
33 *503:158 *2686:A2 4.5 
34 *503:152 *2706:B1 6.21 
35 *503:144 *2702:B1 9 
36 *503:142 *2709:B1 9 
37 *503:121 *2717:B1 10.53 
38 *503:119 *2720:B1 9.63 
39 *503:117 *2725:B1 13.5 
40 *503:100 *2733:B1 11.07 
41 *503:98 *2737:B1 9 
42 *503:75 *2744:B1 11.52 
43 *503:36 *2757:B1 7.2 
*END

*D_NET *504 0.000391646
*CONN
*I *2687:B I *D gf180mcu_fd_sc_mcu7t5v0__aoi21_1
*I *2686:ZN O *D gf180mcu_fd_sc_mcu7t5v0__oai21_1
*CAP
1 *2687:B 0.000195823
2 *2686:ZN 0.000195823
*RES
1 *2686:ZN *2687:B 10.35 
*END

*D_NET *505 0.00112033
*CONN
*I *2693:A2 I *D gf180mcu_fd_sc_mcu7t5v0__xnor2_1
*I *2688:ZN O *D gf180mcu_fd_sc_mcu7t5v0__nand2_1
*CAP
1 *2693:A2 0.000414644
2 *2688:ZN 0.000414644
3 *2693:A2 *2692:A1 1.74403e-05
4 *2693:A2 *2693:A1 0.000105517
5 *2693:A2 *2697:A2 2.71659e-05
6 *2693:A2 *922:42 0
7 *2693:A2 *927:10 4.11194e-05
8 *2693:A2 *927:23 9.9795e-05
9 *503:164 *2693:A2 0
*RES
1 *2688:ZN *2693:A2 20.88 
*END

*D_NET *506 0.00176855
*CONN
*I *2690:B2 I *D gf180mcu_fd_sc_mcu7t5v0__aoi22_1
*I *2689:Z O *D gf180mcu_fd_sc_mcu7t5v0__xor2_1
*CAP
1 *2690:B2 0.000484236
2 *2689:Z 0.000484236
3 *2690:B2 *2697:A1 0.000117502
4 *2690:B2 *2698:B2 0.000194395
5 *2690:B2 *928:6 0.000150744
6 *2690:A2 *2690:B2 0.00031899
7 *503:164 *2690:B2 1.84476e-05
*RES
1 *2689:Z *2690:B2 12.6 
*END

*D_NET *507 0.00075717
*CONN
*I *2691:A2 I *D gf180mcu_fd_sc_mcu7t5v0__nor2_1
*I *2690:ZN O *D gf180mcu_fd_sc_mcu7t5v0__aoi22_1
*CAP
1 *2691:A2 0.00017952
2 *2690:ZN 0.00017952
3 *2691:A2 *2699:A2 4.52802e-05
4 *2691:A1 *2691:A2 9.7763e-05
5 *3017:D *2691:A2 0.000255088
*RES
1 *2690:ZN *2691:A2 19.89 
*END

*D_NET *508 0.000414803
*CONN
*I *2697:A2 I *D gf180mcu_fd_sc_mcu7t5v0__xnor2_1
*I *2692:ZN O *D gf180mcu_fd_sc_mcu7t5v0__nand3_1
*CAP
1 *2697:A2 0.000172809
2 *2692:ZN 0.000172809
3 *2697:A2 *2692:A2 1.30434e-05
4 *2697:A2 *2693:A1 3.96281e-06
5 *2697:A2 *922:42 2.50126e-05
6 *2693:A2 *2697:A2 2.71659e-05
*RES
1 *2692:ZN *2697:A2 18.99 
*END

*D_NET *509 0.000616473
*CONN
*I *2694:B2 I *D gf180mcu_fd_sc_mcu7t5v0__aoi22_1
*I *2693:ZN O *D gf180mcu_fd_sc_mcu7t5v0__xnor2_1
*CAP
1 *2694:B2 0.000124222
2 *2693:ZN 0.000124222
3 *2694:B2 *2693:A1 8.56844e-05
4 *2694:B2 *2695:A2 0
5 *2694:B2 *927:23 0.000282346
*RES
1 *2693:ZN *2694:B2 18.99 
*END

*D_NET *510 0.00336844
*CONN
*I *2695:A2 I *D gf180mcu_fd_sc_mcu7t5v0__nor2_1
*I *2694:ZN O *D gf180mcu_fd_sc_mcu7t5v0__aoi22_1
*CAP
1 *2695:A2 0.000517104
2 *2694:ZN 0.000517104
3 *2695:A2 *2692:A3 0.000486059
4 *2695:A2 *2693:A1 0
5 *2684:I *2695:A2 0.00121143
6 *2694:A2 *2695:A2 0.000151417
7 *2694:B2 *2695:A2 0
8 *3016:D *2695:A2 0.000283705
9 *372:129 *2695:A2 5.02137e-05
10 *503:162 *2695:A2 0.000151417
*RES
1 *2694:ZN *2695:A2 23.67 
*END

*D_NET *511 0.00289296
*CONN
*I *2708:A4 I *D gf180mcu_fd_sc_mcu7t5v0__nand4_1
*I *2704:A3 I *D gf180mcu_fd_sc_mcu7t5v0__nand3_1
*I *2700:A2 I *D gf180mcu_fd_sc_mcu7t5v0__nand2_1
*I *2701:A2 I *D gf180mcu_fd_sc_mcu7t5v0__xor2_1
*I *2696:Z O *D gf180mcu_fd_sc_mcu7t5v0__and4_1
*CAP
1 *2708:A4 0.000190335
2 *2704:A3 0.00032504
3 *2700:A2 0
4 *2701:A2 0.000366813
5 *2696:Z 0.000206251
6 *511:31 0.000622095
7 *511:22 0.000267282
8 *2701:A2 *2701:A1 5.97457e-06
9 *2701:A2 *2705:A2 0
10 *2701:A2 *927:36 0
11 *2704:A3 *2700:A1 2.1573e-06
12 *2704:A3 *2704:A2 7.64119e-05
13 *2704:A3 *929:6 3.68045e-05
14 *2704:A3 *929:8 3.08015e-05
15 *2704:A3 *929:12 1.24193e-05
16 *2704:A3 *930:12 2.91338e-05
17 *2708:A4 *2293:I 7.86733e-05
18 *2708:A4 *2704:A2 3.55118e-05
19 *2708:A4 *929:38 5.01255e-05
20 *2708:A4 *929:53 4.55112e-05
21 *511:22 *2701:A1 0.000455757
22 *511:31 *929:38 5.58585e-05
23 *503:144 *511:22 0
24 *503:144 *511:31 0
*RES
1 *2696:Z *2701:A2 10.26 
2 *2701:A2 *511:22 10.35 
3 *511:22 *2700:A2 9 
4 *511:22 *511:31 0.99 
5 *511:31 *2704:A3 11.43 
6 *511:31 *2708:A4 11.16 
*END

*D_NET *512 0.0013447
*CONN
*I *2698:B2 I *D gf180mcu_fd_sc_mcu7t5v0__aoi22_1
*I *2697:ZN O *D gf180mcu_fd_sc_mcu7t5v0__xnor2_1
*CAP
1 *2698:B2 0.000348815
2 *2697:ZN 0.000348815
3 *2698:B2 *2697:A1 9.2679e-05
4 *2698:B2 *922:42 4.90422e-05
5 *2690:B1 *2698:B2 4.90422e-05
6 *2690:B2 *2698:B2 0.000194395
7 *503:164 *2698:B2 0.000261916
*RES
1 *2697:ZN *2698:B2 20.79 
*END

*D_NET *513 0.002089
*CONN
*I *2699:A2 I *D gf180mcu_fd_sc_mcu7t5v0__nor2_1
*I *2698:ZN O *D gf180mcu_fd_sc_mcu7t5v0__aoi22_1
*CAP
1 *2699:A2 0.000554859
2 *2698:ZN 0.000554859
3 *2699:A2 *2690:A1 0.000101176
4 *2699:A2 *2692:A2 0
5 *2699:A2 *922:42 0
6 *2690:A2 *2699:A2 0.000692675
7 *2690:B1 *2699:A2 1.24166e-05
8 *2691:A2 *2699:A2 4.52802e-05
9 *372:129 *2699:A2 0.000127736
*RES
1 *2698:ZN *2699:A2 22.14 
*END

*D_NET *514 0.00119302
*CONN
*I *2705:A2 I *D gf180mcu_fd_sc_mcu7t5v0__xnor2_1
*I *2700:ZN O *D gf180mcu_fd_sc_mcu7t5v0__nand2_1
*CAP
1 *2705:A2 0.000479519
2 *2700:ZN 0.000479519
3 *2705:A2 *2700:A1 1.1426e-05
4 *2705:A2 *2701:A1 2.30981e-05
5 *2705:A2 *2702:B2 0.000171701
6 *2705:A2 *2706:B2 2.30981e-05
7 *2701:A2 *2705:A2 0
8 *502:250 *2705:A2 4.6613e-06
*RES
1 *2700:ZN *2705:A2 12.06 
*END

*D_NET *515 0.00064893
*CONN
*I *2702:B2 I *D gf180mcu_fd_sc_mcu7t5v0__aoi22_1
*I *2701:Z O *D gf180mcu_fd_sc_mcu7t5v0__xor2_1
*CAP
1 *2702:B2 0.000203734
2 *2701:Z 0.000203734
3 *2702:B2 *2700:A1 2.89427e-06
4 *2702:B2 *929:8 7.71476e-06
5 *2702:B2 *929:12 4.51687e-05
6 *2705:A2 *2702:B2 0.000171701
7 *502:250 *2702:B2 1.39839e-05
*RES
1 *2701:Z *2702:B2 10.62 
*END

*D_NET *516 0.00303148
*CONN
*I *2703:A2 I *D gf180mcu_fd_sc_mcu7t5v0__nor2_1
*I *2702:ZN O *D gf180mcu_fd_sc_mcu7t5v0__aoi22_1
*CAP
1 *2703:A2 0.000259149
2 *2702:ZN 0.000259149
3 *2703:A2 *2706:B2 0.000148211
4 *2703:A2 *2707:A2 0.000445479
5 *2703:A1 *2703:A2 7.0691e-05
6 *3018:D *2703:A2 0.000294431
7 *3019:D *2703:A2 9.31065e-06
8 *372:115 *2703:A2 0.000530189
9 *502:244 *2703:A2 0.0006118
10 *503:144 *2703:A2 0.000109323
11 *503:152 *2703:A2 0.000293745
*RES
1 *2702:ZN *2703:A2 23.04 
*END

*D_NET *517 0.000240454
*CONN
*I *2710:A2 I *D gf180mcu_fd_sc_mcu7t5v0__aoi211_1
*I *2704:ZN O *D gf180mcu_fd_sc_mcu7t5v0__nand3_1
*CAP
1 *2710:A2 0.000113794
2 *2704:ZN 0.000113794
3 *2710:A2 *2704:A2 1.28665e-05
*RES
1 *2704:ZN *2710:A2 9.81 
*END

*D_NET *518 0.0012132
*CONN
*I *2706:B2 I *D gf180mcu_fd_sc_mcu7t5v0__aoi22_1
*I *2705:ZN O *D gf180mcu_fd_sc_mcu7t5v0__xnor2_1
*CAP
1 *2706:B2 0.000326856
2 *2705:ZN 0.000326856
3 *2703:A1 *2706:B2 2.40587e-06
4 *2703:A2 *2706:B2 0.000148211
5 *2705:A2 *2706:B2 2.30981e-05
6 *2706:B1 *2706:B2 0.000250003
7 *3018:D *2706:B2 1.51153e-05
8 *502:250 *2706:B2 1.69023e-06
9 *503:152 *2706:B2 0.000118966
*RES
1 *2705:ZN *2706:B2 11.97 
*END

*D_NET *519 0.0028168
*CONN
*I *2707:A2 I *D gf180mcu_fd_sc_mcu7t5v0__nor2_1
*I *2706:ZN O *D gf180mcu_fd_sc_mcu7t5v0__aoi22_1
*CAP
1 *2707:A2 9.32439e-05
2 *2706:ZN 9.32439e-05
3 *2707:A2 *2705:A1 0.000814533
4 *2703:A2 *2707:A2 0.000445479
5 *2706:B1 *2707:A2 0.000567809
6 *372:115 *2707:A2 8.56272e-05
7 *372:119 *2707:A2 5.13763e-05
8 *502:250 *2707:A2 0.000297712
9 *503:152 *2707:A2 0.00036778
*RES
1 *2706:ZN *2707:A2 22.14 
*END

*D_NET *520 0.0038158
*CONN
*I *2711:A2 I *D gf180mcu_fd_sc_mcu7t5v0__nor2_1
*I *2723:A4 I *D gf180mcu_fd_sc_mcu7t5v0__nor4_1
*I *2714:A2 I *D gf180mcu_fd_sc_mcu7t5v0__aoi211_1
*I *2709:B2 I *D gf180mcu_fd_sc_mcu7t5v0__aoi22_1
*I *2708:ZN O *D gf180mcu_fd_sc_mcu7t5v0__nand4_1
*CAP
1 *2711:A2 0
2 *2723:A4 0.000171148
3 *2714:A2 0.000116928
4 *2709:B2 5.98292e-05
5 *2708:ZN 0.000133998
6 *520:34 0.00037332
7 *520:19 0.000357433
8 *520:8 0.00023216
9 *2714:A2 *3022:CLK 0.000140022
10 *2723:A4 *2713:B2 0.000215362
11 *520:8 *2708:A1 3.1612e-05
12 *520:8 *2714:B 8.43025e-06
13 *520:19 *2714:B 4.44491e-05
14 *520:34 *2671:C 0.000142236
15 *520:34 *2714:B 9.14717e-05
16 *2671:A2 *520:8 0.000531209
17 *2671:A2 *520:19 0.000229402
18 *2671:A2 *520:34 0.000101624
19 *2672:A2 *2723:A4 6.59126e-05
20 *2672:A2 *520:34 0.000237101
21 *2713:B1 *2723:A4 0.000223398
22 *2714:C *2709:B2 0.000150744
23 *2714:C *2714:A2 0.000100603
24 *2723:A2 *2723:A4 7.8967e-06
25 *221:38 *2723:A4 4.49168e-06
26 *503:142 *520:34 2.14274e-05
27 *503:144 *520:8 2.35868e-05
*RES
1 *2708:ZN *520:8 10.71 
2 *520:8 *2709:B2 9.45 
3 *520:8 *520:19 0.63 
4 *520:19 *2714:A2 10.26 
5 *520:19 *520:34 6.57 
6 *520:34 *2723:A4 15.12 
7 *520:34 *2711:A2 4.5 
*END

*D_NET *521 0.00063835
*CONN
*I *2710:B I *D gf180mcu_fd_sc_mcu7t5v0__aoi211_1
*I *2709:ZN O *D gf180mcu_fd_sc_mcu7t5v0__aoi22_1
*CAP
1 *2710:B 0.000247192
2 *2709:ZN 0.000247192
3 *2710:B *931:8 1.56942e-05
4 *2714:C *2710:B 7.42354e-05
5 *3020:D *2710:B 5.4037e-05
*RES
1 *2709:ZN *2710:B 10.8 
*END

*D_NET *522 0.000170637
*CONN
*I *2712:I I *D gf180mcu_fd_sc_mcu7t5v0__clkinv_1
*I *2711:ZN O *D gf180mcu_fd_sc_mcu7t5v0__nor2_1
*CAP
1 *2712:I 5.88667e-05
2 *2711:ZN 5.88667e-05
3 *2712:I *2713:B2 5.29035e-05
*RES
1 *2711:ZN *2712:I 9.63 
*END

*D_NET *523 0.00219222
*CONN
*I *2715:A2 I *D gf180mcu_fd_sc_mcu7t5v0__nor2_1
*I *2718:A2 I *D gf180mcu_fd_sc_mcu7t5v0__aoi211_1
*I *2713:B2 I *D gf180mcu_fd_sc_mcu7t5v0__aoi22_1
*I *2712:ZN O *D gf180mcu_fd_sc_mcu7t5v0__clkinv_1
*CAP
1 *2715:A2 0.00013024
2 *2718:A2 6.63096e-05
3 *2713:B2 0.000258651
4 *2712:ZN 1.87096e-05
5 *523:8 0.000369554
6 *523:6 0.000193543
7 *2672:A2 *2715:A2 0
8 *2672:A2 *523:8 0
9 *2711:A1 *2713:B2 0.000565127
10 *2712:I *2713:B2 5.29035e-05
11 *2713:B1 *2713:B2 0.000138375
12 *2718:A1 *2715:A2 2.36813e-05
13 *2723:A4 *2713:B2 0.000215362
14 *220:37 *2713:B2 0
15 *220:37 *2715:A2 5.82191e-05
16 *220:37 *523:6 1.19333e-05
17 *503:131 *2713:B2 7.7847e-05
18 *503:131 *2718:A2 1.1769e-05
*RES
1 *2712:ZN *523:6 4.77 
2 *523:6 *523:8 0.27 
3 *523:8 *2713:B2 7.38 
4 *523:8 *2718:A2 5.13 
5 *523:6 *2715:A2 5.58 
*END

*D_NET *524 0.000681411
*CONN
*I *2714:B I *D gf180mcu_fd_sc_mcu7t5v0__aoi211_1
*I *2713:ZN O *D gf180mcu_fd_sc_mcu7t5v0__aoi22_1
*CAP
1 *2714:B 0.000244487
2 *2713:ZN 0.000244487
3 *2714:A1 *2714:B 4.8087e-05
4 *520:8 *2714:B 8.43025e-06
5 *520:19 *2714:B 4.44491e-05
6 *520:34 *2714:B 9.14717e-05
*RES
1 *2713:ZN *2714:B 19.89 
*END

*D_NET *525 0.00420487
*CONN
*I *2721:A2 I *D gf180mcu_fd_sc_mcu7t5v0__oai21_1
*I *2719:A2 I *D gf180mcu_fd_sc_mcu7t5v0__nand2_1
*I *2724:A3 I *D gf180mcu_fd_sc_mcu7t5v0__nand3_1
*I *2716:I I *D gf180mcu_fd_sc_mcu7t5v0__clkinv_1
*I *2715:ZN O *D gf180mcu_fd_sc_mcu7t5v0__nor2_1
*CAP
1 *2721:A2 0.000295781
2 *2719:A2 0
3 *2724:A3 0.000116309
4 *2716:I 0
5 *2715:ZN 0.00020205
6 *525:18 0.000198329
7 *525:16 0.000301808
8 *525:12 0.000717618
9 *2721:A2 *2722:A1 9.49804e-05
10 *2721:A2 *2722:A2 9.30289e-05
11 *2721:A2 *933:10 0.000195394
12 *2724:A3 *934:25 2.14748e-05
13 *2724:A3 *934:29 1.07374e-05
14 *525:12 *2290:I 0.000467082
15 *525:12 *2717:A1 1.3026e-05
16 *525:12 *933:10 5.10963e-05
17 *525:16 *2717:B2 0.000126436
18 *525:16 *933:10 0.000158788
19 *525:16 *934:8 1.56862e-05
20 *525:18 *2290:I 1.51153e-05
21 *525:18 *2717:B2 0.000356005
22 *525:18 *2719:A1 0.000100113
23 *525:18 *934:8 1.58709e-05
24 *525:18 *934:25 0
25 *2717:B1 *525:12 0.000119951
26 *3023:D *525:16 0
27 *220:37 *2724:A3 0
28 *502:208 *2721:A2 9.0696e-05
29 *502:208 *525:12 0.000427492
*RES
1 *2715:ZN *525:12 16.02 
2 *525:12 *525:16 1.8 
3 *525:16 *525:18 1.17 
4 *525:18 *2716:I 4.5 
5 *525:18 *2724:A3 5.58 
6 *525:16 *2719:A2 4.5 
7 *525:12 *2721:A2 16.29 
*END

*D_NET *526 0.00196851
*CONN
*I *2717:B2 I *D gf180mcu_fd_sc_mcu7t5v0__aoi22_1
*I *2716:ZN O *D gf180mcu_fd_sc_mcu7t5v0__clkinv_1
*CAP
1 *2717:B2 0.000419152
2 *2716:ZN 0.000419152
3 *2717:B2 *2290:I 0.000231069
4 *2717:B2 *933:10 0.000415026
5 *2717:B1 *2717:B2 1.66859e-06
6 *525:16 *2717:B2 0.000126436
7 *525:18 *2717:B2 0.000356005
*RES
1 *2716:ZN *2717:B2 13.14 
*END

*D_NET *527 0.00105466
*CONN
*I *2718:B I *D gf180mcu_fd_sc_mcu7t5v0__aoi211_1
*I *2717:ZN O *D gf180mcu_fd_sc_mcu7t5v0__aoi22_1
*CAP
1 *2718:B 0.000463339
2 *2717:ZN 0.000463339
3 *2717:A2 *2718:B 6.31783e-05
4 *2717:B1 *2718:B 0
5 *3022:D *2718:B 2.24153e-05
6 *502:214 *2718:B 2.40587e-06
7 *503:131 *2718:B 3.99837e-05
*RES
1 *2717:ZN *2718:B 12.24 
*END

*D_NET *528 0.00342258
*CONN
*I *2720:B2 I *D gf180mcu_fd_sc_mcu7t5v0__aoi22_1
*I *2726:A2 I *D gf180mcu_fd_sc_mcu7t5v0__aoi211_1
*I *2719:ZN O *D gf180mcu_fd_sc_mcu7t5v0__nand2_1
*CAP
1 *2720:B2 0.000163331
2 *2726:A2 0.000286413
3 *2719:ZN 5.1938e-05
4 *528:10 0.000501681
5 *2720:B2 *2721:B 0.000327716
6 *2720:B2 *934:58 8.43202e-05
7 *2726:A2 *2725:B2 0.000131469
8 *2726:A2 *912:8 0.000177559
9 *2726:A2 *912:12 1.79733e-05
10 *2726:A2 *934:25 0
11 *2726:A2 *934:58 2.60586e-05
12 *528:10 *2473:A1 5.61409e-05
13 *528:10 *2719:A1 0.000168938
14 *528:10 *934:21 0.000163622
15 *528:10 *934:58 0.00044244
16 *2720:B1 *2720:B2 0.000216305
17 *2725:B1 *2720:B2 3.98099e-05
18 *2725:B1 *2726:A2 7.72906e-05
19 *372:86 *2726:A2 9.04462e-05
20 *372:103 *528:10 0.000399127
*RES
1 *2719:ZN *528:10 15.75 
2 *528:10 *2726:A2 7.02 
3 *528:10 *2720:B2 6.21 
*END

*D_NET *529 0.00113822
*CONN
*I *2722:A1 I *D gf180mcu_fd_sc_mcu7t5v0__nor2_1
*I *2720:ZN O *D gf180mcu_fd_sc_mcu7t5v0__aoi22_1
*CAP
1 *2722:A1 0.00015954
2 *2720:ZN 0.00015954
3 *2721:A2 *2722:A1 9.49804e-05
4 *502:208 *2722:A1 0.000724161
*RES
1 *2720:ZN *2722:A1 19.89 
*END

*D_NET *530 0.0006705
*CONN
*I *2722:A2 I *D gf180mcu_fd_sc_mcu7t5v0__nor2_1
*I *2721:ZN O *D gf180mcu_fd_sc_mcu7t5v0__oai21_1
*CAP
1 *2722:A2 0.00016895
2 *2721:ZN 0.00016895
3 *2722:A2 *2721:A1 0.000239571
4 *2721:A2 *2722:A2 9.30289e-05
*RES
1 *2721:ZN *2722:A2 10.53 
*END

*D_NET *531 0.00698626
*CONN
*I *2736:A4 I *D gf180mcu_fd_sc_mcu7t5v0__nand4_1
*I *2727:A2 I *D gf180mcu_fd_sc_mcu7t5v0__and2_1
*I *2730:A2 I *D gf180mcu_fd_sc_mcu7t5v0__oai21_1
*I *2723:ZN O *D gf180mcu_fd_sc_mcu7t5v0__nor4_1
*CAP
1 *2736:A4 7.92424e-05
2 *2727:A2 0
3 *2730:A2 0.000101024
4 *2723:ZN 0.00128359
5 *531:23 0.000325541
6 *531:10 0.00163092
7 *2730:A2 *2731:A1 2.36914e-05
8 *2730:A2 *2731:A2 0.000304688
9 *2730:A2 *3025:CLK 1.86887e-06
10 *2736:A4 *914:52 3.42213e-05
11 *531:10 *2289:I 0.000353401
12 *531:10 *2473:A1 0
13 *531:10 *2725:B2 5.28408e-05
14 *531:10 *3023:CLK 0
15 *531:10 *704:47 0
16 *531:10 *704:49 0
17 *531:10 *704:51 0
18 *531:10 *912:16 0.000798592
19 *531:23 *704:47 0
20 *2723:A2 *531:10 0.000166941
21 *2723:A3 *531:10 0.000107079
22 *3024:D *531:10 5.81772e-05
23 *3025:D *2730:A2 0.000436469
24 *220:15 *531:10 6.08177e-05
25 *372:86 *531:10 0.000490105
26 *487:8 *531:10 0.000321574
27 *502:178 *2736:A4 3.08806e-05
28 *502:178 *531:23 3.2519e-05
29 *503:106 *2736:A4 0.000206746
30 *503:106 *531:23 8.53366e-05
*RES
1 *2723:ZN *531:10 20.7 
2 *531:10 *2730:A2 10.62 
3 *531:10 *531:23 1.71 
4 *531:23 *2727:A2 9 
5 *531:23 *2736:A4 10.35 
*END

*D_NET *532 0.00148834
*CONN
*I *2725:B2 I *D gf180mcu_fd_sc_mcu7t5v0__aoi22_1
*I *2724:ZN O *D gf180mcu_fd_sc_mcu7t5v0__nand3_1
*CAP
1 *2725:B2 0.00034984
2 *2724:ZN 0.00034984
3 *2725:B2 *2473:A1 8.92778e-05
4 *2484:A1 *2725:B2 3.81553e-06
5 *2725:B1 *2725:B2 0.000169566
6 *2726:A1 *2725:B2 0.000220606
7 *2726:A2 *2725:B2 0.000131469
8 *372:86 *2725:B2 0.000121081
9 *531:10 *2725:B2 5.28408e-05
*RES
1 *2724:ZN *2725:B2 21.69 
*END

*D_NET *533 0.000755933
*CONN
*I *2726:B I *D gf180mcu_fd_sc_mcu7t5v0__aoi211_1
*I *2725:ZN O *D gf180mcu_fd_sc_mcu7t5v0__aoi22_1
*CAP
1 *2726:B 0.000121899
2 *2725:ZN 0.000121899
3 *2726:B *2725:A1 0.00020098
4 *2725:B1 *2726:B 0.000276344
5 *2726:C *2726:B 3.01487e-05
6 *3024:D *2726:B 4.6613e-06
*RES
1 *2725:ZN *2726:B 10.35 
*END

*D_NET *534 0.00198565
*CONN
*I *2734:A2 I *D gf180mcu_fd_sc_mcu7t5v0__oai21_1
*I *2728:I I *D gf180mcu_fd_sc_mcu7t5v0__clkinv_1
*I *2732:A2 I *D gf180mcu_fd_sc_mcu7t5v0__nand2_1
*I *2727:Z O *D gf180mcu_fd_sc_mcu7t5v0__and2_1
*CAP
1 *2734:A2 9.15659e-05
2 *2728:I 4.08366e-05
3 *2732:A2 0
4 *2727:Z 0.000185674
5 *534:17 0.000417195
6 *534:8 0.000470467
7 *2728:I *954:10 7.77106e-05
8 *2734:A2 *2858:B2 7.772e-05
9 *2734:A2 *954:10 9.22066e-05
10 *534:8 *2729:B2 7.55765e-06
11 *534:8 *2736:A3 1.00099e-05
12 *534:8 *913:41 4.33781e-05
13 *534:8 *914:52 7.39052e-05
14 *534:17 *2729:B2 8.40823e-05
15 *534:17 *2734:A1 0.000238018
16 *534:17 *3149:I 3.54696e-05
17 *534:17 *914:52 3.55118e-05
18 *534:17 *954:10 4.34467e-06
*RES
1 *2727:Z *534:8 5.94 
2 *534:8 *2732:A2 4.5 
3 *534:8 *534:17 6.93 
4 *534:17 *2728:I 9.45 
5 *534:17 *2734:A2 9.99 
*END

*D_NET *535 0.00101537
*CONN
*I *2729:B2 I *D gf180mcu_fd_sc_mcu7t5v0__aoi22_1
*I *2728:ZN O *D gf180mcu_fd_sc_mcu7t5v0__clkinv_1
*CAP
1 *2729:B2 0.000283409
2 *2728:ZN 0.000283409
3 *2729:B2 *913:41 9.84908e-05
4 *2729:B2 *954:10 3.01487e-05
5 *503:117 *2729:B2 0.000228268
6 *534:8 *2729:B2 7.55765e-06
7 *534:17 *2729:B2 8.40823e-05
*RES
1 *2728:ZN *2729:B2 11.52 
*END

*D_NET *536 0.000726909
*CONN
*I *2731:A1 I *D gf180mcu_fd_sc_mcu7t5v0__nor2_1
*I *2729:ZN O *D gf180mcu_fd_sc_mcu7t5v0__aoi22_1
*CAP
1 *2731:A1 0.000173805
2 *2729:ZN 0.000173805
3 *2730:A2 *2731:A1 2.36914e-05
4 *3025:D *2731:A1 0.000163467
5 *502:178 *2731:A1 1.0415e-05
6 *503:106 *2731:A1 0.000181724
*RES
1 *2729:ZN *2731:A1 11.07 
*END

*D_NET *537 0.000513386
*CONN
*I *2731:A2 I *D gf180mcu_fd_sc_mcu7t5v0__nor2_1
*I *2730:ZN O *D gf180mcu_fd_sc_mcu7t5v0__oai21_1
*CAP
1 *2731:A2 0.000104349
2 *2730:ZN 0.000104349
3 *2731:A2 *778:268 0
4 *2730:A2 *2731:A2 0.000304688
*RES
1 *2730:ZN *2731:A2 10.17 
*END

*D_NET *538 0.00292019
*CONN
*I *2738:A2 I *D gf180mcu_fd_sc_mcu7t5v0__aoi211_1
*I *2733:B2 I *D gf180mcu_fd_sc_mcu7t5v0__aoi22_1
*I *2732:ZN O *D gf180mcu_fd_sc_mcu7t5v0__nand2_1
*CAP
1 *2738:A2 0.000423515
2 *2733:B2 6.90472e-05
3 *2732:ZN 0.000117307
4 *538:10 0.00060987
5 *2733:B2 *2735:A1 4.85558e-05
6 *2733:B2 *2736:A3 0.000161479
7 *2733:B2 *3026:CLK 1.58782e-05
8 *2733:B2 *913:8 0.000137908
9 *2738:A2 *704:91 9.93872e-05
10 *2738:A2 *784:46 0
11 *2738:A2 *784:52 0.000452453
12 *538:10 *2734:A1 0.000145016
13 *538:10 *2736:A3 1.0415e-05
14 *538:10 *784:52 0.000226227
15 *538:10 *913:8 2.95687e-05
16 *2476:A1 *2738:A2 6.43544e-05
17 *2476:A1 *538:10 1.0571e-05
18 *2490:A1 *2738:A2 1.18797e-05
19 *2733:B1 *2733:B2 3.01487e-05
20 *2738:A1 *2738:A2 1.56779e-05
21 *3027:D *2738:A2 0.000147435
22 *10:20 *2738:A2 9.34988e-05
*RES
1 *2732:ZN *538:10 10.08 
2 *538:10 *2733:B2 9.81 
3 *538:10 *2738:A2 12.78 
*END

*D_NET *539 0.00256458
*CONN
*I *2735:A1 I *D gf180mcu_fd_sc_mcu7t5v0__nor2_1
*I *2733:ZN O *D gf180mcu_fd_sc_mcu7t5v0__aoi22_1
*CAP
1 *2735:A1 0.000330857
2 *2733:ZN 0.000330857
3 *2735:A1 *2734:A1 0.000282849
4 *2735:A1 *2735:A2 0.000591253
5 *2735:A1 *2858:B2 0.000102753
6 *2735:A1 *3026:CLK 0.000795674
7 *2735:A1 *913:8 8.17782e-05
8 *2733:B2 *2735:A1 4.85558e-05
*RES
1 *2733:ZN *2735:A1 22.32 
*END

*D_NET *540 0.0014268
*CONN
*I *2735:A2 I *D gf180mcu_fd_sc_mcu7t5v0__nor2_1
*I *2734:ZN O *D gf180mcu_fd_sc_mcu7t5v0__oai21_1
*CAP
1 *2735:A2 5.56867e-05
2 *2734:ZN 5.56867e-05
3 *2735:A2 *2858:B2 0.00072417
4 *2735:A1 *2735:A2 0.000591253
*RES
1 *2734:ZN *2735:A2 19.89 
*END

*D_NET *541 0.00389072
*CONN
*I *2739:A2 I *D gf180mcu_fd_sc_mcu7t5v0__nor2_1
*I *2742:A2 I *D gf180mcu_fd_sc_mcu7t5v0__aoi211_1
*I *2737:B2 I *D gf180mcu_fd_sc_mcu7t5v0__aoi22_1
*I *2736:ZN O *D gf180mcu_fd_sc_mcu7t5v0__nand4_1
*CAP
1 *2739:A2 5.17346e-05
2 *2742:A2 6.59742e-05
3 *2737:B2 0
4 *2736:ZN 0.000109344
5 *541:21 0.000549297
6 *541:8 0.000540933
7 *541:21 *2288:I 0.000223815
8 *2739:A1 *2742:A2 5.60661e-06
9 *2739:A1 *541:21 1.86887e-06
10 *10:55 *2739:A2 0
11 *10:55 *541:21 0.000204802
12 *217:43 *541:21 1.43899e-05
13 *502:172 *541:21 5.78854e-06
14 *503:87 *2742:A2 4.73625e-05
15 *503:87 *541:21 0.000820221
16 *503:98 *541:21 0.000769986
17 *503:100 *541:8 0.000351186
18 *503:100 *541:21 0.000128414
*RES
1 *2736:ZN *541:8 9.99 
2 *541:8 *2737:B2 9 
3 *541:8 *541:21 9.72 
4 *541:21 *2742:A2 5.04 
5 *541:21 *2739:A2 4.95 
*END

*D_NET *542 0.00046635
*CONN
*I *2738:B I *D gf180mcu_fd_sc_mcu7t5v0__aoi211_1
*I *2737:ZN O *D gf180mcu_fd_sc_mcu7t5v0__aoi22_1
*CAP
1 *2738:B 4.27387e-05
2 *2737:ZN 4.27387e-05
3 *2738:C *2738:B 7.84068e-05
4 *502:172 *2738:B 0.000302466
*RES
1 *2737:ZN *2738:B 9.81 
*END

*D_NET *543 0.00330807
*CONN
*I *2743:A2 I *D gf180mcu_fd_sc_mcu7t5v0__nand2_1
*I *2745:A2 I *D gf180mcu_fd_sc_mcu7t5v0__oai21_1
*I *2740:I I *D gf180mcu_fd_sc_mcu7t5v0__clkinv_1
*I *2747:A3 I *D gf180mcu_fd_sc_mcu7t5v0__and3_1
*I *2739:ZN O *D gf180mcu_fd_sc_mcu7t5v0__nor2_1
*CAP
1 *2743:A2 0.000234986
2 *2745:A2 0
3 *2740:I 0.000139961
4 *2747:A3 0.000149433
5 *2739:ZN 7.18626e-05
6 *543:27 0.000173153
7 *543:25 0.000412163
8 *543:6 0.000365281
9 *2743:A2 *2746:A2 2.26044e-05
10 *2747:A3 *2745:B 9.88521e-05
11 *2747:A3 *599:44 0.000518371
12 *2747:A3 *917:30 1.75391e-05
13 *543:6 *2745:B 3.01487e-05
14 *543:25 *784:135 5.26484e-05
15 *543:25 *917:36 0.000219114
16 *543:27 *2746:A2 3.01487e-05
17 *10:55 *2747:A3 4.767e-05
18 *10:55 *543:6 0.000208323
19 *295:67 *2743:A2 0
20 *295:67 *543:27 0
21 *496:24 *543:25 0
22 *502:56 *2747:A3 0.00051581
*RES
1 *2739:ZN *543:6 5.85 
2 *543:6 *2747:A3 15.66 
3 *543:6 *543:25 9.99 
4 *543:25 *543:27 0.45 
5 *543:27 *2740:I 5.94 
6 *543:27 *2745:A2 4.5 
7 *543:25 *2743:A2 5.94 
*END

*D_NET *544 0.00194816
*CONN
*I *2741:B2 I *D gf180mcu_fd_sc_mcu7t5v0__aoi22_1
*I *2740:ZN O *D gf180mcu_fd_sc_mcu7t5v0__clkinv_1
*CAP
1 *2741:B2 0.000453831
2 *2740:ZN 0.000453831
3 *2741:B2 *2287:I 0.000275597
4 *2741:B2 *2288:I 9.05528e-06
5 *2741:B2 *2487:A1 0
6 *2741:B2 *914:14 9.04462e-05
7 *2741:B2 *914:16 0.000483179
8 *2741:B2 *916:10 2.9119e-05
9 *217:43 *2741:B2 0.000153102
*RES
1 *2740:ZN *2741:B2 21.6 
*END

*D_NET *545 0.00170886
*CONN
*I *2742:B I *D gf180mcu_fd_sc_mcu7t5v0__aoi211_1
*I *2741:ZN O *D gf180mcu_fd_sc_mcu7t5v0__aoi22_1
*CAP
1 *2742:B 0.000133338
2 *2741:ZN 0.000133338
3 *2742:B *2674:A2 0.000601722
4 *2742:B *2741:A1 0.000191151
5 *2741:A2 *2742:B 0.000649305
*RES
1 *2741:ZN *2742:B 11.79 
*END

*D_NET *546 0.00532395
*CONN
*I *2744:B2 I *D gf180mcu_fd_sc_mcu7t5v0__aoi22_1
*I *2750:A2 I *D gf180mcu_fd_sc_mcu7t5v0__aoi211_1
*I *2743:ZN O *D gf180mcu_fd_sc_mcu7t5v0__nand2_1
*CAP
1 *2744:B2 2.42057e-05
2 *2750:A2 0.000690345
3 *2743:ZN 0.000128374
4 *546:12 0.000842925
5 *2750:A2 *2747:A1 0.000363857
6 *2750:A2 *2754:A1 0.00019781
7 *2750:A2 *2754:A2 3.10415e-05
8 *2750:A2 *2755:A2 0.000305468
9 *2750:A2 *549:12 5.96597e-05
10 *2750:A2 *549:29 0.000194959
11 *2750:A2 *704:6 9.04462e-05
12 *2750:A2 *704:10 3.55431e-05
13 *2750:A2 *704:34 0.000117286
14 *2750:A2 *784:16 0.000215392
15 *2750:A2 *919:10 2.31089e-05
16 *2750:A2 *919:54 0.000107581
17 *546:12 *2746:A2 1.17652e-05
18 *546:12 *2755:A2 0.000118538
19 *2675:A4 *2750:A2 1.47845e-05
20 *2744:B1 *2744:B2 3.12451e-05
21 *2744:B1 *2750:A2 0.0005687
22 *2744:B1 *546:12 3.19584e-05
23 *2750:A1 *2750:A2 2.30981e-05
24 *2753:B1 *2750:A2 5.78854e-06
25 *10:55 *2744:B2 2.36813e-05
26 *10:55 *2750:A2 6.68757e-05
27 *295:67 *546:12 5.06031e-06
28 *502:56 *2750:A2 5.62944e-05
29 *502:56 *546:12 0.000435219
30 *502:67 *546:12 0.000283821
31 *503:75 *2750:A2 0.000219114
*RES
1 *2743:ZN *546:12 15.66 
2 *546:12 *2750:A2 21.51 
3 *546:12 *2744:B2 4.77 
*END

*D_NET *547 0.00246156
*CONN
*I *2746:A1 I *D gf180mcu_fd_sc_mcu7t5v0__nor2_1
*I *2744:ZN O *D gf180mcu_fd_sc_mcu7t5v0__aoi22_1
*CAP
1 *2746:A1 0.000565481
2 *2744:ZN 0.000565481
3 *2746:A1 *2746:A2 0.00104105
4 *2746:A1 *3031:CLK 3.22122e-05
5 *2746:A1 *694:217 0.000167242
6 *2746:A1 *703:20 0
7 *2744:B1 *2746:A1 8.19004e-05
8 *10:55 *2746:A1 8.19532e-06
9 *295:63 *2746:A1 0
*RES
1 *2744:ZN *2746:A1 14.4 
*END

*D_NET *548 0.00295963
*CONN
*I *2746:A2 I *D gf180mcu_fd_sc_mcu7t5v0__nor2_1
*I *2745:ZN O *D gf180mcu_fd_sc_mcu7t5v0__oai21_1
*CAP
1 *2746:A2 0.000571553
2 *2745:ZN 0.000571553
3 *2746:A2 *2745:A1 8.49208e-05
4 *2746:A2 *2755:A1 1.03055e-05
5 *2746:A2 *2755:A2 3.47145e-05
6 *2746:A2 *917:30 0.000198205
7 *2743:A2 *2746:A2 2.26044e-05
8 *2744:B1 *2746:A2 9.3226e-06
9 *2746:A1 *2746:A2 0.00104105
10 *3029:D *2746:A2 0.00037349
11 *295:63 *2746:A2 0
12 *543:27 *2746:A2 3.01487e-05
13 *546:12 *2746:A2 1.17652e-05
*RES
1 *2745:ZN *2746:A2 14.49 
*END

*D_NET *549 0.00555009
*CONN
*I *2751:A2 I *D gf180mcu_fd_sc_mcu7t5v0__and2_1
*I *2748:I I *D gf180mcu_fd_sc_mcu7t5v0__clkinv_1
*I *2754:A2 I *D gf180mcu_fd_sc_mcu7t5v0__oai21_1
*I *2747:Z O *D gf180mcu_fd_sc_mcu7t5v0__and3_1
*CAP
1 *2751:A2 0
2 *2748:I 0.000125439
3 *2754:A2 4.00597e-05
4 *2747:Z 0.000109701
5 *549:29 0.000482398
6 *549:12 0.000506719
7 *2748:I *918:33 0.000460904
8 *2748:I *919:14 0
9 *2754:A2 *2754:B 0.000164219
10 *549:12 *2747:A1 1.61174e-05
11 *549:12 *2754:B 9.39061e-05
12 *549:29 *704:6 9.04462e-05
13 *549:29 *704:34 0.00034797
14 *549:29 *784:16 0.000335957
15 *549:29 *784:29 0.000591199
16 *549:29 *919:10 0
17 *549:29 *919:14 0
18 *2675:A4 *549:12 8.16511e-05
19 *2741:A2 *549:12 4.62661e-05
20 *2750:A2 *2754:A2 3.10415e-05
21 *2750:A2 *549:12 5.96597e-05
22 *2750:A2 *549:29 0.000194959
23 *372:208 *549:12 0.000169515
24 *499:20 *2748:I 0.000192205
25 *502:26 *2748:I 0.000445479
26 *502:26 *549:29 0.000734439
27 *502:37 *549:29 0.000200669
28 *502:41 *549:12 2.91742e-05
29 *503:62 *549:29 0
*RES
1 *2747:Z *549:12 10.53 
2 *549:12 *2754:A2 9.45 
3 *549:12 *549:29 14.04 
4 *549:29 *2748:I 11.34 
5 *549:29 *2751:A2 9 
*END

*D_NET *550 0.0045828
*CONN
*I *2749:B2 I *D gf180mcu_fd_sc_mcu7t5v0__aoi22_1
*I *2748:ZN O *D gf180mcu_fd_sc_mcu7t5v0__clkinv_1
*CAP
1 *2749:B2 0.000383603
2 *2748:ZN 0.000383603
3 *2749:B2 *2750:B 0.000682113
4 *2749:B2 *2878:B2 0.000339789
5 *2749:B2 *2965:CLK 0.000312562
6 *2749:B2 *3121:I 0.000100339
7 *2749:B2 *656:14 6.22242e-05
8 *2749:B2 *703:50 0.000219114
9 *2749:B2 *703:52 0.000375166
10 *2749:B2 *703:54 0.000309993
11 *2679:A1 *2749:B2 0.000223407
12 *3213:I *2749:B2 0.000356014
13 *295:55 *2749:B2 0.000161479
14 *295:145 *2749:B2 0.000543506
15 *499:20 *2749:B2 0.000129889
*RES
1 *2748:ZN *2749:B2 25.2 
*END

*D_NET *551 0.00250747
*CONN
*I *2750:B I *D gf180mcu_fd_sc_mcu7t5v0__aoi211_1
*I *2749:ZN O *D gf180mcu_fd_sc_mcu7t5v0__aoi22_1
*CAP
1 *2750:B 0.000286537
2 *2749:ZN 0.000286537
3 *2750:B *2878:B2 0.000872513
4 *2750:B *656:14 2.38472e-05
5 *2750:B *756:144 1.86887e-06
6 *2750:B *756:148 3.69073e-05
7 *2749:B2 *2750:B 0.000682113
8 *3030:D *2750:B 5.71512e-05
9 *372:60 *2750:B 0.000259997
*RES
1 *2749:ZN *2750:B 22.14 
*END

*D_NET *552 0.00676133
*CONN
*I *2752:I I *D gf180mcu_fd_sc_mcu7t5v0__clkinv_1
*I *2756:A2 I *D gf180mcu_fd_sc_mcu7t5v0__nand2_1
*I *2758:A2 I *D gf180mcu_fd_sc_mcu7t5v0__oai21_1
*I *2751:Z O *D gf180mcu_fd_sc_mcu7t5v0__and2_1
*CAP
1 *2752:I 0.000117779
2 *2756:A2 0.000467203
3 *2758:A2 2.96509e-05
4 *2751:Z 0
5 *552:16 0.000785659
6 *552:6 0.000406585
7 *2752:I *2753:B2 0.000215362
8 *2752:I *2754:A1 9.90362e-06
9 *2752:I *2758:B 0.000109556
10 *2756:A2 *2757:A1 9.04462e-05
11 *2756:A2 *2759:A1 4.83522e-05
12 *2756:A2 *2761:A2 1.0415e-05
13 *2756:A2 *556:8 0.000152426
14 *2758:A2 *2757:A1 0.000455757
15 *2758:A2 *2759:A2 0.000463466
16 *552:16 *2678:A1 0.000283714
17 *552:16 *2678:B 3.01487e-05
18 *552:16 *2757:A1 9.39061e-05
19 *552:16 *2758:B 0.000305845
20 *552:16 *2759:A2 0.000583059
21 *552:16 *3033:CLK 0.000461005
22 *2486:B *2756:A2 0
23 *2486:B *552:16 3.14363e-05
24 *2675:A3 *2752:I 0.00020197
25 *2675:A3 *552:16 0.000299724
26 *2757:B1 *2756:A2 5.97457e-06
27 *499:20 *552:16 2.36813e-05
28 *502:26 *2752:I 0.000510176
29 *502:26 *552:16 0.000568127
*RES
1 *2751:Z *552:6 9 
2 *552:6 *552:16 14.49 
3 *552:16 *2758:A2 10.17 
4 *552:16 *2756:A2 12.15 
5 *552:6 *2752:I 11.16 
*END

*D_NET *553 0.000442041
*CONN
*I *2753:B2 I *D gf180mcu_fd_sc_mcu7t5v0__aoi22_1
*I *2752:ZN O *D gf180mcu_fd_sc_mcu7t5v0__clkinv_1
*CAP
1 *2753:B2 9.28052e-05
2 *2752:ZN 9.28052e-05
3 *2753:B2 *2754:A1 4.1068e-05
4 *2752:I *2753:B2 0.000215362
*RES
1 *2752:ZN *2753:B2 9.81 
*END

*D_NET *554 0.00289118
*CONN
*I *2755:A1 I *D gf180mcu_fd_sc_mcu7t5v0__nor2_1
*I *2753:ZN O *D gf180mcu_fd_sc_mcu7t5v0__aoi22_1
*CAP
1 *2755:A1 0.000607101
2 *2753:ZN 0.000607101
3 *2755:A1 *2755:A2 0.000156397
4 *2755:A1 *2758:B 0.000111446
5 *2755:A1 *3029:CLK 0.000308241
6 *2746:A2 *2755:A1 1.03055e-05
7 *3031:D *2755:A1 0.000170423
8 *295:63 *2755:A1 0
9 *502:26 *2755:A1 0.000171937
10 *502:37 *2755:A1 0.00074823
*RES
1 *2753:ZN *2755:A1 24.12 
*END

*D_NET *555 0.00426078
*CONN
*I *2755:A2 I *D gf180mcu_fd_sc_mcu7t5v0__nor2_1
*I *2754:ZN O *D gf180mcu_fd_sc_mcu7t5v0__oai21_1
*CAP
1 *2755:A2 0.000795212
2 *2754:ZN 0.000795212
3 *2755:A2 *2754:A1 0.000362773
4 *2755:A2 *2758:B 7.54325e-05
5 *2755:A2 *694:223 0.00040135
6 *2755:A2 *704:10 0.00015651
7 *2755:A2 *704:34 6.23112e-05
8 *2744:B1 *2755:A2 0.000645672
9 *2746:A2 *2755:A2 3.47145e-05
10 *2750:A2 *2755:A2 0.000305468
11 *2755:A1 *2755:A2 0.000156397
12 *3031:D *2755:A2 0.000124792
13 *295:63 *2755:A2 4.04309e-06
14 *295:67 *2755:A2 5.17053e-05
15 *502:67 *2755:A2 2.16372e-05
16 *503:75 *2755:A2 0.000149015
17 *546:12 *2755:A2 0.000118538
*RES
1 *2754:ZN *2755:A2 36.09 
*END

*D_NET *556 0.00275955
*CONN
*I *2761:A2 I *D gf180mcu_fd_sc_mcu7t5v0__aoi211_1
*I *2757:B2 I *D gf180mcu_fd_sc_mcu7t5v0__aoi22_1
*I *2756:ZN O *D gf180mcu_fd_sc_mcu7t5v0__nand2_1
*CAP
1 *2761:A2 0.00030066
2 *2757:B2 3.44897e-05
3 *2756:ZN 0.000402479
4 *556:8 0.000737629
5 *2761:A2 *2758:A1 2.65444e-06
6 *2761:A2 *3033:CLK 0
7 *556:8 *2499:A1 7.191e-07
8 *556:8 *2758:A1 2.40587e-06
9 *556:8 *920:6 1.65119e-05
10 *556:8 *920:28 2.38323e-05
11 *2486:B *2761:A2 0.000519873
12 *2756:A2 *2761:A2 1.0415e-05
13 *2756:A2 *556:8 0.000152426
14 *2757:B1 *2761:A2 7.083e-05
15 *3033:D *2757:B2 0
16 *3033:D *2761:A2 0.000392922
17 *295:166 *2761:A2 1.39839e-05
18 *372:86 *2761:A2 7.772e-05
*RES
1 *2756:ZN *556:8 7.2 
2 *556:8 *2757:B2 4.77 
3 *556:8 *2761:A2 16.65 
*END

*D_NET *557 0.00072146
*CONN
*I *2759:A1 I *D gf180mcu_fd_sc_mcu7t5v0__nor2_1
*I *2757:ZN O *D gf180mcu_fd_sc_mcu7t5v0__aoi22_1
*CAP
1 *2759:A1 0.000252708
2 *2757:ZN 0.000252708
3 *2486:B *2759:A1 0.000167693
4 *2756:A2 *2759:A1 4.83522e-05
*RES
1 *2757:ZN *2759:A1 11.25 
*END

*D_NET *558 0.00220846
*CONN
*I *2759:A2 I *D gf180mcu_fd_sc_mcu7t5v0__nor2_1
*I *2758:ZN O *D gf180mcu_fd_sc_mcu7t5v0__oai21_1
*CAP
1 *2759:A2 1.44065e-05
2 *2758:ZN 1.44065e-05
3 *2759:A2 *2757:A1 3.42509e-05
4 *2759:A2 *2758:B 0.00109887
5 *2758:A2 *2759:A2 0.000463466
6 *552:16 *2759:A2 0.000583059
*RES
1 *2758:ZN *2759:A2 20.79 
*END

*D_NET *559 0.000576574
*CONN
*I *2761:B I *D gf180mcu_fd_sc_mcu7t5v0__aoi211_1
*I *2760:ZN O *D gf180mcu_fd_sc_mcu7t5v0__aoi21_1
*CAP
1 *2761:B 0.000154787
2 *2760:ZN 0.000154787
3 *2761:B *921:14 3.97987e-05
4 *2486:B *2761:B 0
5 *372:86 *2761:B 1.18477e-05
6 *502:22 *2761:B 0
7 *502:26 *2761:B 4.06025e-05
8 *503:40 *2761:B 0.000174752
*RES
1 *2760:ZN *2761:B 19.8 
*END

*D_NET *560 0.000350783
*CONN
*I *2767:B I *D gf180mcu_fd_sc_mcu7t5v0__oai31_1
*I *2766:ZN O *D gf180mcu_fd_sc_mcu7t5v0__oai21_1
*CAP
1 *2767:B 0.00010918
2 *2766:ZN 0.00010918
3 *2767:B *2767:A1 2.5887e-05
4 *2664:A1 *2767:B 0
5 *268:23 *2767:B 0.000106536
*RES
1 *2766:ZN *2767:B 10.08 
*END

*D_NET *561 0.000633525
*CONN
*I *2768:A2 I *D gf180mcu_fd_sc_mcu7t5v0__nor2_1
*I *2767:ZN O *D gf180mcu_fd_sc_mcu7t5v0__oai31_1
*CAP
1 *2768:A2 0.000162909
2 *2767:ZN 0.000162909
3 *2768:A2 *2814:B2 1.53188e-05
4 *2767:A3 *2768:A2 8.68281e-06
5 *296:35 *2768:A2 0.000283705
*RES
1 *2767:ZN *2768:A2 10.44 
*END

*D_NET *562 0.00360335
*CONN
*I *2773:A1 I *D gf180mcu_fd_sc_mcu7t5v0__aoi21_1
*I *2772:A2 I *D gf180mcu_fd_sc_mcu7t5v0__oai21_1
*I *2769:ZN O *D gf180mcu_fd_sc_mcu7t5v0__nor2_1
*CAP
1 *2773:A1 2.89449e-05
2 *2772:A2 0.000438482
3 *2769:ZN 2.7799e-05
4 *562:10 0.000495226
5 *2772:A2 *2773:B 0.000192646
6 *2772:A2 *726:12 9.6501e-06
7 *2773:A1 *2773:B 8.68281e-06
8 *562:10 *2831:A2 2.35868e-05
9 *2769:A1 *562:10 0.000508074
10 *2769:A2 *562:10 0.000435192
11 *296:35 *2772:A2 0.00137477
12 *296:35 *2773:A1 6.02974e-05
*RES
1 *2769:ZN *562:10 14.85 
2 *562:10 *2772:A2 9.18 
3 *562:10 *2773:A1 4.77 
*END

*D_NET *563 0.00184368
*CONN
*I *2771:B1 I *D gf180mcu_fd_sc_mcu7t5v0__aoi22_1
*I *2770:ZN O *D gf180mcu_fd_sc_mcu7t5v0__nor2_1
*CAP
1 *2771:B1 2.98641e-05
2 *2770:ZN 2.98641e-05
3 *2771:B1 *2868:A1 0.00120565
4 *2771:B1 *723:68 0.000578298
*RES
1 *2770:ZN *2771:B1 21.15 
*END

*D_NET *564 0.00146159
*CONN
*I *2773:A2 I *D gf180mcu_fd_sc_mcu7t5v0__aoi21_1
*I *2771:ZN O *D gf180mcu_fd_sc_mcu7t5v0__aoi22_1
*CAP
1 *2773:A2 0.000322897
2 *2771:ZN 0.000322897
3 *2773:A2 *2814:B2 1.34631e-05
4 *2773:A2 *2868:A1 0.000111933
5 *2773:A2 *631:16 0.00020705
6 *2773:A2 *723:68 0.000101624
7 *2769:A1 *2773:A2 2.37216e-05
8 *3039:D *2773:A2 0.00033718
9 *296:35 *2773:A2 2.08301e-05
*RES
1 *2771:ZN *2773:A2 21.24 
*END

*D_NET *565 0.0018413
*CONN
*I *2773:B I *D gf180mcu_fd_sc_mcu7t5v0__aoi21_1
*I *2772:ZN O *D gf180mcu_fd_sc_mcu7t5v0__oai21_1
*CAP
1 *2773:B 0.000512551
2 *2772:ZN 0.000512551
3 *2773:B *2771:B2 0.000208135
4 *2773:B *723:68 5.57986e-05
5 *2773:B *726:12 0.000130371
6 *2773:B *726:16 1.07374e-05
7 *2664:A1 *2773:B 4.83522e-05
8 *2772:A2 *2773:B 0.000192646
9 *2773:A1 *2773:B 8.68281e-06
10 *268:23 *2773:B 0.000161479
*RES
1 *2772:ZN *2773:B 13.41 
*END

*D_NET *566 0.00336852
*CONN
*I *2778:A2 I *D gf180mcu_fd_sc_mcu7t5v0__nor3_1
*I *2774:ZN O *D gf180mcu_fd_sc_mcu7t5v0__nand2_1
*CAP
1 *2778:A2 0.000334775
2 *2774:ZN 0.000334775
3 *2778:A2 *2774:A1 0.000192205
4 *2778:A2 *2797:A3 0.000433645
5 *2778:A2 *2800:A1 3.26104e-05
6 *2778:A2 *2801:A1 7.77358e-05
7 *2778:A2 *3043:CLK 0.000578414
8 *2778:A2 *570:16 6.15707e-05
9 *2778:A2 *708:30 0.000799622
10 *2778:A2 *964:16 9.26419e-06
11 *2778:A2 *964:22 1.37635e-05
12 *2778:A2 *965:19 8.24336e-05
13 *2785:A2 *2778:A2 0.000417707
*RES
1 *2774:ZN *2778:A2 24.3 
*END

*D_NET *567 0.00175442
*CONN
*I *2792:A2 I *D gf180mcu_fd_sc_mcu7t5v0__or4_1
*I *2775:ZN O *D gf180mcu_fd_sc_mcu7t5v0__nand2_1
*CAP
1 *2792:A2 0.000327364
2 *2775:ZN 0.000327364
3 *2792:A2 *2282:I 0.000204409
4 *2792:A2 *2787:A4 2.14748e-05
5 *2792:A2 *2788:B 0.000210639
6 *2792:A2 *2789:A1 0.000236164
7 *2792:A2 *2792:A1 0.000224469
8 *2792:A2 *2792:A3 2.03413e-05
9 *2792:A2 *571:16 5.43019e-05
10 *2792:A2 *571:22 0.000103126
11 *2792:A2 *722:39 1.57137e-05
12 *2775:A1 *2792:A2 9.05528e-06
*RES
1 *2775:ZN *2792:A2 21.42 
*END

*D_NET *568 0.00278907
*CONN
*I *2777:A3 I *D gf180mcu_fd_sc_mcu7t5v0__nand3_1
*I *2787:A2 I *D gf180mcu_fd_sc_mcu7t5v0__or4_1
*I *2776:ZN O *D gf180mcu_fd_sc_mcu7t5v0__nor2_1
*CAP
1 *2777:A3 0.000373409
2 *2787:A2 0.000215071
3 *2776:ZN 0.000354764
4 *568:10 0.000943244
5 *2777:A3 *2788:B 1.75747e-05
6 *2777:A3 *722:39 0.000501195
7 *2787:A2 *2776:A1 0
8 *2787:A2 *2781:A1 6.26224e-06
9 *2787:A2 *2788:A1 0.000289664
10 *2787:A2 *571:22 3.22488e-05
11 *2787:A2 *722:39 2.79568e-05
12 *3042:D *2787:A2 2.76823e-05
*RES
1 *2776:ZN *568:10 11.16 
2 *568:10 *2787:A2 11.07 
3 *568:10 *2777:A3 13.05 
*END

*D_NET *569 0.00436834
*CONN
*I *2778:A3 I *D gf180mcu_fd_sc_mcu7t5v0__nor3_1
*I *2777:ZN O *D gf180mcu_fd_sc_mcu7t5v0__nand3_1
*CAP
1 *2778:A3 0.000747214
2 *2777:ZN 0.000747214
3 *2778:A3 *2795:A2 0.000894266
4 *2778:A3 *2795:B 3.08015e-05
5 *2778:A3 *574:12 0
6 *2778:A3 *574:14 0
7 *2778:A3 *722:39 0.00135391
8 *2778:A3 *963:8 0.000564313
9 *2778:A3 *964:22 3.0616e-05
*RES
1 *2777:ZN *2778:A3 26.28 
*END

*D_NET *570 0.00837736
*CONN
*I *2783:A2 I *D gf180mcu_fd_sc_mcu7t5v0__oai21_1
*I *2781:A2 I *D gf180mcu_fd_sc_mcu7t5v0__nor3_1
*I *2780:A2 I *D gf180mcu_fd_sc_mcu7t5v0__nor2_1
*I *2778:ZN O *D gf180mcu_fd_sc_mcu7t5v0__nor3_1
*CAP
1 *2783:A2 0.00045309
2 *2781:A2 0.000291023
3 *2780:A2 0
4 *2778:ZN 0.000104969
5 *570:16 0.00145436
6 *570:8 0.0017214
7 *2781:A2 *2776:A1 0.000366594
8 *2781:A2 *2776:A2 0.000143757
9 *2781:A2 *2780:A1 3.01487e-05
10 *2781:A2 *2784:A1 0
11 *2781:A2 *2785:A1 0
12 *2781:A2 *2787:A1 7.84312e-05
13 *2781:A2 *2787:A4 3.97987e-05
14 *2781:A2 *571:28 1.70821e-05
15 *2783:A2 *2783:A1 6.1299e-06
16 *2783:A2 *2795:A1 0.000161479
17 *2783:A2 *2796:A3 3.85778e-05
18 *2783:A2 *2797:A1 5.54453e-05
19 *2783:A2 *2800:A4 0.000106536
20 *2783:A2 *3163:I 0.00062673
21 *2783:A2 *571:12 0
22 *2783:A2 *571:88 4.6613e-06
23 *2783:A2 *574:12 0.000229393
24 *2783:A2 *574:14 0.000312121
25 *2783:A2 *963:8 5.97457e-06
26 *2783:A2 *964:16 1.71254e-05
27 *2783:A2 *964:22 0.00015449
28 *570:8 *2795:A1 0.000415026
29 *570:8 *2795:B 9.00225e-05
30 *570:8 *964:22 8.69474e-05
31 *570:16 *2785:A1 6.77031e-05
32 *570:16 *2787:A4 0.000104278
33 *570:16 *2788:A2 0
34 *570:16 *2789:A1 5.12225e-05
35 *570:16 *2794:A1 0
36 *570:16 *3043:CLK 0.000100251
37 *570:16 *3189:I 7.3603e-06
38 *570:16 *572:6 0.000106536
39 *570:16 *581:15 0
40 *570:16 *964:22 6.98034e-05
41 *2778:A2 *570:16 6.15707e-05
42 *2785:A2 *570:16 0
43 *2791:A1 *570:16 0.000274114
44 *3042:D *2781:A2 0.000447357
45 *3042:D *570:16 1.86887e-06
46 *3043:D *570:16 7.39784e-05
*RES
1 *2778:ZN *570:8 5.94 
2 *570:8 *570:16 18.36 
3 *570:16 *2780:A2 4.5 
4 *570:16 *2781:A2 16.83 
5 *570:8 *2783:A2 18.9 
*END

*D_NET *571 0.0173335
*CONN
*I *2802:A1 I *D gf180mcu_fd_sc_mcu7t5v0__nor2_1
*I *2797:A1 I *D gf180mcu_fd_sc_mcu7t5v0__nor3_1
*I *2793:A2 I *D gf180mcu_fd_sc_mcu7t5v0__oai31_1
*I *2791:C I *D gf180mcu_fd_sc_mcu7t5v0__aoi211_1
*I *2792:A3 I *D gf180mcu_fd_sc_mcu7t5v0__or4_1
*I *2787:A3 I *D gf180mcu_fd_sc_mcu7t5v0__or4_1
*I *2781:A3 I *D gf180mcu_fd_sc_mcu7t5v0__nor3_1
*I *2784:A1 I *D gf180mcu_fd_sc_mcu7t5v0__nor2_1
*I *2779:ZN O *D gf180mcu_fd_sc_mcu7t5v0__nand2_1
*CAP
1 *2802:A1 0
2 *2797:A1 0.000508318
3 *2793:A2 1.63438e-05
4 *2791:C 0.000200499
5 *2792:A3 0.000136985
6 *2787:A3 0
7 *2781:A3 0
8 *2784:A1 0.00030694
9 *2779:ZN 0.000393238
10 *571:88 0.000602664
11 *571:70 0.000216842
12 *571:28 0.000507333
13 *571:22 0.000406441
14 *571:16 0.000599153
15 *571:14 0.0008896
16 *571:12 0.00112106
17 *2784:A1 *2776:A1 1.42213e-05
18 *2784:A1 *2781:A1 8.53366e-05
19 *2784:A1 *2784:A2 8.20925e-05
20 *2784:A1 *700:99 0
21 *2791:C *2791:A2 5.97457e-06
22 *2791:C *2793:A3 0.00160386
23 *2791:C *3044:CLK 0.00069741
24 *2791:C *962:31 0
25 *2792:A3 *2282:I 1.06822e-05
26 *2792:A3 *2789:A1 0.00043264
27 *2792:A3 *2792:A4 8.71354e-05
28 *2793:A2 *2793:A3 0.000152221
29 *2793:A2 *3044:CLK 0.000125724
30 *2797:A1 *2795:A1 6.74604e-05
31 *2797:A1 *2797:A3 7.96333e-06
32 *2797:A1 *2800:A1 9.04462e-05
33 *2797:A1 *2801:A2 2.03387e-06
34 *2797:A1 *3047:CLK 0.000121576
35 *2797:A1 *574:14 1.38253e-05
36 *571:12 *2783:A1 1.31385e-05
37 *571:12 *2783:B 4.83522e-05
38 *571:12 *2796:A3 6.55974e-05
39 *571:12 *3163:I 0
40 *571:12 *583:8 0.000152221
41 *571:12 *723:24 0.000121108
42 *571:14 *2796:A3 1.91227e-05
43 *571:14 *3163:I 3.64793e-05
44 *571:14 *574:34 0.00181665
45 *571:16 *574:34 0.000848133
46 *571:22 *2781:A1 0.0001447
47 *571:22 *2788:A1 0.000601613
48 *571:22 *2788:B 3.92735e-05
49 *571:22 *574:34 0.000164908
50 *571:22 *722:43 9.04462e-05
51 *571:28 *2781:A1 6.98474e-05
52 *571:28 *2787:A1 0.000122568
53 *571:28 *2788:A1 0.000244076
54 *571:88 *2797:A3 0
55 *571:88 *2801:A2 4.37176e-06
56 *571:88 *3163:I 8.80694e-05
57 *571:88 *583:8 0
58 *2775:A1 *571:16 4.42915e-05
59 *2781:A2 *2784:A1 0
60 *2781:A2 *571:28 1.70821e-05
61 *2783:A2 *2797:A1 5.54453e-05
62 *2783:A2 *571:12 0
63 *2783:A2 *571:88 4.6613e-06
64 *2787:A2 *571:22 3.22488e-05
65 *2791:A1 *2791:C 6.13395e-05
66 *2791:A1 *2792:A3 0.000698566
67 *2792:A2 *2792:A3 2.03413e-05
68 *2792:A2 *571:16 5.43019e-05
69 *2792:A2 *571:22 0.000103126
70 *3040:D *2784:A1 7.25591e-05
71 *3041:D *2784:A1 0.000224913
72 *3042:D *2784:A1 0
73 *3042:D *571:22 9.38814e-06
74 *3043:D *2791:C 0.000346684
75 *3045:D *2797:A1 0.000149829
76 *3047:D *2797:A1 0.0011953
77 *211:8 *571:14 3.11537e-05
78 *211:10 *571:14 1.73891e-06
79 *211:10 *571:16 1.38607e-05
*RES
1 *2779:ZN *571:12 12.15 
2 *571:12 *571:14 5.85 
3 *571:14 *571:16 2.43 
4 *571:16 *571:22 7.02 
5 *571:22 *571:28 6.3 
6 *571:28 *2784:A1 11.7 
7 *571:28 *2781:A3 9 
8 *571:22 *2787:A3 4.5 
9 *571:16 *2792:A3 11.97 
10 *571:14 *571:70 4.5 
11 *571:70 *2791:C 8.91 
12 *571:70 *2793:A2 4.95 
13 *571:12 *571:88 5.31 
14 *571:88 *2797:A1 10.26 
15 *571:88 *2802:A1 4.5 
*END

*D_NET *572 0.0028078
*CONN
*I *2790:A2 I *D gf180mcu_fd_sc_mcu7t5v0__and3_1
*I *2782:A2 I *D gf180mcu_fd_sc_mcu7t5v0__xnor2_1
*I *2780:ZN O *D gf180mcu_fd_sc_mcu7t5v0__nor2_1
*CAP
1 *2790:A2 6.47994e-05
2 *2782:A2 0.000118538
3 *2780:ZN 0.000169068
4 *572:6 0.000352405
5 *2782:A2 *2786:A1 0.000557083
6 *2782:A2 *2786:A2 0.00052863
7 *2782:A2 *2790:A1 0.000106536
8 *2782:A2 *576:6 4.05054e-05
9 *2782:A2 *576:34 5.22596e-06
10 *2790:A2 *2787:A4 9.85004e-05
11 *572:6 *2785:A1 2.09122e-05
12 *572:6 *2786:A1 0.000258909
13 *572:6 *2787:A4 0.00015541
14 *572:6 *961:8 4.78445e-05
15 *3096:I *2782:A2 0.000176901
16 *570:16 *572:6 0.000106536
*RES
1 *2780:ZN *572:6 6.57 
2 *572:6 *2782:A2 16.38 
3 *572:6 *2790:A2 5.22 
*END

*D_NET *573 0.00214845
*CONN
*I *2784:A2 I *D gf180mcu_fd_sc_mcu7t5v0__nor2_1
*I *2782:ZN O *D gf180mcu_fd_sc_mcu7t5v0__xnor2_1
*CAP
1 *2784:A2 0.000776929
2 *2782:ZN 0.000776929
3 *2784:A2 *2776:A1 0.000202192
4 *2784:A2 *2776:A2 0
5 *2784:A2 *2781:A1 4.33148e-05
6 *2784:A2 *2782:A1 0
7 *2784:A2 *960:6 0
8 *2784:A1 *2784:A2 8.20925e-05
9 *3041:D *2784:A2 0.000266997
*RES
1 *2782:ZN *2784:A2 15.3 
*END

*D_NET *574 0.0133029
*CONN
*I *2789:A1 I *D gf180mcu_fd_sc_mcu7t5v0__nand2_1
*I *2788:A1 I *D gf180mcu_fd_sc_mcu7t5v0__oai21_1
*I *2800:A3 I *D gf180mcu_fd_sc_mcu7t5v0__nand4_1
*I *2795:A1 I *D gf180mcu_fd_sc_mcu7t5v0__aoi21_1
*I *2783:ZN O *D gf180mcu_fd_sc_mcu7t5v0__oai21_1
*CAP
1 *2789:A1 0.000510312
2 *2788:A1 0.000367029
3 *2800:A3 0
4 *2795:A1 0.000343491
5 *2783:ZN 0.000372373
6 *574:34 0.00148914
7 *574:14 0.000514076
8 *574:12 0.00115476
9 *2788:A1 *2781:A1 7.56646e-05
10 *2788:A1 *2787:A1 1.14089e-05
11 *2788:A1 *2788:A2 3.18551e-05
12 *2789:A1 *2282:I 0
13 *2789:A1 *2787:A4 5.15793e-05
14 *2789:A1 *2790:A1 0.000286386
15 *2789:A1 *2792:A4 0.000105337
16 *2789:A1 *962:8 0.000169524
17 *2789:A1 *962:27 1.86249e-05
18 *2789:A1 *962:31 0.000232503
19 *2795:A1 *2795:A2 7.55765e-06
20 *2795:A1 *2795:B 0.000133989
21 *2795:A1 *2797:A2 4.83522e-05
22 *2795:A1 *2800:A1 1.56779e-05
23 *2795:A1 *3047:CLK 0.000204492
24 *574:12 *722:39 0.000440674
25 *574:14 *2800:A1 2.89427e-06
26 *574:14 *2800:A4 9.93108e-05
27 *574:14 *963:8 1.4382e-06
28 *574:34 *2794:A1 0.000233003
29 *574:34 *3163:I 0.00017649
30 *2778:A3 *574:12 0
31 *2778:A3 *574:14 0
32 *2783:A2 *2795:A1 0.000161479
33 *2783:A2 *574:12 0.000229393
34 *2783:A2 *574:14 0.000312121
35 *2785:A2 *2789:A1 0
36 *2787:A2 *2788:A1 0.000289664
37 *2791:A1 *2789:A1 0.000101615
38 *2792:A2 *2789:A1 0.000236164
39 *2792:A3 *2789:A1 0.00043264
40 *2797:A1 *2795:A1 6.74604e-05
41 *2797:A1 *574:14 1.38253e-05
42 *3042:D *2788:A1 0.000218972
43 *570:8 *2795:A1 0.000415026
44 *570:16 *2789:A1 5.12225e-05
45 *571:14 *574:34 0.00181665
46 *571:16 *574:34 0.000848133
47 *571:22 *2788:A1 0.000601613
48 *571:22 *574:34 0.000164908
49 *571:28 *2788:A1 0.000244076
*RES
1 *2783:ZN *574:12 16.56 
2 *574:12 *574:14 1.71 
3 *574:14 *2795:A1 8.73 
4 *574:14 *2800:A3 4.5 
5 *574:12 *574:34 12.15 
6 *574:34 *2788:A1 12.33 
7 *574:34 *2789:A1 23.67 
*END

*D_NET *575 0.00242959
*CONN
*I *2788:A2 I *D gf180mcu_fd_sc_mcu7t5v0__oai21_1
*I *2785:ZN O *D gf180mcu_fd_sc_mcu7t5v0__nand2_1
*CAP
1 *2788:A2 0.000291589
2 *2785:ZN 0.000291589
3 *2788:A2 *2776:A1 2.05323e-05
4 *2788:A2 *2776:A2 0.000651657
5 *2788:A2 *2785:A1 0.000108767
6 *2788:A2 *961:8 0.000507502
7 *2788:A1 *2788:A2 3.18551e-05
8 *3042:D *2788:A2 0.000526101
9 *570:16 *2788:A2 0
*RES
1 *2785:ZN *2788:A2 13.77 
*END

*D_NET *576 0.00732283
*CONN
*I *2787:A4 I *D gf180mcu_fd_sc_mcu7t5v0__or4_1
*I *2790:A3 I *D gf180mcu_fd_sc_mcu7t5v0__and3_1
*I *2794:A3 I *D gf180mcu_fd_sc_mcu7t5v0__and3_1
*I *2789:A2 I *D gf180mcu_fd_sc_mcu7t5v0__nand2_1
*I *2786:Z O *D gf180mcu_fd_sc_mcu7t5v0__and2_1
*CAP
1 *2787:A4 0.000382874
2 *2790:A3 0
3 *2794:A3 0.000712847
4 *2789:A2 0
5 *2786:Z 0.000155594
6 *576:34 0.000453104
7 *576:12 0.000761153
8 *576:6 0.000274129
9 *2787:A4 *2780:A1 5.0784e-05
10 *2787:A4 *2790:A1 0
11 *2787:A4 *2792:A1 0.000471962
12 *2787:A4 *2792:A4 2.73782e-05
13 *2787:A4 *722:41 5.912e-05
14 *2787:A4 *722:43 2.16578e-05
15 *2794:A3 *2794:A2 0.000103033
16 *2794:A3 *2795:A2 0.000214208
17 *2794:A3 *3189:I 0
18 *2794:A3 *579:10 0.000224708
19 *576:6 *2790:A1 2.31089e-05
20 *576:12 *2790:A1 0.000531209
21 *576:12 *579:10 6.85018e-05
22 *2781:A2 *2787:A4 3.97987e-05
23 *2782:A2 *576:6 4.05054e-05
24 *2782:A2 *576:34 5.22596e-06
25 *2785:A2 *2794:A3 0.00181997
26 *2785:A2 *576:12 0.000450714
27 *2789:A1 *2787:A4 5.15793e-05
28 *2790:A2 *2787:A4 9.85004e-05
29 *2792:A2 *2787:A4 2.14748e-05
30 *3096:I *2794:A3 0
31 *570:16 *2787:A4 0.000104278
32 *572:6 *2787:A4 0.00015541
*RES
1 *2786:Z *576:6 5.49 
2 *576:6 *576:12 6.48 
3 *576:12 *2789:A2 9 
4 *576:12 *2794:A3 17.1 
5 *576:6 *576:34 0.54 
6 *576:34 *2790:A3 4.5 
7 *576:34 *2787:A4 8.64 
*END

*D_NET *577 0.000911202
*CONN
*I *2788:B I *D gf180mcu_fd_sc_mcu7t5v0__oai21_1
*I *2787:Z O *D gf180mcu_fd_sc_mcu7t5v0__or4_1
*CAP
1 *2788:B 0.000221265
2 *2787:Z 0.000221265
3 *2788:B *2282:I 2.956e-05
4 *2788:B *2781:A1 4.59827e-06
5 *2788:B *2792:A1 1.0415e-05
6 *2788:B *722:39 0.000156612
7 *2788:B *962:31 0
8 *2777:A3 *2788:B 1.75747e-05
9 *2792:A2 *2788:B 0.000210639
10 *571:22 *2788:B 3.92735e-05
*RES
1 *2787:Z *2788:B 19.98 
*END

*D_NET *578 0.0016037
*CONN
*I *2791:A2 I *D gf180mcu_fd_sc_mcu7t5v0__aoi211_1
*I *2792:A4 I *D gf180mcu_fd_sc_mcu7t5v0__or4_1
*I *2789:ZN O *D gf180mcu_fd_sc_mcu7t5v0__nand2_1
*CAP
1 *2791:A2 0.000224628
2 *2792:A4 0.000229015
3 *2789:ZN 0.000453643
4 *2791:A2 *2793:A3 7.71821e-06
5 *2791:A2 *579:10 0.000208507
6 *2792:A4 *2790:A1 0.000119192
7 *2792:A4 *962:8 7.46816e-05
8 *2792:A4 *962:31 3.61243e-06
9 *2787:A4 *2792:A4 2.73782e-05
10 *2789:A1 *2792:A4 0.000105337
11 *2791:A1 *2792:A4 5.68787e-05
12 *2791:C *2791:A2 5.97457e-06
13 *2792:A3 *2792:A4 8.71354e-05
*RES
1 *2789:ZN *2792:A4 11.43 
2 *2789:ZN *2791:A2 10.62 
*END

*D_NET *579 0.00435304
*CONN
*I *2793:A3 I *D gf180mcu_fd_sc_mcu7t5v0__oai31_1
*I *2791:B I *D gf180mcu_fd_sc_mcu7t5v0__aoi211_1
*I *2790:Z O *D gf180mcu_fd_sc_mcu7t5v0__and3_1
*CAP
1 *2793:A3 0.000461568
2 *2791:B 0
3 *2790:Z 0.000217548
4 *579:10 0.000679116
5 *2793:A3 *3189:I 9.74367e-05
6 *579:10 *2790:A1 0.00032797
7 *2791:A2 *2793:A3 7.71821e-06
8 *2791:A2 *579:10 0.000208507
9 *2791:C *2793:A3 0.00160386
10 *2793:A2 *2793:A3 0.000152221
11 *2794:A3 *579:10 0.000224708
12 *3044:D *2793:A3 0.000303892
13 *3096:I *579:10 0
14 *576:12 *579:10 6.85018e-05
*RES
1 *2790:Z *579:10 16.47 
2 *579:10 *2791:B 4.5 
3 *579:10 *2793:A3 10.17 
*END

*D_NET *580 0.00135665
*CONN
*I *2793:B I *D gf180mcu_fd_sc_mcu7t5v0__oai31_1
*I *2792:Z O *D gf180mcu_fd_sc_mcu7t5v0__or4_1
*CAP
1 *2793:B 0.000271273
2 *2792:Z 0.000271273
3 *2793:B *2777:A2 0.00013302
4 *2793:B *3044:CLK 0
5 *2793:B *962:31 0.000681086
*RES
1 *2792:Z *2793:B 11.7 
*END

*D_NET *581 0.00527612
*CONN
*I *2796:A3 I *D gf180mcu_fd_sc_mcu7t5v0__and3_1
*I *2800:A4 I *D gf180mcu_fd_sc_mcu7t5v0__nand4_1
*I *2795:A2 I *D gf180mcu_fd_sc_mcu7t5v0__aoi21_1
*I *2794:Z O *D gf180mcu_fd_sc_mcu7t5v0__and3_1
*CAP
1 *2796:A3 0.000495732
2 *2800:A4 9.18614e-05
3 *2795:A2 0.000323041
4 *2794:Z 0
5 *581:15 0.000694571
6 *581:4 0.000430018
7 *2795:A2 *2795:B 5.55113e-05
8 *2796:A3 *2796:A1 0.000216889
9 *2796:A3 *2801:A1 9.74183e-05
10 *2796:A3 *2801:A2 0.000103976
11 *2796:A3 *3163:I 0.000353172
12 *2796:A3 *583:21 0.000126361
13 *2796:A3 *964:16 2.51621e-05
14 *2796:A3 *964:22 2.13441e-06
15 *2800:A4 *963:8 5.86206e-05
16 *581:15 *2794:A1 0.000149891
17 *581:15 *3163:I 0.000265559
18 *581:15 *964:22 6.40664e-06
19 *2778:A3 *2795:A2 0.000894266
20 *2783:A2 *2796:A3 3.85778e-05
21 *2783:A2 *2800:A4 0.000106536
22 *2794:A3 *2795:A2 0.000214208
23 *2795:A1 *2795:A2 7.55765e-06
24 *371:49 *2796:A3 0.0001563
25 *371:68 *2796:A3 0.00017832
26 *570:16 *581:15 0
27 *571:12 *2796:A3 6.55974e-05
28 *571:14 *2796:A3 1.91227e-05
29 *574:14 *2800:A4 9.93108e-05
*RES
1 *2794:Z *581:4 4.5 
2 *581:4 *2795:A2 8.19 
3 *581:4 *581:15 5.67 
4 *581:15 *2800:A4 9.99 
5 *581:15 *2796:A3 14.04 
*END

*D_NET *582 0.00127189
*CONN
*I *2797:A2 I *D gf180mcu_fd_sc_mcu7t5v0__nor3_1
*I *2795:ZN O *D gf180mcu_fd_sc_mcu7t5v0__aoi21_1
*CAP
1 *2797:A2 0.000472669
2 *2795:ZN 0.000472669
3 *2785:A2 *2797:A2 0
4 *2795:A1 *2797:A2 4.83522e-05
5 *3096:I *2797:A2 0.000278198
*RES
1 *2795:ZN *2797:A2 21.78 
*END

*D_NET *583 0.00417093
*CONN
*I *2799:A2 I *D gf180mcu_fd_sc_mcu7t5v0__aoi21_1
*I *2798:A2 I *D gf180mcu_fd_sc_mcu7t5v0__oai211_1
*I *2797:A3 I *D gf180mcu_fd_sc_mcu7t5v0__nor3_1
*I *2796:Z O *D gf180mcu_fd_sc_mcu7t5v0__and3_1
*CAP
1 *2799:A2 0.000115832
2 *2798:A2 4.03776e-05
3 *2797:A3 0.000524653
4 *2796:Z 0.000113695
5 *583:21 0.000311815
6 *583:8 0.000793952
7 *2797:A3 *2801:A2 0.000350179
8 *2798:A2 *2798:C 8.68281e-06
9 *2798:A2 *708:20 3.12451e-05
10 *2799:A2 *2798:C 1.86195e-05
11 *2799:A2 *2799:A1 1.07374e-05
12 *2799:A2 *2799:B 2.44244e-06
13 *2799:A2 *708:20 0.000154639
14 *583:8 *723:24 6.09211e-05
15 *583:21 *708:20 0.000158392
16 *583:21 *722:33 0
17 *583:21 *723:24 0.000241022
18 *2778:A2 *2797:A3 0.000433645
19 *2785:A2 *2797:A3 0.000168479
20 *2796:A3 *583:21 0.000126361
21 *2797:A1 *2797:A3 7.96333e-06
22 *3045:D *2797:A3 0.000160434
23 *3046:D *2799:A2 5.11701e-05
24 *3047:D *2797:A3 2.80742e-05
25 *371:49 *583:21 3.6338e-05
26 *371:68 *2797:A3 4.09377e-05
27 *371:68 *583:8 2.8107e-05
28 *571:12 *583:8 0.000152221
29 *571:88 *2797:A3 0
30 *571:88 *583:8 0
*RES
1 *2796:Z *583:8 5.58 
2 *583:8 *2797:A3 9.81 
3 *583:8 *583:21 10.89 
4 *583:21 *2798:A2 4.77 
5 *583:21 *2799:A2 5.67 
*END

*D_NET *584 0.000636917
*CONN
*I *2799:B I *D gf180mcu_fd_sc_mcu7t5v0__aoi21_1
*I *2798:ZN O *D gf180mcu_fd_sc_mcu7t5v0__oai211_1
*CAP
1 *2799:B 0.000158947
2 *2798:ZN 0.000158947
3 *2799:B *2799:A1 1.07374e-05
4 *2799:B *3156:I 0
5 *2799:B *722:22 5.97457e-06
6 *2799:A2 *2799:B 2.44244e-06
7 *3046:D *2799:B 0.000299868
*RES
1 *2798:ZN *2799:B 10.44 
*END

*D_NET *585 0.00109749
*CONN
*I *2801:A2 I *D gf180mcu_fd_sc_mcu7t5v0__xor2_1
*I *2800:ZN O *D gf180mcu_fd_sc_mcu7t5v0__nand4_1
*CAP
1 *2801:A2 0.000194418
2 *2800:ZN 0.000194418
3 *2801:A2 *964:16 0.000227863
4 *2796:A3 *2801:A2 0.000103976
5 *2797:A1 *2801:A2 2.03387e-06
6 *2797:A3 *2801:A2 0.000350179
7 *3047:D *2801:A2 2.02272e-05
8 *571:88 *2801:A2 4.37176e-06
*RES
1 *2800:ZN *2801:A2 20.34 
*END

*D_NET *586 0.000184652
*CONN
*I *2802:A2 I *D gf180mcu_fd_sc_mcu7t5v0__nor2_1
*I *2801:Z O *D gf180mcu_fd_sc_mcu7t5v0__xor2_1
*CAP
1 *2802:A2 9.23258e-05
2 *2801:Z 9.23258e-05
*RES
1 *2801:Z *2802:A2 9.63 
*END

*D_NET *587 0.00137867
*CONN
*I *2804:A2 I *D gf180mcu_fd_sc_mcu7t5v0__nand2_1
*I *2803:ZN O *D gf180mcu_fd_sc_mcu7t5v0__nor3_1
*CAP
1 *2804:A2 0.000188827
2 *2803:ZN 0.000188827
3 *2804:A2 *2804:A1 2.20289e-05
4 ACK_O *2804:A2 0.000497814
5 *2323:A3 *2804:A2 0.000137171
6 *252:16 *2804:A2 0.000344002
*RES
1 *2803:ZN *2804:A2 20.34 
*END

*D_NET *588 0.0104512
*CONN
*I *2806:A2 I *D gf180mcu_fd_sc_mcu7t5v0__and2_1
*I *2805:A2 I *D gf180mcu_fd_sc_mcu7t5v0__nand2_1
*I *2804:ZN O *D gf180mcu_fd_sc_mcu7t5v0__nand2_1
*CAP
1 *2806:A2 0
2 *2805:A2 0.000393263
3 *2804:ZN 0.00107571
4 *588:18 0.00146897
5 *2805:A2 *2872:A1 5.30888e-06
6 *2805:A2 *2872:A2 2.47815e-05
7 *2805:A2 *2872:B2 0
8 *2805:A2 *2874:A1 0.000768307
9 *2805:A2 *2882:A1 0.000158788
10 *2805:A2 *590:10 0.000223407
11 *588:18 *2320:A1 1.04031e-05
12 *588:18 *2848:A1 2.26729e-05
13 *588:18 *2874:A1 9.26498e-05
14 *588:18 *2885:A1 0
15 *588:18 *2889:A2 0.00189117
16 *588:18 *759:26 0.00135638
17 *588:18 *760:14 6.0283e-05
18 *588:18 *923:12 7.84312e-05
19 *588:18 *925:10 0
20 ACK_O *588:18 0.00131075
21 *2806:A1 *2805:A2 0.000154638
22 *3036:D *588:18 7.21705e-05
23 *3056:D *588:18 0.000336617
24 *3057:D *588:18 0.000567809
25 *3204:I *588:18 0.000359627
26 *249:27 *588:18 1.90868e-05
*RES
1 *2804:ZN *588:18 28.71 
2 *588:18 *2805:A2 17.73 
3 *588:18 *2806:A2 4.5 
*END

*D_NET *589 0.0107767
*CONN
*I *2874:A2 I *D gf180mcu_fd_sc_mcu7t5v0__nand2_1
*I *2856:A2 I *D gf180mcu_fd_sc_mcu7t5v0__aoi22_1
*I *2864:A2 I *D gf180mcu_fd_sc_mcu7t5v0__aoi22_1
*I *2848:A2 I *D gf180mcu_fd_sc_mcu7t5v0__aoi22_1
*I *2840:A2 I *D gf180mcu_fd_sc_mcu7t5v0__aoi22_1
*I *2832:A2 I *D gf180mcu_fd_sc_mcu7t5v0__aoi22_1
*I *2824:A2 I *D gf180mcu_fd_sc_mcu7t5v0__aoi22_1
*I *2872:A2 I *D gf180mcu_fd_sc_mcu7t5v0__aoi22_1
*I *2805:ZN O *D gf180mcu_fd_sc_mcu7t5v0__nand2_1
*CAP
1 *2874:A2 1.47339e-05
2 *2856:A2 0
3 *2864:A2 0.000497073
4 *2848:A2 4.17779e-05
5 *2840:A2 0
6 *2832:A2 0.000163329
7 *2824:A2 0.000177607
8 *2872:A2 0.000331721
9 *2805:ZN 0
10 *589:73 0.000662659
11 *589:35 0.000460163
12 *589:33 0.000298446
13 *589:25 0.000340013
14 *589:23 0.000568703
15 *589:19 0.000656057
16 *589:4 0.000688942
17 *2824:A2 *2824:A1 1.61174e-05
18 *2824:A2 *2824:B1 8.12023e-06
19 *2824:A2 *756:344 9.72712e-05
20 *2832:A2 *2832:A1 6.98229e-05
21 *2832:A2 *2840:A1 0
22 *2832:A2 *3177:I 2.30131e-05
23 *2848:A2 *2849:A2 0
24 *2848:A2 *756:344 0.000103691
25 *2864:A2 *590:41 0.000680074
26 *2864:A2 *590:49 9.71874e-05
27 *2864:A2 *689:12 1.56862e-05
28 *2864:A2 *705:76 7.55765e-06
29 *2864:A2 *705:82 0
30 *2864:A2 *759:36 0.000106536
31 *2864:A2 *759:40 0.000107581
32 *2872:A2 *2856:A1 0.000102859
33 *2872:A2 *2882:A1 6.32975e-05
34 *2874:A2 *2848:A1 5.51279e-05
35 *589:19 *2856:A1 0.000132514
36 *589:19 *2874:A1 6.9357e-05
37 *589:19 *2882:A1 0.000701383
38 *589:23 *2848:A1 0.000296469
39 *589:23 *2856:A1 0
40 *589:25 *2848:A1 0.000948545
41 *589:25 *2848:B1 9.04462e-05
42 *589:25 *2856:A1 0
43 *589:25 *3177:I 5.78854e-06
44 *589:25 *590:49 0.000735465
45 *589:25 *756:344 1.84368e-05
46 *589:33 *3177:I 0.000187524
47 *589:33 *756:344 9.85571e-05
48 *589:35 *2824:B1 3.8157e-05
49 *589:35 *3177:I 9.85004e-05
50 *589:35 *590:66 3.1667e-05
51 *589:35 *756:344 0.000133728
52 *589:73 *590:49 0.00023184
53 *589:73 *705:82 0
54 *589:73 *782:14 0
55 DAT_O[6] *2872:A2 0.000161479
56 *2805:A2 *2872:A2 2.47815e-05
57 *3049:D *2824:A2 7.72112e-05
58 *3049:D *2832:A2 0.00023968
59 *3052:D *2864:A2 0
*RES
1 *2805:ZN *589:4 4.5 
2 *589:4 *2872:A2 7.11 
3 *589:4 *589:19 3.42 
4 *589:19 *589:23 2.34 
5 *589:23 *589:25 2.88 
6 *589:25 *589:33 1.89 
7 *589:33 *589:35 1.35 
8 *589:35 *2824:A2 5.85 
9 *589:35 *2832:A2 14.94 
10 *589:33 *2840:A2 4.5 
11 *589:25 *2848:A2 5.13 
12 *589:23 *589:73 6.03 
13 *589:73 *2864:A2 12.96 
14 *589:73 *2856:A2 9 
15 *589:19 *2874:A2 4.86 
*END

*D_NET *590 0.0137
*CONN
*I *2864:B1 I *D gf180mcu_fd_sc_mcu7t5v0__aoi22_1
*I *2856:B1 I *D gf180mcu_fd_sc_mcu7t5v0__aoi22_1
*I *2840:B1 I *D gf180mcu_fd_sc_mcu7t5v0__aoi22_1
*I *2824:B1 I *D gf180mcu_fd_sc_mcu7t5v0__aoi22_1
*I *2832:B1 I *D gf180mcu_fd_sc_mcu7t5v0__aoi22_1
*I *2848:B1 I *D gf180mcu_fd_sc_mcu7t5v0__aoi22_1
*I *2872:B1 I *D gf180mcu_fd_sc_mcu7t5v0__aoi22_1
*I *2881:B I *D gf180mcu_fd_sc_mcu7t5v0__oai21_1
*I *2806:Z O *D gf180mcu_fd_sc_mcu7t5v0__and2_1
*CAP
1 *2864:B1 0
2 *2856:B1 0
3 *2840:B1 0
4 *2824:B1 8.78564e-05
5 *2832:B1 0.000250044
6 *2848:B1 2.7164e-05
7 *2872:B1 0
8 *2881:B 0.000709688
9 *2806:Z 0.000118314
10 *590:66 0.000487089
11 *590:64 0.000354679
12 *590:49 0.00063717
13 *590:41 0.000767223
14 *590:35 0.000496257
15 *590:10 0.000694453
16 *2824:B1 *2833:A2 0.000415045
17 *2832:B1 *2833:A2 5.9733e-05
18 *2832:B1 *2856:B2 4.8038e-05
19 *2848:B1 *3177:I 1.97376e-05
20 *2881:B *2298:I 0.000739854
21 *2881:B *2856:A1 1.68605e-05
22 *2881:B *2873:A2 0.000256697
23 *2881:B *2882:B 5.75428e-06
24 *2881:B *705:8 0.000109215
25 *2881:B *759:36 0.00108669
26 *590:10 *2856:A1 2.52908e-05
27 *590:10 *2872:A1 2.37695e-05
28 *590:10 *2872:B2 4.34597e-05
29 *590:35 *2864:A1 0.000127736
30 *590:35 *2881:A1 0.000124885
31 *590:35 *705:8 0.000567809
32 *590:35 *759:36 0.000118548
33 *590:41 *2864:A1 1.61174e-05
34 *590:41 *2864:B2 0.000606388
35 *590:41 *2881:A1 5.30751e-05
36 *590:41 *689:12 3.42994e-05
37 *590:41 *756:313 0.000164219
38 *590:41 *759:36 3.85185e-05
39 *590:41 *759:40 0.000499457
40 *590:41 *782:14 0
41 *590:49 *3177:I 0.000173031
42 *590:49 *782:14 4.76885e-05
43 *590:64 *2841:A2 0.000223398
44 *590:64 *2856:B2 0
45 *590:64 *3177:I 2.79678e-05
46 *590:64 *3234:I 0.000448058
47 *590:64 *756:332 0
48 *590:66 *2841:A2 3.55118e-05
49 *590:66 *2856:B2 0
50 *590:66 *3177:I 5.53212e-05
51 *2805:A2 *590:10 0.000223407
52 *2824:A2 *2824:B1 8.12023e-06
53 *2864:A2 *590:41 0.000680074
54 *2864:A2 *590:49 9.71874e-05
55 *3049:D *2824:B1 0.000283714
56 *3050:D *590:64 0.00043778
57 *3052:D *590:41 0
58 *589:25 *2848:B1 9.04462e-05
59 *589:25 *590:49 0.000735465
60 *589:35 *2824:B1 3.8157e-05
61 *589:35 *590:66 3.1667e-05
62 *589:73 *590:49 0.00023184
*RES
1 *2806:Z *590:10 10.26 
2 *590:10 *2881:B 15.48 
3 *590:10 *2872:B1 9 
4 *2881:B *590:35 6.93 
5 *590:35 *590:41 9 
6 *590:41 *590:49 8.91 
7 *590:49 *2848:B1 4.77 
8 *590:49 *590:64 11.34 
9 *590:64 *590:66 1.17 
10 *590:66 *2832:B1 6.12 
11 *590:66 *2824:B1 6.03 
12 *590:64 *2840:B1 4.5 
13 *590:41 *2856:B1 9 
14 *590:35 *2864:B1 4.5 
*END

*D_NET *591 0.0122827
*CONN
*I *2809:A2 I *D gf180mcu_fd_sc_mcu7t5v0__nor3_1
*I *2810:A2 I *D gf180mcu_fd_sc_mcu7t5v0__nor3_1
*I *2807:Z O *D gf180mcu_fd_sc_mcu7t5v0__or4_1
*CAP
1 *2809:A2 0.000338871
2 *2810:A2 0
3 *2807:Z 0.0015884
4 *591:30 0.00192727
5 *2809:A2 *2809:A3 0.000627511
6 *2809:A2 *2815:A3 0.000106536
7 *2809:A2 *2871:A1 0.000240538
8 *2809:A2 *2871:A2 2.57443e-05
9 *2809:A2 *3233:I 0.000779738
10 *2809:A2 *3234:I 4.44209e-05
11 *591:30 *2591:A1 0.000196989
12 *591:30 *2807:A4 8.52804e-05
13 *591:30 *2871:A1 4.6613e-06
14 *591:30 *2892:A2 0.000542787
15 *591:30 *2906:A1 1.7022e-05
16 *591:30 *2906:A2 0.000394806
17 *591:30 *2908:A2 0.000215654
18 *591:30 *2911:A1 0.00100783
19 *591:30 *2913:A2 7.39052e-05
20 *591:30 *3058:CLK 0.000190246
21 *591:30 *3060:CLK 0
22 *591:30 *3132:I 0.000223401
23 *591:30 *664:10 0.000408204
24 *591:30 *665:55 0.000735528
25 *591:30 *701:18 0.000151008
26 *591:30 *701:70 0.000451654
27 *591:30 *701:100 2.08301e-05
28 *591:30 *755:29 0.000113789
29 *591:30 *756:364 0.000312109
30 *2810:A1 *2809:A2 0.000200128
31 *2810:A1 *591:30 2.36914e-05
32 *2813:A1 *2809:A2 1.70328e-05
33 *2813:A1 *591:30 0.000746138
34 *3061:D *591:30 0.000302471
35 *3063:D *591:30 0.00015785
36 *247:24 *591:30 0
37 *282:23 *2809:A2 1.06178e-05
*RES
1 *2807:Z *591:30 32.13 
2 *591:30 *2810:A2 4.5 
3 *591:30 *2809:A2 9.72 
*END

*D_NET *592 0.0130222
*CONN
*I *2809:A3 I *D gf180mcu_fd_sc_mcu7t5v0__nor3_1
*I *2810:A3 I *D gf180mcu_fd_sc_mcu7t5v0__nor3_1
*I *2808:ZN O *D gf180mcu_fd_sc_mcu7t5v0__nand2_1
*CAP
1 *2809:A3 0.000290249
2 *2810:A3 0.00150833
3 *2808:ZN 0.00121808
4 *2809:A3 *2815:A3 3.97987e-05
5 *2809:A3 *599:16 2.16868e-05
6 *2810:A3 *2871:A2 0.000144873
7 *2810:A3 *595:14 0.00601957
8 *2810:A3 *597:22 9.37375e-05
9 *2810:A3 *605:20 0.000489335
10 *2810:A3 *743:47 0.000404736
11 *2810:A3 *756:401 6.62751e-05
12 *2810:A3 *758:16 0.00111882
13 *2809:A1 *2809:A3 0
14 *2809:A2 *2809:A3 0.000627511
15 *2810:A1 *2810:A3 0.000144873
16 *2813:A1 *2809:A3 0.000700445
17 *247:37 *2810:A3 0.000127858
18 *282:23 *2809:A3 5.97457e-06
*RES
1 *2808:ZN *2810:A3 45.18 
2 *2810:A3 *2809:A3 13.05 
*END

*D_NET *593 0.00515145
*CONN
*I *3234:I I *D gf180mcu_fd_sc_mcu7t5v0__clkbuf_3
*I *2809:ZN O *D gf180mcu_fd_sc_mcu7t5v0__nor3_1
*CAP
1 *3234:I 0.00129887
2 *2809:ZN 0.00129887
3 *3234:I *2832:A1 0.000327505
4 *3234:I *2840:A1 7.42874e-05
5 *3234:I *2848:B2 0.000380315
6 *3234:I *2872:B2 0.000179138
7 *3234:I *3217:I 0
8 *3234:I *3233:I 0.00037349
9 *3234:I *782:14 0.000179252
10 *2809:A2 *3234:I 4.44209e-05
11 *3048:D *3234:I 0.00016594
12 *3050:D *3234:I 0.00035537
13 *282:23 *3234:I 2.59366e-05
14 *590:64 *3234:I 0.000448058
*RES
1 *2809:ZN *3234:I 30.15 
*END

*D_NET *594 0.00262274
*CONN
*I *3233:I I *D gf180mcu_fd_sc_mcu7t5v0__clkbuf_3
*I *2810:ZN O *D gf180mcu_fd_sc_mcu7t5v0__nor3_1
*CAP
1 *3233:I 0.000424301
2 *2810:ZN 0.000424301
3 *3233:I *2279:I 0.000302466
4 *3233:I *2871:A1 2.36813e-05
5 *3233:I *2871:A2 0.00024216
6 *3233:I *3217:I 0
7 *3233:I *755:12 4.18632e-05
8 *2809:A2 *3233:I 0.000779738
9 *2810:A1 *3233:I 1.07374e-05
10 *3234:I *3233:I 0.00037349
11 *282:23 *3233:I 0
*RES
1 *2810:ZN *3233:I 14.04 
*END

*D_NET *595 0.0296503
*CONN
*I *2813:A2 I *D gf180mcu_fd_sc_mcu7t5v0__nor2_1
*I *2815:A3 I *D gf180mcu_fd_sc_mcu7t5v0__nor3_1
*I *2812:I I *D gf180mcu_fd_sc_mcu7t5v0__clkinv_1
*I *2816:A2 I *D gf180mcu_fd_sc_mcu7t5v0__nor2_1
*I *2817:A2 I *D gf180mcu_fd_sc_mcu7t5v0__nor2_1
*I *2811:Z O *D gf180mcu_fd_sc_mcu7t5v0__or3_1
*CAP
1 *2813:A2 0
2 *2815:A3 0.000110843
3 *2812:I 0.0018127
4 *2816:A2 0
5 *2817:A2 0.000285962
6 *2811:Z 0.00183892
7 *595:45 0.0018859
8 *595:28 0.000803281
9 *595:20 0.00102583
10 *595:14 0.00230978
11 *2812:I *2883:A3 8.65553e-07
12 *2812:I *2884:A3 5.06884e-06
13 *2812:I *599:16 0.00822215
14 *2812:I *702:66 0.00114005
15 *2815:A3 *2815:A2 1.09982e-05
16 *2815:A3 *2872:B2 2.38819e-06
17 *2817:A2 *2830:A1 0.0002499
18 *2817:A2 *2871:A2 1.91657e-05
19 *2817:A2 *702:66 0.000139498
20 *2817:A2 *743:62 0
21 *595:14 *2871:A1 0.000291188
22 *595:14 *597:22 7.95083e-05
23 *595:14 *752:26 0.000432716
24 *595:14 *756:364 0
25 *595:14 *758:16 0.000139274
26 *595:20 *2871:A1 0.000383821
27 *595:20 *2872:B2 0.000308773
28 *595:28 *2815:A1 1.80546e-05
29 *595:28 *2815:A2 0.000129883
30 *595:28 *2872:B2 1.44365e-05
31 *595:28 *702:66 7.19502e-05
32 *595:28 *758:16 0
33 *595:45 *702:66 0.000113888
34 *2321:A2 *2812:I 1.75376e-05
35 *2809:A2 *2815:A3 0.000106536
36 *2809:A3 *2815:A3 3.97987e-05
37 *2810:A3 *595:14 0.00601957
38 *2816:A1 *595:28 7.95083e-05
39 *2821:A3 *595:28 1.66379e-06
40 *3063:D *595:14 0
41 *247:37 *595:14 0.000299402
42 *247:37 *595:20 0.000339608
43 *247:54 *595:20 0.000137849
44 *247:80 *2812:I 0
45 *264:12 *595:28 0.000538614
46 *264:25 *2817:A2 0.000223398
*RES
1 *2811:Z *595:14 36.9 
2 *595:14 *595:20 13.41 
3 *595:20 *595:28 7.92321 
4 *595:28 *2817:A2 15.8432 
5 *595:28 *595:45 0.716786 
6 *595:45 *2816:A2 13.5 
7 *595:45 *2812:I 36 
8 *595:20 *2815:A3 9.81 
9 *595:14 *2813:A2 9 
*END

*D_NET *596 0.00524954
*CONN
*I *2884:A3 I *D gf180mcu_fd_sc_mcu7t5v0__oai31_1
*I *2883:A3 I *D gf180mcu_fd_sc_mcu7t5v0__nor3_1
*I *2812:ZN O *D gf180mcu_fd_sc_mcu7t5v0__clkinv_1
*CAP
1 *2884:A3 4.58174e-05
2 *2883:A3 0.000289819
3 *2812:ZN 6.42179e-05
4 *596:8 0.000399855
5 *2883:A3 *2884:A1 0.00240813
6 *2883:A3 *3146:I 0.00139526
7 *2883:A3 *926:16 0.000152247
8 *2884:A3 *2872:A1 0
9 *2884:A3 *2884:A1 0.000247389
10 *2321:A2 *2883:A3 0
11 *2321:A2 *2884:A3 0
12 *2812:I *2883:A3 8.65553e-07
13 *2812:I *2884:A3 5.06884e-06
14 *2884:B *596:8 1.34588e-05
15 *252:30 *596:8 4.01779e-06
16 *502:84 *2883:A3 0
17 *502:84 *596:8 0.000223398
*RES
1 *2812:ZN *596:8 9.63 
2 *596:8 *2883:A3 15.39 
3 *596:8 *2884:A3 9.63 
*END

*D_NET *597 0.0474809
*CONN
*I *2878:B1 I *D gf180mcu_fd_sc_mcu7t5v0__aoi222_1
*I *2842:B1 I *D gf180mcu_fd_sc_mcu7t5v0__aoi222_1
*I *2814:B1 I *D gf180mcu_fd_sc_mcu7t5v0__aoi222_1
*I *2827:C2 I *D gf180mcu_fd_sc_mcu7t5v0__aoi222_1
*I *2851:A2 I *D gf180mcu_fd_sc_mcu7t5v0__aoi222_1
*I *2866:A2 I *D gf180mcu_fd_sc_mcu7t5v0__aoi222_1
*I *2859:A2 I *D gf180mcu_fd_sc_mcu7t5v0__aoi222_1
*I *2835:A2 I *D gf180mcu_fd_sc_mcu7t5v0__aoi222_1
*I *2813:ZN O *D gf180mcu_fd_sc_mcu7t5v0__nor2_1
*CAP
1 *2878:B1 0.000245936
2 *2842:B1 0.000142078
3 *2814:B1 0
4 *2827:C2 0
5 *2851:A2 0
6 *2866:A2 0
7 *2859:A2 0.000138178
8 *2835:A2 0.000185367
9 *2813:ZN 0.00411001
10 *597:65 0.000269953
11 *597:59 0.000469594
12 *597:51 0.000849207
13 *597:38 0.00130928
14 *597:32 0.000987811
15 *597:26 0.000761858
16 *597:22 0.00460044
17 *2835:A2 *2835:A1 0.00122666
18 *2835:A2 *2835:B2 6.68386e-05
19 *2835:A2 *2879:C2 1.71254e-05
20 *2835:A2 *3178:I 0.000115853
21 *2835:A2 *600:66 5.96002e-05
22 *2835:A2 *694:102 2.00937e-05
23 *2842:B1 *2842:C2 8.68528e-06
24 *2859:A2 *2851:A1 0.000140012
25 *2859:A2 *2859:B2 0.000974119
26 *2859:A2 *709:95 0.00037349
27 *2878:B1 *630:24 0.000868072
28 *2878:B1 *782:14 0.000145212
29 *2878:B1 *782:72 0.000730905
30 *597:22 *2838:B2 0.00528312
31 *597:22 *2871:A1 4.31073e-05
32 *597:22 *3089:I 5.15339e-07
33 *597:22 *605:20 1.27146e-05
34 *597:22 *743:47 0.000100235
35 *597:22 *750:60 0
36 *597:22 *756:364 8.5875e-05
37 *597:26 *3089:I 0.000462529
38 *597:26 *689:24 0.00663714
39 *597:26 *782:18 1.40526e-05
40 *597:26 *783:24 0.00640381
41 *597:32 *2479:A1 4.73125e-06
42 *597:32 *2814:A1 0
43 *597:32 *2814:A2 9.63532e-06
44 *597:32 *2814:C1 0.000360299
45 *597:32 *2819:A1 0.000142047
46 *597:32 *2836:A1 1.19375e-06
47 *597:32 *689:24 0.000846477
48 *597:32 *782:18 4.66941e-05
49 *597:32 *782:20 3.54228e-06
50 *597:32 *782:50 0.000241825
51 *597:32 *957:8 2.31089e-05
52 *597:38 *2814:B2 0.000176678
53 *597:38 *2819:A1 0.00042308
54 *597:38 *2819:A2 0.000215362
55 *597:38 *2835:A1 0.000926932
56 *597:38 *3038:CLK 4.55978e-05
57 *597:38 *3178:I 2.84883e-05
58 *597:38 *781:14 0
59 *597:51 *2827:A1 0.000246409
60 *597:51 *2828:A1 0
61 *597:51 *894:8 0.000103065
62 *597:59 *2827:C1 9.04462e-05
63 *597:59 *2828:A1 0
64 *597:59 *2828:A2 0.000423642
65 *597:59 *2835:C1 0.00108345
66 *597:59 *3165:I 0.00027661
67 *597:59 *600:26 1.38506e-05
68 *597:59 *601:29 0.000248928
69 *597:59 *601:41 0.00100544
70 *597:59 *631:16 0.000704368
71 *597:59 *894:8 6.16286e-05
72 *597:65 *2424:A1 3.22122e-05
73 *597:65 *2851:A1 0.000189195
74 *597:65 *2859:B2 7.26205e-05
75 *597:65 *631:16 4.83522e-05
76 *2353:A2 *2878:B1 0.0004548
77 *2768:A1 *597:38 0.000182206
78 *2810:A3 *597:22 9.37375e-05
79 *2813:A1 *597:22 8.49143e-05
80 *3038:D *597:38 0.000127736
81 *244:186 *2878:B1 0.000447082
82 *503:36 *2842:B1 5.55444e-05
83 *595:14 *597:22 7.95083e-05
*RES
1 *2813:ZN *597:22 43.3691 
2 *597:22 *597:26 22.23 
3 *597:26 *597:32 8.82 
4 *597:32 *597:38 11.7 
5 *597:38 *2835:A2 12.51 
6 *597:38 *597:51 8.19 
7 *597:51 *597:59 17.1 
8 *597:59 *597:65 1.53 
9 *597:65 *2859:A2 7.38 
10 *597:65 *2866:A2 4.5 
11 *597:59 *2851:A2 4.5 
12 *597:51 *2827:C2 4.5 
13 *597:32 *2814:B1 4.5 
14 *597:26 *2842:B1 9.81 
15 *597:22 *2878:B1 17.91 
*END

*D_NET *598 0.00106352
*CONN
*I *2819:A1 I *D gf180mcu_fd_sc_mcu7t5v0__and2_1
*I *2814:ZN O *D gf180mcu_fd_sc_mcu7t5v0__aoi222_1
*CAP
1 *2819:A1 0.000152538
2 *2814:ZN 0.000152538
3 *2819:A1 *2814:A2 2.38983e-05
4 *2819:A1 *2814:B2 0.000169416
5 *2819:A1 *957:8 0
6 *597:32 *2819:A1 0.000142047
7 *597:38 *2819:A1 0.00042308
*RES
1 *2814:ZN *2819:A1 11.16 
*END

*D_NET *599 0.0600077
*CONN
*I *2858:B1 I *D gf180mcu_fd_sc_mcu7t5v0__aoi222_1
*I *2834:B1 I *D gf180mcu_fd_sc_mcu7t5v0__aoi222_1
*I *2827:A2 I *D gf180mcu_fd_sc_mcu7t5v0__aoi222_1
*I *2879:A2 I *D gf180mcu_fd_sc_mcu7t5v0__aoi222_1
*I *2818:A2 I *D gf180mcu_fd_sc_mcu7t5v0__aoi222_1
*I *2843:A2 I *D gf180mcu_fd_sc_mcu7t5v0__aoi222_1
*I *2867:B1 I *D gf180mcu_fd_sc_mcu7t5v0__aoi222_1
*I *2850:B1 I *D gf180mcu_fd_sc_mcu7t5v0__aoi222_1
*I *2815:ZN O *D gf180mcu_fd_sc_mcu7t5v0__nor3_1
*CAP
1 *2858:B1 0.000206189
2 *2834:B1 8.10027e-05
3 *2827:A2 0.000886823
4 *2879:A2 3.44897e-05
5 *2818:A2 0
6 *2843:A2 2.78068e-05
7 *2867:B1 0.000372713
8 *2850:B1 0
9 *2815:ZN 0.00501232
10 *599:82 0.00103122
11 *599:60 0.000221968
12 *599:54 0.00308574
13 *599:44 0.00436593
14 *599:38 0.00184564
15 *599:22 0.000686695
16 *599:18 0.000825013
17 *599:16 0.00538715
18 *2827:A2 *2439:A2 0
19 *2827:A2 *2827:A1 0.000270509
20 *2827:A2 *2827:B2 9.91257e-05
21 *2827:A2 *2828:A2 0.000169515
22 *2827:A2 *2879:B2 0.000471492
23 *2827:A2 *601:16 1.23715e-05
24 *2827:A2 *694:29 0
25 *2827:A2 *712:68 0.000369196
26 *2827:A2 *892:8 8.40821e-05
27 *2834:B1 *2302:I 1.06822e-05
28 *2834:B1 *2834:C1 3.55118e-05
29 *2834:B1 *2836:A1 6.91924e-05
30 *2834:B1 *944:8 9.06729e-06
31 *2843:A2 *2843:B1 0.000674404
32 *2843:A2 *2843:C1 0.000536348
33 *2843:A2 *600:77 0.000341304
34 *2843:A2 *601:96 0.000515801
35 *2858:B1 *2860:A1 0.00127265
36 *2858:B1 *645:22 0.000865844
37 *2867:B1 *2867:A2 8.78944e-05
38 *2867:B1 *2867:C1 0.00050936
39 *2867:B1 *782:121 0.000813828
40 *2879:A2 *712:68 0
41 *599:16 *2815:A1 0.000108618
42 *599:16 *743:68 0.000109884
43 *599:16 *758:44 0
44 *599:18 *706:12 1.18076e-06
45 *599:18 *784:135 0.000242359
46 *599:18 *784:158 0.000157224
47 *599:22 *2471:A1 0.000101995
48 *599:22 *2850:B2 9.27022e-05
49 *599:22 *782:79 0.000150113
50 *599:22 *782:117 2.00709e-05
51 *599:22 *782:121 3.55118e-05
52 *599:38 *784:135 0.00146937
53 *599:38 *917:19 0.000607138
54 *599:44 *2675:A1 8.16315e-05
55 *599:44 *2834:A2 2.00195e-05
56 *599:44 *2834:B2 3.16214e-05
57 *599:44 *2834:C2 5.48655e-05
58 *599:44 *3033:CLK 0
59 *599:44 *3144:I 0.000175989
60 *599:44 *704:10 0
61 *599:44 *784:116 0.000757521
62 *599:44 *784:135 0.00117993
63 *599:44 *917:19 0.000744726
64 *599:44 *917:23 0.000445488
65 *599:44 *917:36 2.63437e-05
66 *599:44 *920:32 0.000310052
67 *599:44 *920:45 0.000379793
68 *599:54 *2302:I 8.67249e-05
69 *599:54 *2834:A2 2.82325e-05
70 *599:54 *2834:B2 9.4836e-05
71 *599:54 *2834:C2 6.1686e-05
72 *599:54 *2844:A2 0.0004921
73 *599:54 *3089:I 0.000144394
74 *599:54 *689:24 0.000235032
75 *599:60 *2844:A2 0.000176053
76 *599:60 *3089:I 0.000132171
77 *599:60 *600:77 0.00136215
78 *599:60 *601:96 0.0012631
79 *599:60 *689:24 0.000150701
80 *599:82 *2879:B2 3.22348e-05
81 *599:82 *600:73 0
82 *599:82 *656:14 0.000221335
83 *599:82 *712:68 0.000181818
84 *2319:A1 *599:16 0
85 *2321:A2 *599:18 0.00212396
86 *2322:A2 *2867:B1 0.000328934
87 *2471:B *2867:B1 9.7676e-05
88 *2472:B *2858:B1 0.000815819
89 *2675:A4 *599:44 0.0014453
90 *2747:A3 *599:44 0.000518371
91 *2809:A3 *599:16 2.16868e-05
92 *2812:I *599:16 0.00822215
93 *2813:A1 *599:16 9.30128e-05
94 *2816:A1 *599:16 2.33295e-05
95 *244:370 *2827:A2 0
96 *253:16 *599:18 0.00184431
97 *264:12 *599:16 4.84315e-05
98 *372:86 *2834:B1 7.65946e-06
99 *502:56 *599:44 9.65086e-05
100 *502:67 *599:18 0.000653848
101 *502:67 *599:38 0.000359608
102 *502:84 *599:18 5.14837e-05
*RES
1 *2815:ZN *599:16 42.21 
2 *599:16 *599:18 8.19 
3 *599:18 *599:22 6.93 
4 *599:22 *2850:B1 4.5 
5 *599:22 *2867:B1 9.63 
6 *599:18 *599:38 4.14 
7 *599:38 *599:44 17.91 
8 *599:44 *599:54 25.11 
9 *599:54 *599:60 5.31 
10 *599:60 *2843:A2 11.61 
11 *599:60 *2818:A2 9 
12 *599:54 *599:82 5.94 
13 *599:82 *2879:A2 4.77 
14 *599:82 *2827:A2 12.69 
15 *599:44 *2834:B1 9.63 
16 *599:38 *2858:B1 14.13 
*END

*D_NET *600 0.0423161
*CONN
*I *2826:B1 I *D gf180mcu_fd_sc_mcu7t5v0__aoi222_1
*I *2818:B1 I *D gf180mcu_fd_sc_mcu7t5v0__aoi222_1
*I *2843:B1 I *D gf180mcu_fd_sc_mcu7t5v0__aoi222_1
*I *2879:B1 I *D gf180mcu_fd_sc_mcu7t5v0__aoi222_1
*I *2835:B1 I *D gf180mcu_fd_sc_mcu7t5v0__aoi222_1
*I *2851:B1 I *D gf180mcu_fd_sc_mcu7t5v0__aoi222_1
*I *2866:B1 I *D gf180mcu_fd_sc_mcu7t5v0__aoi222_1
*I *2859:B1 I *D gf180mcu_fd_sc_mcu7t5v0__aoi222_1
*I *2816:ZN O *D gf180mcu_fd_sc_mcu7t5v0__nor2_1
*CAP
1 *2826:B1 0.000511812
2 *2818:B1 5.82543e-05
3 *2843:B1 8.11484e-05
4 *2879:B1 0
5 *2835:B1 0
6 *2851:B1 4.99483e-05
7 *2866:B1 0
8 *2859:B1 7.40866e-05
9 *2816:ZN 0.00212464
10 *600:77 0.00019657
11 *600:73 0.000747324
12 *600:66 0.000611676
13 *600:51 0.000723636
14 *600:30 0.00014236
15 *600:26 0.000616951
16 *600:20 0.000973774
17 *600:16 0.00230938
18 *2818:B1 *2818:C2 2.89427e-06
19 *2818:B1 *2866:A1 0.000150744
20 *2826:B1 *2479:A1 9.85004e-05
21 *2826:B1 *2826:A2 2.89427e-06
22 *2826:B1 *2826:C2 3.8796e-05
23 *2826:B1 *2834:A2 1.4382e-06
24 *2826:B1 *2836:A1 0.000102187
25 *2826:B1 *656:14 1.03102e-05
26 *2826:B1 *689:24 0.00041227
27 *2826:B1 *779:24 2.63437e-05
28 *2826:B1 *779:30 5.72134e-05
29 *2826:B1 *943:10 4.4391e-05
30 *2843:B1 *2843:A1 5.06031e-06
31 *2843:B1 *2843:B2 1.0415e-05
32 *2843:B1 *2843:C1 0.00011855
33 *2843:B1 *689:24 0.000958234
34 *2851:B1 *2851:C1 9.81583e-05
35 *2851:B1 *2859:B2 0.000278763
36 *2859:B1 *2851:C1 0.000974119
37 *2859:B1 *2859:B2 0.000258536
38 *2859:B1 *2866:B2 0.000365454
39 *600:16 *2442:A1 0.00150664
40 *600:16 *2830:A1 5.45123e-06
41 *600:16 *2831:C 0.000302271
42 *600:16 *2862:A1 0.000732808
43 *600:16 *2862:B2 0.000454753
44 *600:16 *2864:B2 0
45 *600:16 *2868:A1 0.00457364
46 *600:16 *2870:C 0.000802191
47 *600:16 *3087:CLK 0.000180463
48 *600:16 *3094:I 0.00503776
49 *600:16 *3116:I 0.000101574
50 *600:16 *3173:I 0
51 *600:16 *601:16 4.03095e-05
52 *600:16 *693:29 0.00157181
53 *600:16 *694:254 0.000181045
54 *600:16 *702:10 0
55 *600:16 *702:66 1.79158e-05
56 *600:16 *715:17 0.000185705
57 *600:16 *749:39 0.000211103
58 *600:20 *2442:A1 1.08206e-05
59 *600:20 *2879:C2 0.00021249
60 *600:26 *2868:A1 2.3956e-05
61 *600:26 *3094:I 0
62 *600:26 *3169:I 0
63 *600:26 *601:41 6.77185e-05
64 *600:26 *631:16 0.00104674
65 *600:30 *2851:C1 0.00020664
66 *600:30 *2859:B2 9.45383e-05
67 *600:51 *2433:A2 0.00090699
68 *600:51 *2835:C1 0.00140712
69 *600:51 *2879:C2 1.15478e-05
70 *600:51 *601:85 6.16286e-05
71 *600:51 *694:29 0
72 *600:51 *779:95 0.000139375
73 *600:66 *2835:B2 0.000198746
74 *600:66 *2836:A2 0.000255034
75 *600:66 *2879:B2 8.8553e-05
76 *600:66 *2879:C2 0.000470702
77 *600:66 *601:85 0.00039097
78 *600:66 *601:96 3.55118e-05
79 *600:66 *712:72 2.48332e-05
80 *600:66 *779:95 0.000288054
81 *600:73 *2879:B2 5.97457e-06
82 *600:73 *601:96 0.000458956
83 *600:73 *656:14 2.28718e-05
84 *600:73 *779:30 1.86452e-05
85 *600:77 *3089:I 0.000154432
86 *600:77 *689:24 0.00169832
87 *2412:B *2843:B1 2.98728e-05
88 *2433:B *600:51 1.66859e-06
89 *2478:B *2826:B1 0.00168615
90 *2816:A1 *600:16 0.000100657
91 *2830:A2 *600:16 8.67164e-05
92 *2835:A2 *600:66 5.96002e-05
93 *2843:A2 *2843:B1 0.000674404
94 *2843:A2 *600:77 0.000341304
95 *2942:D *600:26 0.000137697
96 *244:339 *600:20 2.41275e-05
97 *244:339 *600:51 1.60354e-05
98 *244:370 *600:66 0.000182866
99 *267:17 *600:16 0.000155555
100 *597:59 *600:26 1.38506e-05
101 *599:60 *600:77 0.00136215
102 *599:82 *600:73 0
*RES
1 *2816:ZN *600:16 45.99 
2 *600:16 *600:20 6.03 
3 *600:20 *600:26 12.87 
4 *600:26 *600:30 0.9 
5 *600:30 *2859:B1 7.11 
6 *600:30 *2866:B1 4.5 
7 *600:26 *2851:B1 5.31 
8 *600:20 *600:51 4.59 
9 *600:51 *2835:B1 4.5 
10 *600:51 *600:66 14.67 
11 *600:66 *2879:B1 4.5 
12 *600:66 *600:73 1.71 
13 *600:73 *600:77 8.91 
14 *600:77 *2843:B1 11.88 
15 *600:77 *2818:B1 9.45 
16 *600:73 *2826:B1 19.89 
*END

*D_NET *601 0.0384244
*CONN
*I *2818:C1 I *D gf180mcu_fd_sc_mcu7t5v0__aoi222_1
*I *2843:C1 I *D gf180mcu_fd_sc_mcu7t5v0__aoi222_1
*I *2879:C1 I *D gf180mcu_fd_sc_mcu7t5v0__aoi222_1
*I *2835:C2 I *D gf180mcu_fd_sc_mcu7t5v0__aoi222_1
*I *2851:C2 I *D gf180mcu_fd_sc_mcu7t5v0__aoi222_1
*I *2866:C2 I *D gf180mcu_fd_sc_mcu7t5v0__aoi222_1
*I *2859:C2 I *D gf180mcu_fd_sc_mcu7t5v0__aoi222_1
*I *2827:B1 I *D gf180mcu_fd_sc_mcu7t5v0__aoi222_1
*I *2817:ZN O *D gf180mcu_fd_sc_mcu7t5v0__nor2_1
*CAP
1 *2818:C1 0
2 *2843:C1 3.60752e-05
3 *2879:C1 0
4 *2835:C2 0
5 *2851:C2 6.55837e-05
6 *2866:C2 0
7 *2859:C2 0.000190557
8 *2827:B1 0
9 *2817:ZN 0.00282825
10 *601:96 0.000217075
11 *601:85 0.000666626
12 *601:66 0.000556223
13 *601:43 0.000287188
14 *601:41 0.000411045
15 *601:29 0.000506316
16 *601:16 0.00301514
17 *2843:C1 *689:24 6.79679e-05
18 *2851:C2 *2843:C2 2.36813e-05
19 *2851:C2 *2851:C1 1.39839e-05
20 *2859:C2 *2843:C2 0.00033694
21 *2859:C2 *2851:C1 0.000198568
22 *601:16 *2399:A1 1.23607e-05
23 *601:16 *2442:A1 1.5526e-05
24 *601:16 *2827:C1 3.99498e-05
25 *601:16 *2828:A2 1.0415e-05
26 *601:16 *2830:A1 4.66822e-05
27 *601:16 *2835:C1 0
28 *601:16 *2860:A2 0.0081223
29 *601:16 *2870:C 7.1341e-06
30 *601:16 *2871:A2 0.00104258
31 *601:16 *3087:CLK 7.15742e-05
32 *601:16 *3094:I 0.000278927
33 *601:16 *3116:I 0.000265377
34 *601:16 *687:10 0.000546269
35 *601:16 *693:29 0.000149475
36 *601:16 *694:254 0.000301832
37 *601:16 *702:10 0.000234965
38 *601:16 *702:14 0.000390817
39 *601:16 *715:17 6.71617e-05
40 *601:16 *726:10 0.000162129
41 *601:16 *781:37 1.67927e-05
42 *601:16 *781:162 0.000113189
43 *601:16 *894:8 0.000162624
44 *601:16 *895:6 1.56652e-05
45 *601:29 *2827:A1 0.000427492
46 *601:29 *2827:B2 9.84908e-05
47 *601:29 *2828:A2 8.30798e-05
48 *601:29 *3165:I 0.000653857
49 *601:29 *694:13 1.95146e-06
50 *601:29 *894:8 6.34901e-05
51 *601:41 *2835:C1 0.000150744
52 *601:41 *2851:B2 0.000747296
53 *601:41 *2859:B2 0.00043778
54 *601:41 *2866:C1 0
55 *601:41 *2879:C2 0.000158798
56 *601:41 *3165:I 0.000409038
57 *601:43 *2843:C2 0.000237716
58 *601:43 *2851:C1 0.000146089
59 *601:66 *2835:C1 0.00115519
60 *601:66 *2879:C2 0.00112772
61 *601:85 *2418:A1 6.33076e-05
62 *601:85 *2418:A2 0.000259658
63 *601:85 *2819:A2 0.000307548
64 *601:85 *2835:C1 3.01487e-05
65 *601:85 *2836:A2 2.70125e-05
66 *601:85 *2879:C2 0.000450218
67 *601:85 *2940:CLK 0
68 *601:85 *779:84 2.26729e-05
69 *601:85 *779:95 9.88969e-05
70 *601:96 *2844:A2 7.58265e-05
71 *601:96 *3089:I 0.000126411
72 *601:96 *694:102 6.00846e-05
73 *601:96 *779:30 0.000458746
74 *601:96 *779:36 0.000166798
75 *2400:A2 *601:16 9.04539e-05
76 *2419:A1 *2843:C1 0.00103626
77 *2419:A1 *601:96 0.00085661
78 *2419:A2 *601:85 6.68593e-05
79 *2434:A1 *601:41 3.25976e-05
80 *2440:A2 *601:29 0.000155194
81 *2827:A2 *601:16 1.23715e-05
82 *2843:A2 *2843:C1 0.000536348
83 *2843:A2 *601:96 0.000515801
84 *2843:B1 *2843:C1 0.00011855
85 *2870:A2 *601:16 0.000156902
86 *2935:D *601:85 0.000602925
87 *2937:D *2851:C2 0
88 *3081:D *601:16 0.000456392
89 *3087:D *601:16 8.96771e-05
90 *244:345 *601:29 0.000272679
91 *244:376 *601:85 9.96406e-06
92 *283:64 *601:16 0.000301253
93 *597:59 *601:29 0.000248928
94 *597:59 *601:41 0.00100544
95 *599:60 *601:96 0.0012631
96 *600:16 *601:16 4.03095e-05
97 *600:26 *601:41 6.77185e-05
98 *600:51 *601:85 6.16286e-05
99 *600:66 *601:85 0.00039097
100 *600:66 *601:96 3.55118e-05
101 *600:73 *601:96 0.000458956
*RES
1 *2817:ZN *601:16 49.32 
2 *601:16 *2827:B1 4.5 
3 *601:16 *601:29 13.68 
4 *601:29 *601:41 14.22 
5 *601:41 *601:43 1.53 
6 *601:43 *2859:C2 6.75 
7 *601:43 *2866:C2 4.5 
8 *601:41 *2851:C2 5.04 
9 *601:29 *601:66 3.15 
10 *601:66 *2835:C2 4.5 
11 *601:66 *601:85 15.75 
12 *601:85 *2879:C1 4.5 
13 *601:85 *601:96 10.44 
14 *601:96 *2843:C1 11.61 
15 *601:96 *2818:C1 9 
*END

*D_NET *602 0.00411367
*CONN
*I *2819:A2 I *D gf180mcu_fd_sc_mcu7t5v0__and2_1
*I *2818:ZN O *D gf180mcu_fd_sc_mcu7t5v0__aoi222_1
*CAP
1 *2819:A2 0.00128826
2 *2818:ZN 0.00128826
3 *2819:A2 *2823:A2 1.62696e-05
4 *2819:A2 *2836:A2 0.00035109
5 *2819:A2 *2839:A2 8.78491e-05
6 *2819:A2 *2844:A2 0.000215026
7 *2819:A2 *2866:A1 0
8 *2819:A2 *2879:A1 0.00023579
9 *2819:A2 *779:84 0
10 *2419:A1 *2819:A2 8.51138e-05
11 *2935:D *2819:A2 2.31089e-05
12 *244:376 *2819:A2 0
13 *597:38 *2819:A2 0.000215362
14 *601:85 *2819:A2 0.000307548
*RES
1 *2818:ZN *2819:A2 29.43 
*END

*D_NET *603 0.0144326
*CONN
*I *2823:A2 I *D gf180mcu_fd_sc_mcu7t5v0__oai211_1
*I *2819:Z O *D gf180mcu_fd_sc_mcu7t5v0__and2_1
*CAP
1 *2823:A2 0.000526188
2 *2819:Z 0.000526188
3 *2823:A2 *2814:C2 7.29462e-05
4 *2823:A2 *2837:B2 0.000543506
5 *2823:A2 *2839:A2 0.00678245
6 *2823:A2 *2847:A2 0.0054215
7 *2823:A2 *750:60 0.000543506
8 *2819:A2 *2823:A2 1.62696e-05
*RES
1 *2819:Z *2823:A2 37.35 
*END

*D_NET *604 0.00165788
*CONN
*I *2823:B I *D gf180mcu_fd_sc_mcu7t5v0__oai211_1
*I *2820:ZN O *D gf180mcu_fd_sc_mcu7t5v0__aoi22_1
*CAP
1 *2823:B 0.000106558
2 *2820:ZN 0.000106558
3 *2823:B *2823:C 0.000488731
4 *2823:B *2837:B2 8.53098e-05
5 *2823:B *2854:C 0.00027566
6 *2854:A2 *2823:B 9.19699e-05
7 *248:25 *2823:B 0.000322986
8 *283:33 *2823:B 0.000180104
*RES
1 *2820:ZN *2823:B 20.52 
*END

*D_NET *605 0.02535
*CONN
*I *2869:B1 I *D gf180mcu_fd_sc_mcu7t5v0__aoi22_1
*I *2829:B1 I *D gf180mcu_fd_sc_mcu7t5v0__aoi22_1
*I *2891:A2 I *D gf180mcu_fd_sc_mcu7t5v0__nand2_1
*I *2876:B1 I *D gf180mcu_fd_sc_mcu7t5v0__aoi22_1
*I *2838:B1 I *D gf180mcu_fd_sc_mcu7t5v0__aoi22_1
*I *2846:B1 I *D gf180mcu_fd_sc_mcu7t5v0__aoi22_1
*I *2853:B1 I *D gf180mcu_fd_sc_mcu7t5v0__aoi22_1
*I *2862:B1 I *D gf180mcu_fd_sc_mcu7t5v0__aoi22_1
*I *2822:B1 I *D gf180mcu_fd_sc_mcu7t5v0__aoi22_1
*I *2890:A2 I *D gf180mcu_fd_sc_mcu7t5v0__and2_1
*I *2821:ZN O *D gf180mcu_fd_sc_mcu7t5v0__nor3_1
*CAP
1 *2869:B1 0.000117482
2 *2829:B1 0.000112597
3 *2891:A2 4.65035e-05
4 *2876:B1 0.00012606
5 *2838:B1 0.000589632
6 *2846:B1 2.0344e-05
7 *2853:B1 0.000222534
8 *2862:B1 0
9 *2822:B1 0.000156883
10 *2890:A2 1.21023e-05
11 *2821:ZN 0.000342073
12 *605:81 0.000588284
13 *605:75 0.00171045
14 *605:62 0.00125108
15 *605:47 0.000933016
16 *605:45 0.000521551
17 *605:43 0.000337916
18 *605:41 0.000337123
19 *605:39 0.000530171
20 *605:20 0.00073872
21 *2822:B1 *2823:C 0.00037349
22 *2822:B1 *2837:A1 0
23 *2829:B1 *3062:CLK 4.1025e-05
24 *2838:B1 *2823:A1 0
25 *2838:B1 *2837:B2 0
26 *2838:B1 *2838:B2 0.000315987
27 *2838:B1 *2839:A1 0.000487345
28 *2838:B1 *2839:A2 0.000345298
29 *2838:B1 *2839:B 0.000255621
30 *2838:B1 *2855:A2 4.6977e-05
31 *2838:B1 *3171:I 0.000312194
32 *2838:B1 *630:24 0.000148843
33 *2846:B1 *2846:B2 6.02974e-05
34 *2853:B1 *2846:B2 0.000753003
35 *2853:B1 *2853:B2 0.000517393
36 *2869:B1 *3062:CLK 0.000394397
37 *2876:B1 *2877:A2 0.000299797
38 *2876:B1 *749:39 5.93397e-05
39 *2890:A2 *2908:A2 9.30128e-05
40 *2890:A2 *701:12 9.30128e-05
41 *2891:A2 *2845:A1 0.000150744
42 *2891:A2 *2881:A1 3.12451e-05
43 *605:20 *2871:A1 1.98078e-06
44 *605:20 *2908:A2 0.0002765
45 *605:20 *2908:A3 2.93938e-05
46 *605:20 *701:12 0.000189706
47 *605:20 *701:100 0.000142139
48 *605:20 *743:47 7.64396e-05
49 *605:20 *743:62 9.71118e-05
50 *605:20 *756:364 5.85613e-05
51 *605:20 *758:25 0.000106536
52 *605:39 *2871:A1 0.00024463
53 *605:39 *3062:CLK 7.58976e-05
54 *605:39 *701:8 4.79105e-05
55 *605:39 *701:100 6.81379e-06
56 *605:39 *850:27 0.00034604
57 *605:41 *850:27 0.000184918
58 *605:43 *2881:A1 0.000174506
59 *605:43 *850:27 0.000218155
60 *605:45 *2881:A1 0.000164219
61 *605:62 *2823:C 0.000223924
62 *605:62 *2837:A1 0.000195639
63 *605:62 *2862:B2 0.000116341
64 *605:75 *2823:C 0.000232483
65 *605:75 *2837:A1 0.000260877
66 *605:75 *2839:B 0.000428316
67 *605:75 *2863:C 0.00042308
68 *605:75 *630:24 3.98824e-05
69 *605:81 *2824:B2 0.00184443
70 *2316:A2 *605:39 0.000210579
71 *2316:A2 *605:41 0.000209297
72 *2316:A2 *605:43 0.000274529
73 *2325:A1 *605:47 0.000127778
74 *2354:A1 *2838:B1 4.53628e-05
75 *2810:A3 *605:20 0.000489335
76 *2813:A1 *605:20 0.000106536
77 *2822:A2 *2822:B1 2.14748e-05
78 *2837:A2 *605:75 9.84908e-05
79 *2846:A2 *2846:B1 3.12451e-05
80 *2846:A2 *2853:B1 0.000296162
81 *2862:A2 *605:62 1.07374e-05
82 *2862:A2 *605:75 0.000105898
83 *2876:A2 *605:43 3.98038e-05
84 *2876:A2 *605:45 3.46602e-05
85 *2876:A2 *605:47 1.54257e-05
86 *2890:A1 *605:43 0.000229756
87 *3063:D *605:20 7.44879e-06
88 *245:12 *605:39 0.000244121
89 *245:12 *605:43 2.35003e-05
90 *247:37 *605:20 0.000902918
91 *247:54 *605:20 0.000144351
92 *248:10 *2853:B1 2.86926e-05
93 *248:12 *605:81 0.00017749
94 *248:66 *2822:B1 0.00023968
95 *248:66 *605:47 0.000568134
96 *250:18 *2838:B1 1.93892e-05
97 *253:30 *605:45 0.000160708
98 *253:30 *605:47 0.000214337
99 *265:29 *2829:B1 0.000415026
100 *265:29 *2869:B1 4.68448e-05
101 *283:14 *605:81 0.000117627
102 *597:22 *605:20 1.27146e-05
*RES
1 *2821:ZN *605:20 27.36 
2 *605:20 *2890:A2 4.77 
3 *605:20 *605:39 17.01 
4 *605:39 *605:41 0.63 
5 *605:41 *605:43 2.61 
6 *605:43 *605:45 1.35 
7 *605:45 *605:47 3.15 
8 *605:47 *2822:B1 10.8 
9 *605:47 *605:62 8.55 
10 *605:62 *2862:B1 4.5 
11 *605:62 *605:75 7.2 
12 *605:75 *605:81 13.95 
13 *605:81 *2853:B1 16.92 
14 *605:81 *2846:B1 4.77 
15 *605:75 *2838:B1 19.53 
16 *605:45 *2876:B1 10.26 
17 *605:43 *2891:A2 9.45 
18 *605:41 *2829:B1 10.17 
19 *605:39 *2869:B1 10.17 
*END

*D_NET *606 0.00652796
*CONN
*I *2823:C I *D gf180mcu_fd_sc_mcu7t5v0__oai211_1
*I *2822:ZN O *D gf180mcu_fd_sc_mcu7t5v0__aoi22_1
*CAP
1 *2823:C 0.000862222
2 *2822:ZN 0.000862222
3 *2823:C *2824:B2 3.22122e-05
4 *2823:C *2839:B 0.000107322
5 *2823:C *2854:C 6.34901e-05
6 *2823:C *2863:B 0.00167978
7 *2823:C *2868:B 3.38355e-05
8 *2823:C *750:60 3.43635e-05
9 *2823:C *759:78 2.24475e-05
10 *2822:A2 *2823:C 0.000183652
11 *2822:B1 *2823:C 0.00037349
12 *2823:B *2823:C 0.000488731
13 *2837:A2 *2823:C 2.14748e-05
14 *2862:A2 *2823:C 0.00076134
15 *265:47 *2823:C 0.000544971
16 *605:62 *2823:C 0.000223924
17 *605:75 *2823:C 0.000232483
*RES
1 *2822:ZN *2823:C 21.15 
*END

*D_NET *607 0.006358
*CONN
*I *2824:B2 I *D gf180mcu_fd_sc_mcu7t5v0__aoi22_1
*I *2823:ZN O *D gf180mcu_fd_sc_mcu7t5v0__oai211_1
*CAP
1 *2824:B2 0.000699798
2 *2823:ZN 0.000699798
3 *2824:B2 *2839:B 9.84908e-05
4 *2824:B2 *2855:A2 0.00262301
5 *2824:B2 *3077:CLK 0.000225845
6 *2823:C *2824:B2 3.22122e-05
7 *248:12 *2824:B2 1.41416e-05
8 *248:25 *2824:B2 6.84426e-06
9 *283:14 *2824:B2 0.00011342
10 *605:81 *2824:B2 0.00184443
*RES
1 *2823:ZN *2824:B2 27.18 
*END

*D_NET *608 0.0012199
*CONN
*I *2825:A2 I *D gf180mcu_fd_sc_mcu7t5v0__nor2_1
*I *2824:ZN O *D gf180mcu_fd_sc_mcu7t5v0__aoi22_1
*CAP
1 *2825:A2 0.000346672
2 *2824:ZN 0.000346672
3 *2825:A2 *2364:A2 5.98937e-05
4 *2825:A2 *2824:A1 0.000164053
5 *2825:A2 *756:344 5.88182e-05
6 *2825:A2 *756:348 7.47548e-06
7 *2319:A1 *2825:A2 0.000174981
8 *3049:D *2825:A2 3.15508e-05
9 *283:14 *2825:A2 2.97809e-05
*RES
1 *2824:ZN *2825:A2 11.88 
*END

*D_NET *609 0.00404429
*CONN
*I *2828:A1 I *D gf180mcu_fd_sc_mcu7t5v0__and2_1
*I *2826:ZN O *D gf180mcu_fd_sc_mcu7t5v0__aoi222_1
*CAP
1 *2828:A1 0.00147523
2 *2826:ZN 0.00147523
3 *2828:A1 *2814:B2 0
4 *2828:A1 *2826:A2 0.00034797
5 *2828:A1 *2827:A1 0
6 *2828:A1 *2834:A2 0.00034797
7 *2828:A1 *2835:A1 7.89866e-05
8 *2828:A1 *2836:A1 0.000255541
9 *2828:A1 *2879:A1 0
10 *2828:A1 *3178:I 6.33547e-05
11 *597:51 *2828:A1 0
12 *597:59 *2828:A1 0
*RES
1 *2826:ZN *2828:A1 19.35 
*END

*D_NET *610 0.00153227
*CONN
*I *2828:A2 I *D gf180mcu_fd_sc_mcu7t5v0__and2_1
*I *2827:ZN O *D gf180mcu_fd_sc_mcu7t5v0__aoi222_1
*CAP
1 *2828:A2 0.000257838
2 *2827:ZN 0.000257838
3 *2828:A2 *2827:A1 1.06795e-05
4 *2828:A2 *2827:B2 0.000100699
5 *2828:A2 *3166:I 5.55468e-05
6 *2828:A2 *631:16 0.000163016
7 *2827:A2 *2828:A2 0.000169515
8 *597:59 *2828:A2 0.000423642
9 *601:16 *2828:A2 1.0415e-05
10 *601:29 *2828:A2 8.30798e-05
*RES
1 *2827:ZN *2828:A2 21.24 
*END

*D_NET *611 0.0120519
*CONN
*I *2831:A2 I *D gf180mcu_fd_sc_mcu7t5v0__oai211_1
*I *2828:Z O *D gf180mcu_fd_sc_mcu7t5v0__and2_1
*CAP
1 *2831:A2 0.00196431
2 *2828:Z 0.00196431
3 *2831:A2 *2771:A1 0.00157273
4 *2831:A2 *2863:A2 0.000441931
5 *2831:A2 *2864:B2 0.000298637
6 *2831:A2 *3079:CLK 0.000364897
7 *2831:A2 *631:16 0.00050695
8 *2831:A2 *694:13 6.7729e-05
9 *2831:A2 *694:167 0.000114143
10 *2831:A2 *721:22 2.63343e-05
11 *2831:A2 *723:78 0.000185715
12 *2343:A2 *2831:A2 1.06861e-05
13 *2350:A2 *2831:A2 0.000205859
14 *2351:A2 *2831:A2 0.000110698
15 *2377:A1 *2831:A2 0.00192431
16 *2664:A1 *2831:A2 0.000375166
17 *2769:A1 *2831:A2 1.07354e-05
18 *2769:A2 *2831:A2 0.000208109
19 *2770:A1 *2831:A2 1.3026e-05
20 *214:24 *2831:A2 0.00015651
21 *265:37 *2831:A2 9.17834e-05
22 *265:39 *2831:A2 4.70564e-05
23 *265:41 *2831:A2 0.000410201
24 *265:47 *2831:A2 0.000101406
25 *266:27 *2831:A2 0.000471687
26 *266:35 *2831:A2 0.000354312
27 *267:6 *2831:A2 3.55625e-06
28 *268:45 *2831:A2 2.55518e-05
29 *562:10 *2831:A2 2.35868e-05
*RES
1 *2828:Z *2831:A2 42.66 
*END

*D_NET *612 0.00506846
*CONN
*I *2831:B I *D gf180mcu_fd_sc_mcu7t5v0__oai211_1
*I *2829:ZN O *D gf180mcu_fd_sc_mcu7t5v0__aoi22_1
*CAP
1 *2831:B 0.00088596
2 *2829:ZN 0.00088596
3 *2831:B *2853:B2 0
4 *2831:B *2871:A2 0.00122844
5 *2831:B *751:45 0
6 *2890:A1 *2831:B 0.000122318
7 *3081:D *2831:B 0.00190522
8 *253:30 *2831:B 4.05659e-05
*RES
1 *2829:ZN *2831:B 35.64 
*END

*D_NET *613 0.00253785
*CONN
*I *2831:C I *D gf180mcu_fd_sc_mcu7t5v0__oai211_1
*I *2830:ZN O *D gf180mcu_fd_sc_mcu7t5v0__aoi22_1
*CAP
1 *2831:C 0.000598766
2 *2830:ZN 0.000598766
3 *2831:C *2831:A1 1.56779e-05
4 *2831:C *2845:A1 0.00088563
5 *2831:C *2864:B2 0.000111777
6 *2831:C *3173:I 0
7 *2350:A2 *2831:C 1.91603e-05
8 *3075:D *2831:C 0
9 *265:102 *2831:C 0
10 *266:14 *2831:C 5.79792e-06
11 *600:16 *2831:C 0.000302271
*RES
1 *2830:ZN *2831:C 23.4 
*END

*D_NET *614 0.00385145
*CONN
*I *2832:B2 I *D gf180mcu_fd_sc_mcu7t5v0__aoi22_1
*I *2831:ZN O *D gf180mcu_fd_sc_mcu7t5v0__oai211_1
*CAP
1 *2832:B2 0.00123503
2 *2831:ZN 0.00123503
3 *2832:B2 *2364:A1 9.30289e-05
4 *2832:B2 *2364:A2 2.36813e-05
5 *2832:B2 *2368:I1 5.12586e-05
6 *2832:B2 *2833:A2 3.29477e-05
7 *2832:B2 *2853:A1 0.000119777
8 *2832:B2 *2853:B2 0
9 *2832:B2 *2855:A1 0.000101884
10 *2832:B2 *2856:B2 0.000294431
11 *2832:B2 *2864:B2 7.191e-07
12 *2832:B2 *3173:I 0
13 *2829:A2 *2832:B2 0
14 *265:37 *2832:B2 0.000118725
15 *265:102 *2832:B2 4.78358e-05
16 *282:10 *2832:B2 0.000491318
17 *283:14 *2832:B2 5.77941e-06
*RES
1 *2831:ZN *2832:B2 27.27 
*END

*D_NET *615 0.00149423
*CONN
*I *2833:A2 I *D gf180mcu_fd_sc_mcu7t5v0__nor2_1
*I *2832:ZN O *D gf180mcu_fd_sc_mcu7t5v0__aoi22_1
*CAP
1 *2833:A2 0.000364074
2 *2832:ZN 0.000364074
3 *2833:A2 *2856:B2 0
4 *2824:B1 *2833:A2 0.000415045
5 *2832:B1 *2833:A2 5.9733e-05
6 *2832:B2 *2833:A2 3.29477e-05
7 *3049:D *2833:A2 0.000247943
8 *283:14 *2833:A2 1.0415e-05
*RES
1 *2832:ZN *2833:A2 12.42 
*END

*D_NET *616 0.00773455
*CONN
*I *2836:A1 I *D gf180mcu_fd_sc_mcu7t5v0__and2_1
*I *2834:ZN O *D gf180mcu_fd_sc_mcu7t5v0__aoi222_1
*CAP
1 *2836:A1 0.00120489
2 *2834:ZN 0.00120489
3 *2836:A1 *2479:A1 0.000543219
4 *2836:A1 *2814:A1 0.000633677
5 *2836:A1 *2814:B2 2.20694e-05
6 *2836:A1 *2826:A2 0.000216103
7 *2836:A1 *2826:C1 8.49143e-05
8 *2836:A1 *2826:C2 1.32193e-05
9 *2836:A1 *2834:C1 0.0008362
10 *2836:A1 *2842:C2 0
11 *2836:A1 *689:24 0.00037097
12 *2836:A1 *779:142 0.00136859
13 *2836:A1 *782:50 4.90892e-05
14 *2836:A1 *944:8 0.000575844
15 *2826:B1 *2836:A1 0.000102187
16 *2828:A1 *2836:A1 0.000255541
17 *2834:B1 *2836:A1 6.91924e-05
18 *295:166 *2836:A1 0.000182754
19 *597:32 *2836:A1 1.19375e-06
*RES
1 *2834:ZN *2836:A1 33.57 
*END

*D_NET *617 0.0030648
*CONN
*I *2836:A2 I *D gf180mcu_fd_sc_mcu7t5v0__and2_1
*I *2835:ZN O *D gf180mcu_fd_sc_mcu7t5v0__aoi222_1
*CAP
1 *2836:A2 0.000774934
2 *2835:ZN 0.000774934
3 *2836:A2 *2418:A1 4.34691e-05
4 *2836:A2 *2879:C2 0.000726432
5 *2836:A2 *3038:CLK 0
6 *2836:A2 *694:102 3.88138e-05
7 *2836:A2 *712:72 0
8 *2819:A2 *2836:A2 0.00035109
9 *244:370 *2836:A2 7.30854e-05
10 *600:66 *2836:A2 0.000255034
11 *601:85 *2836:A2 2.70125e-05
*RES
1 *2835:ZN *2836:A2 25.92 
*END

*D_NET *618 0.0140154
*CONN
*I *2839:A2 I *D gf180mcu_fd_sc_mcu7t5v0__oai211_1
*I *2836:Z O *D gf180mcu_fd_sc_mcu7t5v0__and2_1
*CAP
1 *2839:A2 0.00121446
2 *2836:Z 0.00121446
3 *2839:A2 *2814:C2 0
4 *2839:A2 *2820:A1 0.00170602
5 *2839:A2 *2823:A1 0.000466036
6 *2839:A2 *2837:B2 3.21801e-05
7 *2839:A2 *2844:A2 0
8 *2839:A2 *2847:A2 0.000252906
9 *2839:A2 *716:10 0.00143503
10 *2839:A2 *750:60 0
11 *2381:A2 *2839:A2 6.08232e-05
12 *2382:B2 *2839:A2 0.000196197
13 *2819:A2 *2839:A2 8.78491e-05
14 *2823:A2 *2839:A2 0.00678245
15 *2838:B1 *2839:A2 0.000345298
16 *250:18 *2839:A2 0.000209401
17 *286:10 *2839:A2 0
18 *372:24 *2839:A2 1.22629e-05
*RES
1 *2836:Z *2839:A2 39.42 
*END

*D_NET *619 0.00275579
*CONN
*I *2839:B I *D gf180mcu_fd_sc_mcu7t5v0__oai211_1
*I *2837:ZN O *D gf180mcu_fd_sc_mcu7t5v0__aoi22_1
*CAP
1 *2839:B 0.000437932
2 *2837:ZN 0.000437932
3 *2839:B *2839:A1 0.000487345
4 *2839:B *3171:I 0.000284927
5 *2839:B *630:24 0.000182391
6 *2823:C *2839:B 0.000107322
7 *2824:B2 *2839:B 9.84908e-05
8 *2837:A2 *2839:B 3.55118e-05
9 *2838:B1 *2839:B 0.000255621
10 *605:75 *2839:B 0.000428316
*RES
1 *2837:ZN *2839:B 14.13 
*END

*D_NET *620 0.000278456
*CONN
*I *2839:C I *D gf180mcu_fd_sc_mcu7t5v0__oai211_1
*I *2838:ZN O *D gf180mcu_fd_sc_mcu7t5v0__aoi22_1
*CAP
1 *2839:C 0.000139228
2 *2838:ZN 0.000139228
*RES
1 *2838:ZN *2839:C 18.81 
*END

*D_NET *621 0.00387979
*CONN
*I *2840:B2 I *D gf180mcu_fd_sc_mcu7t5v0__aoi22_1
*I *2839:ZN O *D gf180mcu_fd_sc_mcu7t5v0__oai211_1
*CAP
1 *2840:B2 0.000857447
2 *2839:ZN 0.000857447
3 *2840:B2 *2841:A2 8.79199e-05
4 *2840:B2 *2846:A1 0.00081628
5 *2840:B2 *2847:A2 0.000189214
6 *2840:B2 *2848:B2 2.03939e-05
7 *2840:B2 *3177:I 0.000214596
8 *2840:B2 *3186:I 0.000229402
9 *2840:B2 *630:24 9.85004e-05
10 *2840:B2 *688:12 8.76817e-06
11 *2840:B2 *751:45 4.21855e-05
12 *2840:B2 *759:42 1.56256e-05
13 *2840:B2 *783:16 0
14 *2356:A2 *2840:B2 6.51057e-05
15 *2357:A1 *2840:B2 0.000281393
16 *2357:A2 *2840:B2 5.06884e-06
17 *2838:A2 *2840:B2 9.04462e-05
18 *3077:D *2840:B2 0
19 *251:30 *2840:B2 0
20 *284:16 *2840:B2 0
*RES
1 *2839:ZN *2840:B2 25.74 
*END

*D_NET *622 0.00231126
*CONN
*I *2841:A2 I *D gf180mcu_fd_sc_mcu7t5v0__nor2_1
*I *2840:ZN O *D gf180mcu_fd_sc_mcu7t5v0__aoi22_1
*CAP
1 *2841:A2 0.000336307
2 *2840:ZN 0.000336307
3 *2841:A2 *2848:B2 0.00105222
4 *2841:A2 *2864:B2 9.04462e-05
5 *2841:A2 *3177:I 0.000100557
6 *2841:A2 *759:40 1.84368e-05
7 *2840:B2 *2841:A2 8.79199e-05
8 *3050:D *2841:A2 3.01487e-05
9 *590:64 *2841:A2 0.000223398
10 *590:66 *2841:A2 3.55118e-05
*RES
1 *2840:ZN *2841:A2 21.87 
*END

*D_NET *623 0.000598076
*CONN
*I *2844:A1 I *D gf180mcu_fd_sc_mcu7t5v0__and2_1
*I *2842:ZN O *D gf180mcu_fd_sc_mcu7t5v0__aoi222_1
*CAP
1 *2844:A1 6.14998e-05
2 *2842:ZN 6.14998e-05
3 *2844:A1 *2844:A2 0.000111278
4 *502:18 *2844:A1 1.11328e-05
5 *503:36 *2844:A1 0.000352666
*RES
1 *2842:ZN *2844:A1 9.99 
*END

*D_NET *624 0.00628743
*CONN
*I *2844:A2 I *D gf180mcu_fd_sc_mcu7t5v0__and2_1
*I *2843:ZN O *D gf180mcu_fd_sc_mcu7t5v0__aoi222_1
*CAP
1 *2844:A2 0.0014405
2 *2843:ZN 0.0014405
3 *2844:A2 *2814:C2 0.000536121
4 *2844:A2 *2818:C2 3.38767e-05
5 *2844:A2 *2834:A2 1.36965e-05
6 *2844:A2 *2842:B2 6.58629e-05
7 *2844:A2 *2842:C1 0.000149697
8 *2844:A2 *2843:B2 1.26219e-05
9 *2844:A2 *2879:A1 0.000103983
10 *2844:A2 *3089:I 0.000231751
11 *2844:A2 *3179:I 0.000178167
12 *2844:A2 *779:30 0.00016319
13 *2844:A2 *779:36 7.67323e-05
14 *2844:A2 *783:28 0.000143153
15 *2844:A2 *783:30 4.10145e-05
16 *2419:A1 *2844:A2 0.000474995
17 *2819:A2 *2844:A2 0.000215026
18 *2839:A2 *2844:A2 0
19 *2844:A1 *2844:A2 0.000111278
20 *502:18 *2844:A2 0.000111278
21 *599:54 *2844:A2 0.0004921
22 *599:60 *2844:A2 0.000176053
23 *601:96 *2844:A2 7.58265e-05
*RES
1 *2843:ZN *2844:A2 34.11 
*END

*D_NET *625 0.0117411
*CONN
*I *2847:A2 I *D gf180mcu_fd_sc_mcu7t5v0__oai211_1
*I *2844:Z O *D gf180mcu_fd_sc_mcu7t5v0__and2_1
*CAP
1 *2847:A2 0.00178729
2 *2844:Z 0.00178729
3 *2847:A2 *2352:A1 0.000387282
4 *2847:A2 *2495:A1 6.06084e-05
5 *2847:A2 *2814:C2 7.16243e-05
6 *2847:A2 *2823:A1 1.45293e-05
7 *2847:A2 *2842:B2 9.30289e-05
8 *2847:A2 *2847:B 1.56779e-05
9 *2847:A2 *2881:A1 0.000130672
10 *2847:A2 *3077:CLK 0
11 *2847:A2 *3186:I 0.000347676
12 *2847:A2 *688:14 0
13 *2847:A2 *759:42 0.000351852
14 *2847:A2 *759:44 8.50456e-05
15 *2847:A2 *784:16 4.32092e-05
16 *2348:A2 *2847:A2 0
17 *2354:A1 *2847:A2 4.24734e-05
18 *2357:A1 *2847:A2 0.000105138
19 *2381:A1 *2847:A2 2.72817e-05
20 *2823:A2 *2847:A2 0.0054215
21 *2839:A2 *2847:A2 0.000252906
22 *2840:B2 *2847:A2 0.000189214
23 *3076:D *2847:A2 3.48413e-05
24 *3214:I *2847:A2 2.57437e-05
25 *251:30 *2847:A2 0
26 *371:22 *2847:A2 9.39019e-06
27 *372:24 *2847:A2 0.000356769
28 *502:18 *2847:A2 0.000100113
*RES
1 *2844:Z *2847:A2 39.87 
*END

*D_NET *626 0.000795167
*CONN
*I *2847:B I *D gf180mcu_fd_sc_mcu7t5v0__oai211_1
*I *2845:ZN O *D gf180mcu_fd_sc_mcu7t5v0__aoi22_1
*CAP
1 *2847:B 0.000159599
2 *2845:ZN 0.000159599
3 *2847:B *2847:A1 0.000109323
4 *2847:B *3077:CLK 3.70209e-05
5 *2847:B *759:42 0.000234092
6 *2350:B *2847:B 7.98551e-05
7 *2847:A2 *2847:B 1.56779e-05
*RES
1 *2845:ZN *2847:B 19.89 
*END

*D_NET *627 0.00056663
*CONN
*I *2847:C I *D gf180mcu_fd_sc_mcu7t5v0__oai211_1
*I *2846:ZN O *D gf180mcu_fd_sc_mcu7t5v0__aoi22_1
*CAP
1 *2847:C 5.80315e-05
2 *2846:ZN 5.80315e-05
3 *2847:C *2846:A1 0.000283714
4 *2847:C *2881:A1 1.35803e-05
5 *2350:B *2847:C 0.000153272
*RES
1 *2846:ZN *2847:C 9.81 
*END

*D_NET *628 0.00460037
*CONN
*I *2848:B2 I *D gf180mcu_fd_sc_mcu7t5v0__aoi22_1
*I *2847:ZN O *D gf180mcu_fd_sc_mcu7t5v0__oai211_1
*CAP
1 *2848:B2 0.00035291
2 *2847:ZN 0.00035291
3 *2848:B2 *2840:A1 2.78423e-05
4 *2848:B2 *2881:A1 0.000834763
5 *2848:B2 *3177:I 0
6 *2848:B2 *756:332 0.000608882
7 *2848:B2 *783:16 7.10862e-05
8 *2350:B *2848:B2 0.000826718
9 *2840:B2 *2848:B2 2.03939e-05
10 *2841:A2 *2848:B2 0.00105222
11 *3050:D *2848:B2 7.23285e-05
12 *3234:I *2848:B2 0.000380315
*RES
1 *2847:ZN *2848:B2 24.66 
*END

*D_NET *629 0.000718968
*CONN
*I *2849:A2 I *D gf180mcu_fd_sc_mcu7t5v0__nor2_1
*I *2848:ZN O *D gf180mcu_fd_sc_mcu7t5v0__aoi22_1
*CAP
1 *2849:A2 0.000131444
2 *2848:ZN 0.000131444
3 *2849:A2 *2848:A1 0.000282246
4 *2849:A2 *756:344 0.000153256
5 *2849:A2 *782:14 2.05784e-05
6 *2848:A2 *2849:A2 0
*RES
1 *2848:ZN *2849:A2 10.44 
*END

*D_NET *630 0.01214
*CONN
*I *2852:A1 I *D gf180mcu_fd_sc_mcu7t5v0__aoi21_1
*I *2850:ZN O *D gf180mcu_fd_sc_mcu7t5v0__aoi222_1
*CAP
1 *2852:A1 0
2 *2850:ZN 0.002115
3 *630:24 0.002115
4 *630:24 *2471:A1 0.000103139
5 *630:24 *2494:A2 1.39839e-05
6 *630:24 *2837:A1 0.000139424
7 *630:24 *2838:B2 3.74555e-05
8 *630:24 *2850:A1 0.000164053
9 *630:24 *2852:B 0.000568125
10 *630:24 *2853:A1 0.000711329
11 *630:24 *2878:B2 0.000133153
12 *630:24 *2878:C2 7.77106e-05
13 *630:24 *3123:I 0
14 *630:24 *656:14 0.000149692
15 *630:24 *688:12 6.51512e-05
16 *630:24 *705:45 1.47139e-05
17 *630:24 *756:134 4.02353e-05
18 *630:24 *759:68 0.00136503
19 *630:24 *759:72 9.04462e-05
20 *630:24 *782:14 5.02137e-05
21 *630:24 *782:72 0
22 *630:24 *782:79 0
23 *630:24 *783:107 3.55118e-05
24 *630:24 *917:19 9.15641e-06
25 *2354:A1 *630:24 0.000154888
26 *2471:B *630:24 0.000519327
27 *2494:A1 *630:24 0.000101664
28 *2838:A2 *630:24 0.00037955
29 *2838:B1 *630:24 0.000148843
30 *2839:B *630:24 0.000182391
31 *2840:B2 *630:24 9.85004e-05
32 *2878:B1 *630:24 0.000868072
33 *2961:D *630:24 0.000105195
34 *2964:D *630:24 0.000302466
35 *244:49 *630:24 0.00123548
36 *283:33 *630:24 5.22248e-06
37 *605:75 *630:24 3.98824e-05
*RES
1 *2850:ZN *630:24 46.62 
2 *630:24 *2852:A1 4.5 
*END

*D_NET *631 0.0157814
*CONN
*I *2852:A2 I *D gf180mcu_fd_sc_mcu7t5v0__aoi21_1
*I *2851:ZN O *D gf180mcu_fd_sc_mcu7t5v0__aoi222_1
*CAP
1 *2852:A2 0
2 *2851:ZN 0.00229299
3 *631:16 0.00229299
4 *631:16 *2835:C1 0.00105383
5 *631:16 *2851:A1 9.84908e-05
6 *631:16 *2863:A2 6.30354e-05
7 *631:16 *2868:A1 0
8 *631:16 *2868:B 0.000369079
9 *631:16 *3191:I 0.000358177
10 *631:16 *721:18 0.000191949
11 *631:16 *723:68 0.00014882
12 *631:16 *750:60 0.000927254
13 *631:16 *759:78 0.000324589
14 *2362:B *631:16 3.60189e-05
15 *2769:A1 *631:16 0.000905531
16 *2770:A2 *631:16 0.000378035
17 *2773:A2 *631:16 0.00020705
18 *2828:A2 *631:16 0.000163016
19 *2831:A2 *631:16 0.00050695
20 *2942:D *631:16 5.28477e-05
21 *244:82 *631:16 0.000121104
22 *265:47 *631:16 0.000196928
23 *267:17 *631:16 0.000514236
24 *267:21 *631:16 0.000504483
25 *268:8 *631:16 0.00160199
26 *268:45 *631:16 0.000672573
27 *283:64 *631:16 0
28 *597:59 *631:16 0.000704368
29 *597:65 *631:16 4.83522e-05
30 *600:26 *631:16 0.00104674
*RES
1 *2851:ZN *631:16 46.26 
2 *631:16 *2852:A2 4.5 
*END

*D_NET *632 0.00197141
*CONN
*I *2854:C I *D gf180mcu_fd_sc_mcu7t5v0__aoi221_1
*I *2852:ZN O *D gf180mcu_fd_sc_mcu7t5v0__aoi21_1
*CAP
1 *2854:C 0.000346737
2 *2852:ZN 0.000346737
3 *2854:C *2837:B2 0.000344002
4 *2854:C *2855:A2 7.54325e-05
5 *2854:C *3171:I 5.76161e-05
6 *2854:C *750:60 0.000121054
7 *2823:B *2854:C 0.00027566
8 *2823:C *2854:C 6.34901e-05
9 *2854:A2 *2854:C 3.93916e-05
10 *2854:B1 *2854:C 6.40664e-06
11 *248:25 *2854:C 6.53099e-05
12 *265:47 *2854:C 0.000223398
13 *283:33 *2854:C 6.17613e-06
*RES
1 *2852:ZN *2854:C 21.6 
*END

*D_NET *633 0.00110503
*CONN
*I *2855:A1 I *D gf180mcu_fd_sc_mcu7t5v0__nand2_1
*I *2853:ZN O *D gf180mcu_fd_sc_mcu7t5v0__aoi22_1
*CAP
1 *2855:A1 0.000365876
2 *2853:ZN 0.000365876
3 *2855:A1 *2864:B2 0.000223561
4 *2832:B2 *2855:A1 0.000101884
5 *282:10 *2855:A1 4.78286e-05
*RES
1 *2853:ZN *2855:A1 11.97 
*END

*D_NET *634 0.00616209
*CONN
*I *2855:A2 I *D gf180mcu_fd_sc_mcu7t5v0__nand2_1
*I *2854:ZN O *D gf180mcu_fd_sc_mcu7t5v0__aoi221_1
*CAP
1 *2855:A2 0.000394513
2 *2854:ZN 0.000394513
3 *2855:A2 *2820:A1 3.97987e-05
4 *2855:A2 *3077:CLK 0.00133104
5 *2855:A2 *3171:I 0.000841989
6 *2855:A2 *750:60 9.04462e-05
7 *2824:B2 *2855:A2 0.00262301
8 *2838:B1 *2855:A2 4.6977e-05
9 *2854:C *2855:A2 7.54325e-05
10 *248:25 *2855:A2 1.54019e-05
11 *250:18 *2855:A2 1.82629e-05
12 *253:22 *2855:A2 0.000290701
*RES
1 *2854:ZN *2855:A2 27 
*END

*D_NET *635 0.00260498
*CONN
*I *2856:B2 I *D gf180mcu_fd_sc_mcu7t5v0__aoi22_1
*I *2855:ZN O *D gf180mcu_fd_sc_mcu7t5v0__nand2_1
*CAP
1 *2856:B2 0.000869943
2 *2855:ZN 0.000869943
3 *2856:B2 *2856:A1 7.191e-07
4 *2856:B2 *2864:B2 0.000176558
5 *2856:B2 *689:12 0.000121943
6 *2856:B2 *756:332 0.000223401
7 *2832:B1 *2856:B2 4.8038e-05
8 *2832:B2 *2856:B2 0.000294431
9 *2833:A2 *2856:B2 0
10 *590:64 *2856:B2 0
11 *590:66 *2856:B2 0
*RES
1 *2855:ZN *2856:B2 15.3 
*END

*D_NET *636 0.00368846
*CONN
*I *2857:A2 I *D gf180mcu_fd_sc_mcu7t5v0__nor2_1
*I *2856:ZN O *D gf180mcu_fd_sc_mcu7t5v0__aoi22_1
*CAP
1 *2857:A2 0.00109176
2 *2856:ZN 0.00109176
3 *2857:A2 *2856:A1 0.00124489
4 *2857:A2 *2881:A2 3.65263e-05
5 *2857:A2 *3221:I 0.000115095
6 *2857:A2 *705:10 2.76726e-05
7 *2857:A2 *705:61 4.85078e-05
8 *2857:A2 *705:76 3.22593e-05
9 *2805:A1 *2857:A2 0
*RES
1 *2856:ZN *2857:A2 25.83 
*END

*D_NET *637 0.0117647
*CONN
*I *2860:A1 I *D gf180mcu_fd_sc_mcu7t5v0__and2_1
*I *2858:ZN O *D gf180mcu_fd_sc_mcu7t5v0__aoi222_1
*CAP
1 *2860:A1 0.002135
2 *2858:ZN 0.002135
3 *2860:A1 *2371:I0 0
4 *2860:A1 *2371:I1 0.0011257
5 *2860:A1 *2854:B2 0.000922062
6 *2860:A1 *2858:B2 0.000103033
7 *2860:A1 *645:22 0.00191356
8 *2860:A1 *686:10 0.000240538
9 *2860:A1 *690:34 0
10 *2860:A1 *703:20 0
11 *2472:A1 *2860:A1 0.000487272
12 *2472:B *2860:A1 0.000182662
13 *2858:B1 *2860:A1 0.00127265
14 *2953:D *2860:A1 5.83222e-05
15 *284:22 *2860:A1 2.1573e-06
16 *284:28 *2860:A1 1.44759e-05
17 *295:63 *2860:A1 0.00069372
18 *295:67 *2860:A1 0.000322595
19 *295:76 *2860:A1 0.000155985
*RES
1 *2858:ZN *2860:A1 35.46 
*END

*D_NET *638 0.0201557
*CONN
*I *2860:A2 I *D gf180mcu_fd_sc_mcu7t5v0__and2_1
*I *2859:ZN O *D gf180mcu_fd_sc_mcu7t5v0__aoi222_1
*CAP
1 *2860:A2 0.00171814
2 *2859:ZN 0.00171814
3 *2860:A2 *2371:I1 0
4 *2860:A2 *2399:A1 0.00157053
5 *2860:A2 *2842:B2 0.00129953
6 *2860:A2 *2851:A1 9.84908e-05
7 *2860:A2 *2868:A1 5.30751e-05
8 *2860:A2 *2870:C 0.00020444
9 *2860:A2 *2942:CLK 0.000101685
10 *2860:A2 *3039:CLK 0
11 *2860:A2 *3094:I 2.30277e-05
12 *2860:A2 *3188:I 0
13 *2860:A2 *645:22 0.000144928
14 *2860:A2 *709:95 0.000210518
15 *2860:A2 *709:137 0
16 *2860:A2 *752:61 2.43595e-05
17 *2860:A2 *781:37 0.00023141
18 *2373:A2 *2860:A2 0.000228444
19 *2443:A2 *2860:A2 0
20 *2772:B *2860:A2 0.000289795
21 *2870:A2 *2860:A2 0.000536348
22 *2870:B1 *2860:A2 7.13936e-05
23 *283:64 *2860:A2 0.000287303
24 *284:34 *2860:A2 0.00217767
25 *284:36 *2860:A2 0.0008022
26 *371:22 *2860:A2 0.000241944
27 *601:16 *2860:A2 0.0081223
*RES
1 *2859:ZN *2860:A2 49.5 
*END

*D_NET *639 0.000692897
*CONN
*I *2863:A2 I *D gf180mcu_fd_sc_mcu7t5v0__oai211_1
*I *2860:Z O *D gf180mcu_fd_sc_mcu7t5v0__and2_1
*CAP
1 *2863:A2 9.39658e-05
2 *2860:Z 9.39658e-05
3 *2831:A2 *2863:A2 0.000441931
4 *631:16 *2863:A2 6.30354e-05
*RES
1 *2860:Z *2863:A2 19.17 
*END

*D_NET *640 0.0038441
*CONN
*I *2863:B I *D gf180mcu_fd_sc_mcu7t5v0__oai211_1
*I *2861:ZN O *D gf180mcu_fd_sc_mcu7t5v0__aoi22_1
*CAP
1 *2863:B 0.000399061
2 *2861:ZN 0.000399061
3 *2863:B *2868:B 0.000270484
4 *2863:B *2871:A2 6.31723e-05
5 *2863:B *2877:A1 0.000436952
6 *2863:B *750:60 0.000503516
7 *2823:C *2863:B 0.00167978
8 *2861:B1 *2863:B 9.20698e-05
*RES
1 *2861:ZN *2863:B 24.39 
*END

*D_NET *641 0.00091017
*CONN
*I *2863:C I *D gf180mcu_fd_sc_mcu7t5v0__oai211_1
*I *2862:ZN O *D gf180mcu_fd_sc_mcu7t5v0__aoi22_1
*CAP
1 *2863:C 3.20052e-05
2 *2862:ZN 3.20052e-05
3 *2862:A2 *2863:C 0.00042308
4 *605:75 *2863:C 0.00042308
*RES
1 *2862:ZN *2863:C 10.17 
*END

*D_NET *642 0.0102836
*CONN
*I *2864:B2 I *D gf180mcu_fd_sc_mcu7t5v0__aoi22_1
*I *2863:ZN O *D gf180mcu_fd_sc_mcu7t5v0__oai211_1
*CAP
1 *2864:B2 0.00220832
2 *2863:ZN 0.00220832
3 *2864:B2 *2350:A1 0.000190262
4 *2864:B2 *2846:A1 0.000192283
5 *2864:B2 *2846:B2 0.000108819
6 *2864:B2 *2853:B2 3.73774e-06
7 *2864:B2 *2881:A1 0.000763201
8 *2864:B2 *3173:I 4.45837e-05
9 *2864:B2 *689:12 0.000180617
10 *2864:B2 *756:313 0.000256844
11 *2864:B2 *759:40 0.000123789
12 *2351:A2 *2864:B2 0.000456392
13 *2831:A2 *2864:B2 0.000298637
14 *2831:C *2864:B2 0.000111777
15 *2832:B2 *2864:B2 7.191e-07
16 *2841:A2 *2864:B2 9.04462e-05
17 *2846:A2 *2864:B2 0.000852537
18 *2855:A1 *2864:B2 0.000223561
19 *2856:B2 *2864:B2 0.000176558
20 *3050:D *2864:B2 0.000104825
21 *265:35 *2864:B2 0.000146364
22 *265:37 *2864:B2 4.04876e-05
23 *265:102 *2864:B2 0.000705345
24 *267:17 *2864:B2 0.000188029
25 *282:10 *2864:B2 7.191e-07
26 *590:41 *2864:B2 0.000606388
27 *600:16 *2864:B2 0
*RES
1 *2863:ZN *2864:B2 48.96 
*END

*D_NET *643 0.00377569
*CONN
*I *2865:A2 I *D gf180mcu_fd_sc_mcu7t5v0__nor2_1
*I *2864:ZN O *D gf180mcu_fd_sc_mcu7t5v0__aoi22_1
*CAP
1 *2865:A2 0.000690699
2 *2864:ZN 0.000690699
3 *2865:A2 *2864:A1 0.000308999
4 *2865:A2 *2865:A1 0.000681989
5 *2865:A2 *3054:CLK 3.74036e-05
6 *2865:A2 *3220:I 1.17934e-05
7 *2865:A2 *705:61 1.17752e-05
8 *2865:A2 *705:82 0.0003823
9 *2865:A2 *705:91 3.94638e-05
10 DAT_O[5] *2865:A2 2.18436e-05
11 *3052:D *2865:A2 0.000898721
*RES
1 *2864:ZN *2865:A2 25.74 
*END

*D_NET *644 0.013906
*CONN
*I *2868:A1 I *D gf180mcu_fd_sc_mcu7t5v0__aoi21_1
*I *2866:ZN O *D gf180mcu_fd_sc_mcu7t5v0__aoi222_1
*CAP
1 *2868:A1 0.00143156
2 *2866:ZN 0.00143156
3 *2868:A1 *2442:A1 0.00144935
4 *2868:A1 *2851:A1 0.000100113
5 *2868:A1 *2862:A1 0.000311397
6 *2868:A1 *2870:C 9.30289e-05
7 *2868:A1 *3094:I 0.000320311
8 *2868:A1 *3191:I 0.00085296
9 *2868:A1 *721:12 0.000643035
10 *2868:A1 *721:18 0.000553849
11 *2868:A1 *723:68 0.000119685
12 *2440:A1 *2868:A1 1.31385e-05
13 *2771:B1 *2868:A1 0.00120565
14 *2773:A2 *2868:A1 0.000111933
15 *2860:A2 *2868:A1 5.30751e-05
16 *2942:D *2868:A1 0.000393387
17 *283:64 *2868:A1 0.00022436
18 *600:16 *2868:A1 0.00457364
19 *600:26 *2868:A1 2.3956e-05
20 *631:16 *2868:A1 0
*RES
1 *2866:ZN *2868:A1 46.71 
*END

*D_NET *645 0.0165881
*CONN
*I *2868:A2 I *D gf180mcu_fd_sc_mcu7t5v0__aoi21_1
*I *2867:ZN O *D gf180mcu_fd_sc_mcu7t5v0__aoi222_1
*CAP
1 *2868:A2 0
2 *2867:ZN 0.00248563
3 *645:22 0.00248563
4 *645:22 *2369:I1 0
5 *645:22 *2371:I1 5.89474e-05
6 *645:22 *2493:A1 0
7 *645:22 *2494:A2 2.26729e-05
8 *645:22 *2820:A1 1.4328e-05
9 *645:22 *2820:B2 5.5916e-05
10 *645:22 *2854:B2 0.00164605
11 *645:22 *2858:B2 0.000862662
12 *645:22 *2858:C2 0.000135406
13 *645:22 *2955:CLK 0.00026713
14 *645:22 *2964:CLK 2.93898e-05
15 *645:22 *705:16 6.1434e-05
16 *645:22 *706:20 0.00169162
17 *645:22 *750:60 0
18 *645:22 *778:316 0.000358314
19 *645:22 *939:10 0.00071647
20 *645:22 *940:12 0.000101624
21 *2472:B *645:22 0.00126368
22 *2492:A1 *645:22 0.000372606
23 *2854:B1 *645:22 0.000586561
24 *2858:B1 *645:22 0.000865844
25 *2860:A1 *645:22 0.00191356
26 *2860:A2 *645:22 0.000144928
27 *3082:D *645:22 8.19052e-05
28 *244:49 *645:22 0
29 *283:64 *645:22 0.000365832
*RES
1 *2867:ZN *645:22 46.17 
2 *645:22 *2868:A2 4.5 
*END

*D_NET *646 0.0025205
*CONN
*I *2870:C I *D gf180mcu_fd_sc_mcu7t5v0__aoi221_1
*I *2868:ZN O *D gf180mcu_fd_sc_mcu7t5v0__aoi21_1
*CAP
1 *2870:C 0.000243281
2 *2868:ZN 0.000243281
3 *2870:C *2358:A1 0
4 *2870:C *694:254 0.00029603
5 *2870:C *752:61 0.000100097
6 *2860:A2 *2870:C 0.00020444
7 *2868:A1 *2870:C 9.30289e-05
8 *283:64 *2870:C 3.30181e-05
9 *284:34 *2870:C 0.000497998
10 *600:16 *2870:C 0.000802191
11 *601:16 *2870:C 7.1341e-06
*RES
1 *2868:ZN *2870:C 22.32 
*END

*D_NET *647 0.00480279
*CONN
*I *2871:A1 I *D gf180mcu_fd_sc_mcu7t5v0__nand2_1
*I *2869:ZN O *D gf180mcu_fd_sc_mcu7t5v0__aoi22_1
*CAP
1 *2871:A1 0.00074977
2 *2869:ZN 0.00074977
3 *2871:A1 *2279:I 0.000244347
4 *2871:A1 *2871:A2 0.000177559
5 *2871:A1 *701:100 1.04144e-05
6 *2871:A1 *743:47 0.000333774
7 *2871:A1 *756:364 0.000110838
8 *2341:A1 *2871:A1 4.09043e-05
9 *2809:A2 *2871:A1 0.000240538
10 *2810:A1 *2871:A1 9.85004e-05
11 *3063:D *2871:A1 0.000119182
12 *3233:I *2871:A1 2.36813e-05
13 *245:12 *2871:A1 0.000462783
14 *247:24 *2871:A1 7.64901e-05
15 *265:10 *2871:A1 0.000394852
16 *591:30 *2871:A1 4.6613e-06
17 *595:14 *2871:A1 0.000291188
18 *595:20 *2871:A1 0.000383821
19 *597:22 *2871:A1 4.31073e-05
20 *605:20 *2871:A1 1.98078e-06
21 *605:39 *2871:A1 0.00024463
*RES
1 *2869:ZN *2871:A1 44.82 
*END

*D_NET *648 0.00959966
*CONN
*I *2871:A2 I *D gf180mcu_fd_sc_mcu7t5v0__nand2_1
*I *2870:ZN O *D gf180mcu_fd_sc_mcu7t5v0__aoi221_1
*CAP
1 *2871:A2 0.00158845
2 *2870:ZN 0.00158845
3 *2871:A2 *2830:A1 8.64354e-06
4 *2871:A2 *2872:B2 0
5 *2871:A2 *2877:A1 0.000285535
6 *2871:A2 *687:10 0.000556556
7 *2871:A2 *702:66 0
8 *2871:A2 *758:16 4.54905e-05
9 *2809:A2 *2871:A2 2.57443e-05
10 *2810:A1 *2871:A2 0.000320165
11 *2810:A3 *2871:A2 0.000144873
12 *2817:A2 *2871:A2 1.91657e-05
13 *2821:A3 *2871:A2 4.31832e-06
14 *2829:A2 *2871:A2 0.000141842
15 *2831:B *2871:A2 0.00122844
16 *2861:B1 *2871:A2 0.000182206
17 *2863:B *2871:A2 6.31723e-05
18 *2870:A2 *2871:A2 0.00085369
19 *2870:B1 *2871:A2 0.000382875
20 *2871:A1 *2871:A2 0.000177559
21 *2890:A1 *2871:A2 3.71188e-06
22 *3081:D *2871:A2 0.000465069
23 *3233:I *2871:A2 0.00024216
24 *253:30 *2871:A2 2.13441e-06
25 *283:75 *2871:A2 0.000226832
26 *601:16 *2871:A2 0.00104258
*RES
1 *2870:ZN *2871:A2 35.73 
*END

*D_NET *649 0.00816677
*CONN
*I *2872:B2 I *D gf180mcu_fd_sc_mcu7t5v0__aoi22_1
*I *2871:ZN O *D gf180mcu_fd_sc_mcu7t5v0__nand2_1
*CAP
1 *2872:B2 0.0034132
2 *2871:ZN 0.0034132
3 *2872:B2 *2856:A1 7.50811e-05
4 *2872:B2 *2864:A1 0.000117518
5 *2872:B2 *768:14 0.000111235
6 *2805:A2 *2872:B2 0
7 *2806:A1 *2872:B2 0
8 *2815:A3 *2872:B2 2.38819e-06
9 *2871:A2 *2872:B2 0
10 *3054:D *2872:B2 0.000137134
11 *3234:I *2872:B2 0.000179138
12 *247:54 *2872:B2 0.000351203
13 *247:67 *2872:B2 0
14 *247:80 *2872:B2 0
15 *590:10 *2872:B2 4.34597e-05
16 *595:20 *2872:B2 0.000308773
17 *595:28 *2872:B2 1.44365e-05
*RES
1 *2871:ZN *2872:B2 49.77 
*END

*D_NET *650 0.0057735
*CONN
*I *2873:A2 I *D gf180mcu_fd_sc_mcu7t5v0__nor2_1
*I *2872:ZN O *D gf180mcu_fd_sc_mcu7t5v0__aoi22_1
*CAP
1 *2873:A2 0.000414339
2 *2872:ZN 0.000414339
3 *2873:A2 *2298:I 2.36152e-06
4 *2873:A2 *2856:A1 0.000229929
5 *2873:A2 *756:118 0.000133027
6 *2873:A2 *756:122 0.000109332
7 *2510:A1 *2873:A2 0.001339
8 *2881:B *2873:A2 0.000256697
9 *3054:D *2873:A2 0.00287447
*RES
1 *2872:ZN *2873:A2 26.55 
*END

*D_NET *651 0.00334652
*CONN
*I *2882:A1 I *D gf180mcu_fd_sc_mcu7t5v0__aoi21_1
*I *2874:ZN O *D gf180mcu_fd_sc_mcu7t5v0__nand2_1
*CAP
1 *2882:A1 0.000539495
2 *2874:ZN 0.000539495
3 *2882:A1 *2298:I 9.51606e-05
4 *2882:A1 *2856:A1 0.000213967
5 *2882:A1 *2872:A1 6.93035e-05
6 *2882:A1 *2874:A1 0.000203958
7 *2882:A1 *3222:I 0.000489771
8 *2805:A2 *2882:A1 0.000158788
9 *2872:A2 *2882:A1 6.32975e-05
10 *3054:D *2882:A1 0.000202885
11 *3055:D *2882:A1 6.90165e-05
12 *589:19 *2882:A1 0.000701383
*RES
1 *2874:ZN *2882:A1 24.3 
*END

*D_NET *652 0.00333147
*CONN
*I *2877:A1 I *D gf180mcu_fd_sc_mcu7t5v0__nand2_1
*I *2875:ZN O *D gf180mcu_fd_sc_mcu7t5v0__aoi22_1
*CAP
1 *2877:A1 0.000441386
2 *2875:ZN 0.000441386
3 *2877:A1 *2854:A1 0
4 *2877:A1 *2875:A1 9.55009e-05
5 *2325:A1 *2877:A1 2.36954e-05
6 *2861:B1 *2877:A1 0.000236433
7 *2863:B *2877:A1 0.000436952
8 *2871:A2 *2877:A1 0.000285535
9 *248:46 *2877:A1 3.61578e-05
10 *248:55 *2877:A1 0.000101406
11 *248:66 *2877:A1 0.000414132
12 *253:30 *2877:A1 0.000818888
*RES
1 *2875:ZN *2877:A1 24.66 
*END

*D_NET *653 0.000751874
*CONN
*I *2877:A2 I *D gf180mcu_fd_sc_mcu7t5v0__nand2_1
*I *2876:ZN O *D gf180mcu_fd_sc_mcu7t5v0__aoi22_1
*CAP
1 *2877:A2 0.000207963
2 *2876:ZN 0.000207963
3 *2877:A2 *749:39 1.56942e-05
4 *2325:A1 *2877:A2 2.0458e-05
5 *2876:B1 *2877:A2 0.000299797
*RES
1 *2876:ZN *2877:A2 10.8 
*END

*D_NET *654 0.0116187
*CONN
*I *2881:A1 I *D gf180mcu_fd_sc_mcu7t5v0__oai21_1
*I *2877:ZN O *D gf180mcu_fd_sc_mcu7t5v0__nand2_1
*CAP
1 *2881:A1 0.00172771
2 *2877:ZN 0.00172771
3 *2881:A1 *2350:A1 0.000161479
4 *2881:A1 *2368:I0 0.000496785
5 *2881:A1 *2845:A1 0.000520142
6 *2881:A1 *2846:B2 0.000539149
7 *2881:A1 *2862:B2 0
8 *2881:A1 *2878:C2 1.7022e-05
9 *2881:A1 *2881:A2 0.000172267
10 *2881:A1 *3077:CLK 0
11 *2881:A1 *3102:I 0.000191485
12 *2881:A1 *3120:I 0.000161479
13 *2881:A1 *3140:I 0.000172257
14 *2881:A1 *689:18 0.000329542
15 *2881:A1 *705:8 0.000496785
16 *2881:A1 *756:313 0.000104423
17 *2881:A1 *759:40 7.52566e-05
18 *2350:B *2881:A1 0.00175738
19 *2356:B *2881:A1 0.00021045
20 *2847:A2 *2881:A1 0.000130672
21 *2847:C *2881:A1 1.35803e-05
22 *2848:B2 *2881:A1 0.000834763
23 *2864:B2 *2881:A1 0.000763201
24 *2890:A1 *2881:A1 6.51736e-05
25 *2891:A2 *2881:A1 3.12451e-05
26 *3077:D *2881:A1 0.000143853
27 *3083:D *2881:A1 0
28 *244:186 *2881:A1 2.36813e-05
29 *253:30 *2881:A1 0.000234541
30 *265:29 *2881:A1 0
31 *590:35 *2881:A1 0.000124885
32 *590:41 *2881:A1 5.30751e-05
33 *605:43 *2881:A1 0.000174506
34 *605:45 *2881:A1 0.000164219
*RES
1 *2877:ZN *2881:A1 40.14 
*END

*D_NET *655 0.00124931
*CONN
*I *2880:A1 I *D gf180mcu_fd_sc_mcu7t5v0__aoi21_1
*I *2878:ZN O *D gf180mcu_fd_sc_mcu7t5v0__aoi222_1
*CAP
1 *2880:A1 8.29429e-05
2 *2878:ZN 8.29429e-05
3 *2880:A1 *2878:C2 0.000429309
4 *2880:A1 *2881:A2 9.04462e-05
5 *2880:A1 *3140:I 0.000425254
6 *2880:A1 *941:6 9.84908e-05
7 *251:30 *2880:A1 3.9928e-05
*RES
1 *2878:ZN *2880:A1 19.71 
*END

*D_NET *656 0.0130844
*CONN
*I *2880:A2 I *D gf180mcu_fd_sc_mcu7t5v0__aoi21_1
*I *2879:ZN O *D gf180mcu_fd_sc_mcu7t5v0__aoi222_1
*CAP
1 *2880:A2 0
2 *2879:ZN 0.00374138
3 *656:14 0.00374138
4 *656:14 *2303:I 0.000381132
5 *656:14 *2478:C 0.000248147
6 *656:14 *2826:B2 0.000279252
7 *656:14 *2878:B2 0.000193224
8 *656:14 *2878:C2 6.47595e-05
9 *656:14 *2960:CLK 0.000247524
10 *656:14 *2965:CLK 6.67701e-05
11 *656:14 *3083:CLK 0.000350258
12 *656:14 *3140:I 6.76575e-05
13 *656:14 *3142:I 7.71214e-05
14 *656:14 *690:34 0
15 *656:14 *703:50 4.29609e-05
16 *656:14 *703:52 8.06007e-05
17 *656:14 *703:54 0.000297625
18 *656:14 *712:10 5.92036e-05
19 *656:14 *712:57 0.00100482
20 *656:14 *712:68 1.90699e-05
21 *656:14 *779:10 0.000312219
22 *656:14 *779:12 3.18016e-05
23 *656:14 *779:30 0
24 *656:14 *782:18 0
25 *656:14 *783:80 0
26 *656:14 *783:92 0
27 *656:14 *909:14 0.000365635
28 *656:14 *941:6 2.89427e-06
29 *2480:A1 *656:14 2.93184e-05
30 *2480:B *656:14 0.000320238
31 *2486:A1 *656:14 0.000238428
32 *2498:A1 *656:14 3.74991e-05
33 *2749:B2 *656:14 6.22242e-05
34 *2750:B *656:14 2.38472e-05
35 *2826:B1 *656:14 1.03102e-05
36 *2956:D *656:14 2.65444e-06
37 *2966:D *656:14 4.34199e-06
38 *251:30 *656:14 0.000286158
39 *599:82 *656:14 0.000221335
40 *600:73 *656:14 2.28718e-05
41 *630:24 *656:14 0.000149692
*RES
1 *2879:ZN *656:14 46.53 
2 *656:14 *2880:A2 4.5 
*END

*D_NET *657 0.00252567
*CONN
*I *2881:A2 I *D gf180mcu_fd_sc_mcu7t5v0__oai21_1
*I *2880:ZN O *D gf180mcu_fd_sc_mcu7t5v0__aoi21_1
*CAP
1 *2881:A2 0.000332152
2 *2880:ZN 0.000332152
3 *2881:A2 *2878:C2 0.000425761
4 *2881:A2 *2880:B 3.97987e-05
5 *2881:A2 *705:10 0.000362328
6 *2881:A2 *756:313 2.9185e-05
7 *2857:A2 *2881:A2 3.65263e-05
8 *2880:A1 *2881:A2 9.04462e-05
9 *2881:A1 *2881:A2 0.000172267
10 *3052:D *2881:A2 0.000486049
11 *251:30 *2881:A2 0.000219008
*RES
1 *2880:ZN *2881:A2 22.77 
*END

*D_NET *658 0.00350239
*CONN
*I *2882:A2 I *D gf180mcu_fd_sc_mcu7t5v0__aoi21_1
*I *2881:ZN O *D gf180mcu_fd_sc_mcu7t5v0__oai21_1
*CAP
1 *2882:A2 0.000597396
2 *2881:ZN 0.000597396
3 *2882:A2 *2298:I 0.000546589
4 *2882:A2 *2878:C2 0.000101132
5 *2882:A2 *2882:B 0.000546589
6 *2882:A2 *3143:I 0.000106536
7 *2882:A2 *705:8 0.000496776
8 *2882:A2 *759:36 0.000281927
9 *2805:A1 *2882:A2 9.58064e-05
10 *3054:D *2882:A2 0.000104305
11 *3055:D *2882:A2 2.79403e-05
*RES
1 *2881:ZN *2882:A2 33.57 
*END

*D_NET *659 0.00575482
*CONN
*I *2887:A2 I *D gf180mcu_fd_sc_mcu7t5v0__oai21_1
*I *2883:ZN O *D gf180mcu_fd_sc_mcu7t5v0__nor3_1
*CAP
1 *2887:A2 0.00132102
2 *2883:ZN 0.00132102
3 *2887:A2 *2305:I 0.000101624
4 *2887:A2 *2503:A1 0
5 *2887:A2 *2504:A2 3.55118e-05
6 *2887:A2 *2504:C 4.0961e-06
7 *2887:A2 *2677:A1 0.000231045
8 *2887:A2 *2764:A1 2.40834e-05
9 *2887:A2 *2764:A2 0.000147005
10 *2887:A2 *2884:A2 0.000404503
11 *2887:A2 *2888:B2 4.28845e-05
12 *2887:A2 *3139:I 3.18747e-06
13 *2887:A2 *756:104 4.03682e-05
14 *2887:A2 *756:108 7.21866e-05
15 *2887:A2 *756:112 0.000137908
16 *2887:A2 *778:392 0.000375176
17 *2887:A2 *784:158 0.000142139
18 *2887:A2 *923:16 8.09928e-05
19 *2887:A2 *925:27 5.78854e-06
20 *2887:A2 *949:10 1.06888e-05
21 *2764:A3 *2887:A2 3.58674e-05
22 *2969:D *2887:A2 1.18707e-05
23 *3202:I *2887:A2 9.34076e-05
24 *496:24 *2887:A2 0.000315592
25 *502:111 *2887:A2 0.000796852
*RES
1 *2883:ZN *2887:A2 30.42 
*END

*D_NET *660 0.00648779
*CONN
*I *2886:A1 I *D gf180mcu_fd_sc_mcu7t5v0__aoi21_1
*I *2884:ZN O *D gf180mcu_fd_sc_mcu7t5v0__oai31_1
*CAP
1 *2886:A1 0.0011172
2 *2884:ZN 0.0011172
3 *2886:A1 *2763:A2 7.73538e-05
4 *2886:A1 *2884:A1 9.85004e-05
5 *2886:A1 *2885:A1 0.000220914
6 *2886:A1 *2886:A2 0.000127226
7 *2886:A1 *2888:A1 0.00114672
8 *2886:A1 *759:26 0.000941121
9 *2886:A1 *923:12 0.000130296
10 ACK_O *2886:A1 0.000101615
11 *2884:B *2886:A1 3.55118e-05
12 *3035:D *2886:A1 9.84908e-05
13 *3036:D *2886:A1 0.000251312
14 *3056:D *2886:A1 0.000988521
15 *252:30 *2886:A1 3.58114e-05
16 *502:111 *2886:A1 0
*RES
1 *2884:ZN *2886:A1 30.69 
*END

*D_NET *661 0.0064883
*CONN
*I *2886:A2 I *D gf180mcu_fd_sc_mcu7t5v0__aoi21_1
*I *2885:ZN O *D gf180mcu_fd_sc_mcu7t5v0__nand2_1
*CAP
1 *2886:A2 0.00073113
2 *2885:ZN 0.00073113
3 *2886:A2 *2884:A1 9.85004e-05
4 *2886:A2 *2885:A1 4.10396e-06
5 *2886:A2 *2888:A1 9.17162e-06
6 *2886:A2 *2888:B2 0.000620334
7 *2886:A2 *3036:CLK 0.000445194
8 *2886:A2 *3056:CLK 0.000183731
9 *2886:A2 *706:102 0.000478014
10 *2886:A2 *706:111 0.000177471
11 *2886:A2 *759:26 9.84908e-05
12 *2886:A2 *759:153 0.000427626
13 *2886:A2 *925:27 0.00115463
14 *2884:B *2886:A2 2.1446e-05
15 *2886:A1 *2886:A2 0.000127226
16 *3034:D *2886:A2 0
17 *252:16 *2886:A2 0.000385048
18 *252:30 *2886:A2 0.000795049
19 *502:84 *2886:A2 0
*RES
1 *2885:ZN *2886:A2 19.98 
*END

*D_NET *662 0.00287035
*CONN
*I *2888:B2 I *D gf180mcu_fd_sc_mcu7t5v0__aoi22_1
*I *2887:ZN O *D gf180mcu_fd_sc_mcu7t5v0__oai21_1
*CAP
1 *2888:B2 0.000322178
2 *2887:ZN 0.000322178
3 *2888:B2 *2677:A3 0.000719202
4 *2888:B2 *2677:A4 0.000444083
5 *2888:B2 *3224:I 3.11264e-05
6 *2888:B2 *925:27 2.08301e-05
7 ERR_O *2888:B2 0.000145212
8 *2886:A2 *2888:B2 0.000620334
9 *2887:A2 *2888:B2 4.28845e-05
10 *3202:I *2888:B2 5.46043e-06
11 *502:111 *2888:B2 0.000196862
*RES
1 *2887:ZN *2888:B2 22.59 
*END

*D_NET *663 0.0118867
*CONN
*I *2889:A2 I *D gf180mcu_fd_sc_mcu7t5v0__nor2_1
*I *2888:ZN O *D gf180mcu_fd_sc_mcu7t5v0__aoi22_1
*CAP
1 *2889:A2 0.00123942
2 *2888:ZN 0.00123942
3 *2889:A2 *2300:I 0.000598962
4 *2889:A2 *2320:A1 0
5 *2889:A2 *2320:A2 0.000152792
6 *2889:A2 *2322:A3 0.000998551
7 *2889:A2 *2323:A2 0
8 *2889:A2 *2507:A1 0.00207085
9 *2889:A2 *2886:B 0.00117107
10 *2889:A2 *756:104 0.00052864
11 *2889:A2 *770:30 0
12 *2889:A2 *925:10 0.000979744
13 *2506:A1 *2889:A2 6.98034e-05
14 *2888:A2 *2889:A2 7.54325e-05
15 *3036:D *2889:A2 0.000263388
16 *3057:D *2889:A2 0.000188375
17 *3202:I *2889:A2 5.31331e-05
18 *3204:I *2889:A2 0.000314066
19 *249:10 *2889:A2 5.18457e-05
20 *588:18 *2889:A2 0.00189117
*RES
1 *2888:ZN *2889:A2 46.35 
*END

*D_NET *664 0.00911895
*CONN
*I *2912:A2 I *D gf180mcu_fd_sc_mcu7t5v0__nor2_1
*I *2909:A2 I *D gf180mcu_fd_sc_mcu7t5v0__nor2_1
*I *2893:A2 I *D gf180mcu_fd_sc_mcu7t5v0__aoi21_1
*I *2899:A2 I *D gf180mcu_fd_sc_mcu7t5v0__nor2_1
*I *2910:A2 I *D gf180mcu_fd_sc_mcu7t5v0__aoi211_1
*I *2896:A2 I *D gf180mcu_fd_sc_mcu7t5v0__aoi21_1
*I *2907:A2 I *D gf180mcu_fd_sc_mcu7t5v0__nor2_1
*I *2902:A2 I *D gf180mcu_fd_sc_mcu7t5v0__nor2_1
*I *2890:Z O *D gf180mcu_fd_sc_mcu7t5v0__and2_1
*CAP
1 *2912:A2 0
2 *2909:A2 0
3 *2893:A2 0
4 *2899:A2 6.16332e-05
5 *2910:A2 0.000147874
6 *2896:A2 0
7 *2907:A2 0
8 *2902:A2 0.000179935
9 *2890:Z 0.000167215
10 *664:62 0.000246103
11 *664:46 0.000268424
12 *664:40 0.000413697
13 *664:36 0.000281135
14 *664:32 0.000472023
15 *664:14 0.000248604
16 *664:10 0.000535451
17 *2899:A2 *2892:A2 0.000140022
18 *2899:A2 *2900:A3 0.000286386
19 *2902:A2 *2830:A1 1.91274e-05
20 *2902:A2 *2869:B2 4.3453e-05
21 *2902:A2 *848:14 5.23724e-05
22 *2910:A2 *2894:A1 0.000104937
23 *2910:A2 *2894:A2 3.55118e-05
24 *2910:A2 *2896:A1 5.78854e-06
25 *2910:A2 *701:26 0.000158798
26 *2910:A2 *743:30 4.13326e-05
27 *664:10 *2908:A2 0.000154052
28 *664:10 *753:12 0.000222221
29 *664:10 *753:27 2.29722e-05
30 *664:10 *848:14 0.000115755
31 *664:14 *2876:B2 0.000298756
32 *664:14 *753:27 1.18463e-05
33 *664:14 *848:14 0.000144276
34 *664:32 *2830:A1 0.000136456
35 *664:32 *2908:A3 1.0415e-05
36 *664:32 *701:16 0.000835903
37 *664:32 *701:18 4.65279e-05
38 *664:32 *751:18 0.000212441
39 *664:32 *751:26 0.000155458
40 *664:32 *852:32 0.000357824
41 *664:36 *2591:A1 0.000100391
42 *664:36 *2869:B2 0.000141794
43 *664:36 *851:25 7.39052e-05
44 *664:36 *852:32 3.22348e-05
45 *664:40 *2591:A1 0.000254208
46 *664:40 *851:25 0.000149448
47 *664:46 *2896:A1 2.89427e-06
48 *664:46 *701:26 9.04462e-05
49 *664:46 *743:30 3.73774e-06
50 *664:46 *756:405 0.000417214
51 *664:46 *847:18 7.68945e-05
52 *664:62 *2900:A3 0.000228444
53 *664:62 *744:24 8.59404e-05
54 *664:62 *756:405 0.000290134
55 *664:62 *847:18 0.000115551
56 *247:24 *2899:A2 1.27836e-05
57 *591:30 *664:10 0.000408204
*RES
1 *2890:Z *664:10 11.16 
2 *664:10 *664:14 5.49 
3 *664:14 *2902:A2 5.94 
4 *664:14 *2907:A2 4.5 
5 *664:10 *664:32 8.37 
6 *664:32 *664:36 1.8 
7 *664:36 *664:40 5.67 
8 *664:40 *664:46 5.94 
9 *664:46 *2896:A2 4.5 
10 *664:46 *2910:A2 5.85 
11 *664:40 *664:62 6.57 
12 *664:62 *2899:A2 5.49 
13 *664:62 *2893:A2 4.5 
14 *664:36 *2909:A2 4.5 
15 *664:32 *2912:A2 4.5 
*END

*D_NET *665 0.0153121
*CONN
*I *2905:A2 I *D gf180mcu_fd_sc_mcu7t5v0__aoi211_1
*I *2906:A2 I *D gf180mcu_fd_sc_mcu7t5v0__nor2_1
*I *2911:A2 I *D gf180mcu_fd_sc_mcu7t5v0__nor2_1
*I *2898:A2 I *D gf180mcu_fd_sc_mcu7t5v0__nor2_1
*I *2892:A2 I *D gf180mcu_fd_sc_mcu7t5v0__nand2_1
*I *2901:A2 I *D gf180mcu_fd_sc_mcu7t5v0__nor2_1
*I *2904:A2 I *D gf180mcu_fd_sc_mcu7t5v0__nor2_1
*I *2895:A2 I *D gf180mcu_fd_sc_mcu7t5v0__nand2_1
*I *2891:ZN O *D gf180mcu_fd_sc_mcu7t5v0__nand2_1
*CAP
1 *2905:A2 0.000105523
2 *2906:A2 0.000164393
3 *2911:A2 0
4 *2898:A2 8.29845e-06
5 *2892:A2 0.000624336
6 *2901:A2 0
7 *2904:A2 0
8 *2895:A2 0.000509408
9 *2891:ZN 0.00044691
10 *665:59 0.000700529
11 *665:55 0.000260112
12 *665:47 0.000412982
13 *665:38 0.000102489
14 *665:29 0.000156273
15 *665:14 0.000743098
16 *665:12 0.000675969
17 *2892:A2 *2591:A1 3.97987e-05
18 *2892:A2 *2894:A2 1.6803e-05
19 *2892:A2 *2900:A2 4.97333e-05
20 *2892:A2 *2900:A3 9.3226e-06
21 *2892:A2 *2913:A2 0.000158788
22 *2892:A2 *3058:CLK 3.97987e-05
23 *2892:A2 *860:14 0.000351392
24 *2895:A2 *2594:A1 0.000124973
25 *2895:A2 *2605:A1 0.000707398
26 *2895:A2 *2895:A1 1.61174e-05
27 *2895:A2 *2897:A1 4.78286e-05
28 *2895:A2 *853:8 0.000183618
29 *2898:A2 *2894:A2 0.000143204
30 *2898:A2 *750:29 7.772e-05
31 *2905:A2 *2605:A1 0.000232481
32 *2905:A2 *2876:B2 0
33 *2905:A2 *848:18 0.000157047
34 *2906:A2 *2906:A1 1.61174e-05
35 *2906:A2 *701:16 5.29798e-05
36 *2906:A2 *701:18 3.01487e-05
37 *2906:A2 *852:20 0.000217843
38 *665:12 *2310:I 7.10237e-05
39 *665:12 *2594:A1 0.000153452
40 *665:12 *2845:A1 0.000596898
41 *665:14 *2310:I 0.000405532
42 *665:14 *2594:A1 9.28914e-05
43 *665:14 *2605:A1 7.69936e-06
44 *665:29 *751:26 0.00119578
45 *665:29 *752:26 0.000122627
46 *665:29 *752:36 0.00104329
47 *665:38 *751:26 0.000412574
48 *665:38 *752:26 0.00016197
49 *665:38 *755:29 4.71078e-05
50 *665:47 *2903:A2 4.55655e-05
51 *665:47 *751:26 0.000130857
52 *665:47 *755:29 1.36885e-05
53 *665:47 *852:20 9.39061e-05
54 *665:47 *852:32 1.76621e-05
55 *665:55 *701:18 0.000743563
56 *665:55 *852:20 3.0177e-06
57 *665:55 *852:32 3.1302e-05
58 *665:59 *2894:A2 0.00027851
59 *665:59 *750:29 9.51781e-05
60 *2316:A2 *665:12 0
61 *2899:A2 *2892:A2 0.000140022
62 *3058:D *2892:A2 5.97484e-05
63 *209:20 *665:55 3.49424e-05
64 *210:10 *665:12 1.6462e-05
65 *247:24 *2892:A2 4.02724e-05
66 *591:30 *2892:A2 0.000542787
67 *591:30 *2906:A2 0.000394806
68 *591:30 *665:55 0.000735528
*RES
1 *2891:ZN *665:12 8.64 
2 *665:12 *665:14 1.35 
3 *665:14 *2895:A2 9.81 
4 *665:14 *665:29 7.83 
5 *665:29 *2904:A2 9 
6 *665:29 *665:38 1.17 
7 *665:38 *2901:A2 9 
8 *665:38 *665:47 0.81 
9 *665:47 *665:55 7.65 
10 *665:55 *665:59 5.31 
11 *665:59 *2892:A2 23.94 
12 *665:59 *2898:A2 9.45 
13 *665:55 *2911:A2 4.5 
14 *665:47 *2906:A2 10.8 
15 *665:12 *2905:A2 14.49 
*END

*D_NET *666 0.00346869
*CONN
*I *2894:A1 I *D gf180mcu_fd_sc_mcu7t5v0__nand2_1
*I *2892:ZN O *D gf180mcu_fd_sc_mcu7t5v0__nand2_1
*CAP
1 *2894:A1 0.000363715
2 *2892:ZN 0.000363715
3 *2894:A1 *2593:A1 2.78496e-05
4 *2894:A1 *2869:B2 0.000101995
5 *2894:A1 *2894:A2 0.000247152
6 *2894:A1 *3059:CLK 0.000354719
7 *2894:A1 *701:26 0.000598609
8 *2894:A1 *851:8 5.92728e-05
9 *2894:A1 *851:25 0.000116147
10 *2894:A1 *860:14 1.17934e-05
11 *2894:A1 *860:18 0.000130994
12 *2910:A2 *2894:A1 0.000104937
13 *3058:D *2894:A1 0.000987791
*RES
1 *2892:ZN *2894:A1 23.85 
*END

*D_NET *667 0.00369535
*CONN
*I *2894:A2 I *D gf180mcu_fd_sc_mcu7t5v0__nand2_1
*I *2893:ZN O *D gf180mcu_fd_sc_mcu7t5v0__aoi21_1
*CAP
1 *2894:A2 0.000501616
2 *2893:ZN 0.000501616
3 *2894:A2 *2869:B2 1.10145e-05
4 *2894:A2 *2900:A2 0.000274211
5 *2894:A2 *2900:A3 0.000169515
6 *2894:A2 *743:30 3.28691e-05
7 *2894:A2 *749:22 0.000786106
8 *2894:A2 *750:10 1.18477e-05
9 *2894:A2 *750:29 0.000183312
10 *2892:A2 *2894:A2 1.6803e-05
11 *2894:A1 *2894:A2 0.000247152
12 *2898:A2 *2894:A2 0.000143204
13 *2910:A2 *2894:A2 3.55118e-05
14 *247:24 *2894:A2 0.000502066
15 *665:59 *2894:A2 0.00027851
*RES
1 *2893:ZN *2894:A2 24.57 
*END

*D_NET *668 0.000979728
*CONN
*I *2897:A1 I *D gf180mcu_fd_sc_mcu7t5v0__nand2_1
*I *2895:ZN O *D gf180mcu_fd_sc_mcu7t5v0__nand2_1
*CAP
1 *2897:A1 0.000221989
2 *2895:ZN 0.000221989
3 *2897:A1 *2594:A1 0.000215362
4 *2897:A1 *749:28 0.000136279
5 *2897:A1 *847:18 0.000136279
6 *2895:A2 *2897:A1 4.78286e-05
*RES
1 *2895:ZN *2897:A1 20.16 
*END

*D_NET *669 0.000720723
*CONN
*I *2897:A2 I *D gf180mcu_fd_sc_mcu7t5v0__nand2_1
*I *2896:ZN O *D gf180mcu_fd_sc_mcu7t5v0__aoi21_1
*CAP
1 *2897:A2 0.000152202
2 *2896:ZN 0.000152202
3 *2897:A2 *749:28 6.90638e-05
4 *2897:A2 *756:405 0.000285887
5 *2897:A2 *847:18 6.13693e-05
*RES
1 *2896:ZN *2897:A2 19.35 
*END

*D_NET *670 0.00121325
*CONN
*I *2900:A2 I *D gf180mcu_fd_sc_mcu7t5v0__nor3_1
*I *2898:ZN O *D gf180mcu_fd_sc_mcu7t5v0__nor2_1
*CAP
1 *2900:A2 0.000142864
2 *2898:ZN 0.000142864
3 *2900:A2 *744:24 0.000431983
4 *2900:A2 *756:401 0.000171597
5 *2892:A2 *2900:A2 4.97333e-05
6 *2894:A2 *2900:A2 0.000274211
*RES
1 *2898:ZN *2900:A2 19.98 
*END

*D_NET *671 0.00125051
*CONN
*I *2900:A3 I *D gf180mcu_fd_sc_mcu7t5v0__nor3_1
*I *2899:ZN O *D gf180mcu_fd_sc_mcu7t5v0__nor2_1
*CAP
1 *2900:A3 0.000106197
2 *2899:ZN 0.000106197
3 *2900:A3 *744:24 0.000301326
4 *2900:A3 *847:18 6.0354e-06
5 *2892:A2 *2900:A3 9.3226e-06
6 *2894:A2 *2900:A3 0.000169515
7 *2899:A2 *2900:A3 0.000286386
8 *247:24 *2900:A3 3.70912e-05
9 *664:62 *2900:A3 0.000228444
*RES
1 *2899:ZN *2900:A3 19.8 
*END

*D_NET *672 0.00175231
*CONN
*I *2903:A2 I *D gf180mcu_fd_sc_mcu7t5v0__nor3_1
*I *2901:ZN O *D gf180mcu_fd_sc_mcu7t5v0__nor2_1
*CAP
1 *2903:A2 0.000275724
2 *2901:ZN 0.000275724
3 *2903:A2 *2911:A1 1.06822e-05
4 *2903:A2 *751:18 0.000165012
5 *2903:A2 *752:26 0.000100657
6 *2903:A2 *755:12 0.000209297
7 *2903:A2 *755:29 2.98796e-05
8 *2903:A2 *756:370 0.000132129
9 *2903:A2 *852:20 0.000435604
10 *3061:D *2903:A2 7.20334e-05
11 *665:47 *2903:A2 4.55655e-05
*RES
1 *2901:ZN *2903:A2 21.06 
*END

*D_NET *673 0.00144961
*CONN
*I *2903:A3 I *D gf180mcu_fd_sc_mcu7t5v0__nor3_1
*I *2902:ZN O *D gf180mcu_fd_sc_mcu7t5v0__nor2_1
*CAP
1 *2903:A3 0.000190043
2 *2902:ZN 0.000190043
3 *2903:A3 *752:26 0.000871183
4 *2903:A3 *848:14 0.00019834
*RES
1 *2902:ZN *2903:A3 20.43 
*END

*D_NET *674 0.00193397
*CONN
*I *2905:B I *D gf180mcu_fd_sc_mcu7t5v0__aoi211_1
*I *2904:ZN O *D gf180mcu_fd_sc_mcu7t5v0__nor2_1
*CAP
1 *2905:B 0.000131027
2 *2904:ZN 0.000131027
3 *2905:B *2829:B2 0.000353333
4 *2905:B *2905:C 0.000345234
5 *2905:B *752:26 9.19699e-05
6 *2905:B *752:36 0.000464696
7 *2905:B *755:29 0.000416679
*RES
1 *2904:ZN *2905:B 20.52 
*END

*D_NET *675 0.00291466
*CONN
*I *2908:A2 I *D gf180mcu_fd_sc_mcu7t5v0__nor3_1
*I *2906:ZN O *D gf180mcu_fd_sc_mcu7t5v0__nor2_1
*CAP
1 *2908:A2 0.000417373
2 *2906:ZN 0.000417373
3 *2908:A2 *2906:A1 0.000408267
4 *2908:A2 *2908:A3 0.000107811
5 *2908:A2 *3132:I 4.55112e-05
6 *2908:A2 *701:12 0.000145519
7 *2908:A2 *701:100 9.04462e-05
8 *2908:A2 *753:27 0.000161479
9 *2908:A2 *756:352 1.61174e-05
10 *2908:A2 *756:364 0.000352047
11 *2316:A2 *2908:A2 1.34934e-05
12 *2890:A2 *2908:A2 9.30128e-05
13 *591:30 *2908:A2 0.000215654
14 *605:20 *2908:A2 0.0002765
15 *664:10 *2908:A2 0.000154052
*RES
1 *2906:ZN *2908:A2 14.22 
*END

*D_NET *676 0.00254812
*CONN
*I *2908:A3 I *D gf180mcu_fd_sc_mcu7t5v0__nor3_1
*I *2907:ZN O *D gf180mcu_fd_sc_mcu7t5v0__nor2_1
*CAP
1 *2908:A3 0.000455135
2 *2907:ZN 0.000455135
3 *2908:A3 *2830:A1 7.39052e-05
4 *2908:A3 *2907:A1 0.000147435
5 *2908:A3 *701:12 0.000338816
6 *2908:A3 *701:16 9.3226e-06
7 *2908:A3 *850:27 0.000420866
8 *2316:A2 *2908:A3 0.000486059
9 *2341:A2 *2908:A3 1.38253e-05
10 *2908:A2 *2908:A3 0.000107811
11 *605:20 *2908:A3 2.93938e-05
12 *664:32 *2908:A3 1.0415e-05
*RES
1 *2907:ZN *2908:A3 13.59 
*END

*D_NET *677 0.000712019
*CONN
*I *2910:B I *D gf180mcu_fd_sc_mcu7t5v0__aoi211_1
*I *2909:ZN O *D gf180mcu_fd_sc_mcu7t5v0__nor2_1
*CAP
1 *2910:B 0.000187571
2 *2909:ZN 0.000187571
3 *2910:B *701:26 3.10415e-05
4 *2910:B *744:24 1.57472e-05
5 *2910:B *749:22 0.000290089
*RES
1 *2909:ZN *2910:B 19.44 
*END

*D_NET *678 0.00118843
*CONN
*I *2913:A2 I *D gf180mcu_fd_sc_mcu7t5v0__nor3_1
*I *2911:ZN O *D gf180mcu_fd_sc_mcu7t5v0__nor2_1
*CAP
1 *2913:A2 0.000330088
2 *2911:ZN 0.000330088
3 *2913:A2 *2911:A1 0.000126258
4 *2913:A2 *2913:A3 3.55118e-05
5 *2892:A2 *2913:A2 0.000158788
6 *247:24 *2913:A2 0.000133792
7 *591:30 *2913:A2 7.39052e-05
*RES
1 *2911:ZN *2913:A2 11.7 
*END

*D_NET *679 0.00100795
*CONN
*I *2913:A3 I *D gf180mcu_fd_sc_mcu7t5v0__nor3_1
*I *2912:ZN O *D gf180mcu_fd_sc_mcu7t5v0__nor2_1
*CAP
1 *2913:A3 0.00020343
2 *2912:ZN 0.00020343
3 *2913:A3 *2911:A1 1.56779e-05
4 *2913:A3 *750:29 5.11733e-05
5 *2913:A2 *2913:A3 3.55118e-05
6 *209:20 *2913:A3 0.000486371
7 *247:24 *2913:A3 1.23607e-05
*RES
1 *2912:ZN *2913:A3 19.8 
*END

*D_NET *680 0.00217197
*CONN
*I *2916:A2 I *D gf180mcu_fd_sc_mcu7t5v0__nor3_1
*I *2914:ZN O *D gf180mcu_fd_sc_mcu7t5v0__nor2_1
*CAP
1 *2916:A2 0.000367831
2 *2914:ZN 0.000367831
3 *2916:A2 *2600:A2 6.54286e-05
4 *2916:A2 *2916:A1 0.000338217
5 *2916:A2 *2916:A3 0.00035974
6 *2916:A2 *744:24 0.000235133
7 *2916:A2 *756:441 0.000437789
*RES
1 *2914:ZN *2916:A2 22.77 
*END

*D_NET *681 0.00192803
*CONN
*I *2916:A3 I *D gf180mcu_fd_sc_mcu7t5v0__nor3_1
*I *2915:ZN O *D gf180mcu_fd_sc_mcu7t5v0__nor2_1
*CAP
1 *2916:A3 0.00039375
2 *2915:ZN 0.00039375
3 *2916:A3 *2600:A2 0
4 *2916:A3 *2604:A1 8.96665e-05
5 *2916:A3 *714:51 1.58782e-05
6 *2916:A3 *744:24 0.000302726
7 *2916:A3 *744:37 0.000131389
8 *2329:A2 *2916:A3 9.2472e-05
9 *2916:A2 *2916:A3 0.00035974
10 *3072:D *2916:A3 0.000148662
*RES
1 *2915:ZN *2916:A3 13.77 
*END

*D_NET *682 0.00120616
*CONN
*I *2919:A2 I *D gf180mcu_fd_sc_mcu7t5v0__nor3_1
*I *2917:ZN O *D gf180mcu_fd_sc_mcu7t5v0__nor2_1
*CAP
1 *2919:A2 1.71663e-05
2 *2917:ZN 1.71663e-05
3 *2919:A2 *756:420 0.000320271
4 *2919:A2 *756:422 0.000320262
5 *2919:A2 *756:424 0.000182206
6 *209:26 *2919:A2 0.000349088
*RES
1 *2917:ZN *2919:A2 19.89 
*END

*D_NET *683 0.000927466
*CONN
*I *2919:A3 I *D gf180mcu_fd_sc_mcu7t5v0__nor3_1
*I *2918:ZN O *D gf180mcu_fd_sc_mcu7t5v0__nor2_1
*CAP
1 *2919:A3 0.000103609
2 *2918:ZN 0.000103609
3 *2919:A3 *2327:B 0
4 *2919:A3 *2595:A1 0.000415026
5 *2919:A3 *2837:A1 7.55765e-06
6 *2327:A2 *2919:A3 2.31089e-05
7 *2328:B *2919:A3 0.000115767
8 *3067:D *2919:A3 0.000158788
*RES
1 *2918:ZN *2919:A3 10.53 
*END

*D_NET *684 0.00134705
*CONN
*I *2922:A2 I *D gf180mcu_fd_sc_mcu7t5v0__nor3_1
*I *2920:ZN O *D gf180mcu_fd_sc_mcu7t5v0__nor2_1
*CAP
1 *2922:A2 0.000238874
2 *2920:ZN 0.000238874
3 *2922:A2 *2592:A2 3.58474e-05
4 *2922:A2 *2597:A1 0.000107798
5 *2922:A2 *2921:A1 0.00015614
6 *2922:A2 *2922:A3 0.000526494
7 *2922:A2 *750:60 4.30225e-05
*RES
1 *2920:ZN *2922:A2 12.06 
*END

*D_NET *685 0.00137131
*CONN
*I *2922:A3 I *D gf180mcu_fd_sc_mcu7t5v0__nor3_1
*I *2921:ZN O *D gf180mcu_fd_sc_mcu7t5v0__nor2_1
*CAP
1 *2922:A3 0.00022744
2 *2921:ZN 0.00022744
3 *2922:A3 *2592:A2 0.00011522
4 *2922:A3 *2597:A1 5.6029e-05
5 *2922:A3 *2922:A1 0.000154519
6 *2921:A2 *2922:A3 0
7 *2922:A2 *2922:A3 0.000526494
8 *3068:D *2922:A3 6.41728e-05
*RES
1 *2921:ZN *2922:A3 12.06 
*END

*D_NET *686 0.00410312
*CONN
*I *3171:I I *D gf180mcu_fd_sc_mcu7t5v0__dlyc_1
*I *2820:B2 I *D gf180mcu_fd_sc_mcu7t5v0__aoi22_1
*I *3080:Q O *D gf180mcu_fd_sc_mcu7t5v0__dffq_1
*CAP
1 *3171:I 0.000299431
2 *2820:B2 8.74594e-05
3 *3080:Q 0.000188141
4 *686:10 0.000575031
5 *2820:B2 *2820:A1 6.85814e-05
6 *3171:I *2823:A1 0
7 *686:10 *2367:I0 6.20854e-05
8 *686:10 *2371:I1 0.000248583
9 *2838:B1 *3171:I 0.000312194
10 *2839:B *3171:I 0.000284927
11 *2854:A2 *2820:B2 7.84068e-05
12 *2854:B1 *2820:B2 0.000515537
13 *2854:B1 *3171:I 0
14 *2854:B1 *686:10 0
15 *2854:C *3171:I 5.76161e-05
16 *2855:A2 *3171:I 0.000841989
17 *2860:A1 *686:10 0.000240538
18 *250:18 *3171:I 0.000178736
19 *250:18 *686:10 7.94868e-06
20 *645:22 *2820:B2 5.5916e-05
*RES
1 *3080:Q *686:10 10.8 
2 *686:10 *2820:B2 10.71 
3 *686:10 *3171:I 13.14 
*END

*D_NET *687 0.00398699
*CONN
*I *3185:I I *D gf180mcu_fd_sc_mcu7t5v0__dlyc_1
*I *2829:A1 I *D gf180mcu_fd_sc_mcu7t5v0__aoi22_1
*I *3081:Q O *D gf180mcu_fd_sc_mcu7t5v0__dffq_1
*CAP
1 *3185:I 0.000736088
2 *2829:A1 7.03328e-05
3 *3081:Q 7.04271e-05
4 *687:10 0.000876848
5 *2829:A1 *3062:CLK 9.04462e-05
6 *3185:I *2830:A1 0.000218409
7 *3185:I *2830:B2 0
8 *3185:I *3062:CLK 0.000346684
9 *3185:I *3173:I 0
10 *3185:I *702:10 2.23795e-05
11 *2319:A1 *3185:I 0.00030409
12 *2829:A2 *3185:I 3.72424e-05
13 *2830:A2 *3185:I 8.49208e-05
14 *2871:A2 *687:10 0.000556556
15 *265:29 *2829:A1 8.68281e-06
16 *265:29 *3185:I 1.7611e-05
17 *601:16 *687:10 0.000546269
*RES
1 *3081:Q *687:10 15.03 
2 *687:10 *2829:A1 5.04 
3 *687:10 *3185:I 10.89 
*END

*D_NET *688 0.0212186
*CONN
*I *2838:A1 I *D gf180mcu_fd_sc_mcu7t5v0__aoi22_1
*I *2369:I0 I *D gf180mcu_fd_sc_mcu7t5v0__mux2_2
*I *3089:I I *D gf180mcu_fd_sc_mcu7t5v0__buf_1
*I *3082:Q O *D gf180mcu_fd_sc_mcu7t5v0__dffq_1
*CAP
1 *2838:A1 0
2 *2369:I0 0
3 *3089:I 0.00743322
4 *3082:Q 0.000336855
5 *688:14 0.00761515
6 *688:12 0.000518792
7 *3089:I *689:24 0.000530113
8 *3089:I *783:28 0.000152505
9 *688:12 *3186:I 0.000586488
10 *688:12 *782:14 0.000276542
11 *688:12 *782:72 0.00035784
12 *688:12 *783:80 0.000185534
13 *688:12 *783:92 5.97457e-06
14 *688:14 *3186:I 0
15 *2354:A1 *688:14 1.91584e-05
16 *2419:A1 *3089:I 0.000582088
17 *2838:A2 *688:12 3.12451e-05
18 *2840:B2 *688:12 8.76817e-06
19 *2844:A2 *3089:I 0.000231751
20 *2847:A2 *688:14 0
21 *251:30 *3089:I 0.000129923
22 *251:30 *688:12 0.000289427
23 *251:30 *688:14 0.000716201
24 *284:22 *3089:I 0.000125393
25 *597:22 *3089:I 5.15339e-07
26 *597:26 *3089:I 0.000462529
27 *599:54 *3089:I 0.000144394
28 *599:60 *3089:I 0.000132171
29 *600:77 *3089:I 0.000154432
30 *601:96 *3089:I 0.000126411
31 *630:24 *688:12 6.51512e-05
*RES
1 *3082:Q *688:12 13.05 
2 *688:12 *688:14 1.89 
3 *688:14 *3089:I 45.8036 
4 *688:14 *2369:I0 9 
5 *688:12 *2838:A1 9 
*END

*D_NET *689 0.0310677
*CONN
*I *2370:I0 I *D gf180mcu_fd_sc_mcu7t5v0__mux2_2
*I *2845:B2 I *D gf180mcu_fd_sc_mcu7t5v0__aoi22_1
*I *3090:I I *D gf180mcu_fd_sc_mcu7t5v0__buf_1
*I *3083:Q O *D gf180mcu_fd_sc_mcu7t5v0__dffq_1
*CAP
1 *2370:I0 0
2 *2845:B2 0.000300147
3 *3090:I 0.000136894
4 *3083:Q 0.000365143
5 *689:24 0.00374944
6 *689:18 0.00406894
7 *689:12 0.000521391
8 *2845:B2 *2356:A1 0
9 *2845:B2 *3077:CLK 0.000152219
10 *3090:I *2983:CLK 9.07783e-05
11 *689:12 *2856:A1 0
12 *689:12 *756:313 2.29765e-05
13 *689:12 *759:40 0
14 *689:12 *782:14 0.00032233
15 *689:18 *2356:A1 2.36954e-05
16 *689:18 *2370:I1 0.000181963
17 *689:18 *782:14 3.81667e-05
18 *689:18 *783:16 0.000671226
19 *689:24 *2370:I1 0.000110898
20 *689:24 *2414:A1 0
21 *689:24 *2495:A1 0
22 *689:24 *2496:C 1.7368e-05
23 *689:24 *2551:A1 0
24 *689:24 *2826:C2 9.32478e-06
25 *689:24 *2834:A2 4.9506e-05
26 *689:24 *2842:A1 0.000412267
27 *689:24 *2842:B2 5.8967e-05
28 *689:24 *3111:I 2.57662e-05
29 *689:24 *690:34 0
30 *689:24 *710:8 0.000144912
31 *689:24 *710:12 0.000427501
32 *689:24 *779:24 2.72817e-05
33 *689:24 *779:49 9.24539e-05
34 *689:24 *782:14 1.86249e-05
35 *689:24 *782:20 0
36 *689:24 *783:16 0.000417911
37 *689:24 *783:24 0.000277639
38 *689:24 *783:28 0.000699433
39 *689:24 *783:30 0.000125111
40 *689:24 *885:27 0
41 *2350:B *689:18 9.39061e-05
42 *2353:A2 *2845:B2 9.99576e-05
43 *2356:B *689:18 7.949e-05
44 *2357:A1 *2845:B2 0.000557083
45 *2381:A1 *689:24 0
46 *2413:A1 *689:24 0
47 *2416:A1 *689:24 0.00116244
48 *2416:A2 *689:24 4.09058e-06
49 *2419:A1 *689:24 0.00038922
50 *2550:A2 *689:24 0
51 *2826:B1 *689:24 0.00041227
52 *2836:A1 *689:24 0.00037097
53 *2843:B1 *689:24 0.000958234
54 *2843:C1 *689:24 6.79679e-05
55 *2856:B2 *689:12 0.000121943
56 *2864:A2 *689:12 1.56862e-05
57 *2864:B2 *689:12 0.000180617
58 *2881:A1 *689:18 0.000329542
59 *3089:I *689:24 0.000530113
60 *244:186 *689:18 0.000284594
61 *251:30 *689:24 0.000762346
62 *266:111 *2845:B2 0.000339604
63 *284:16 *689:24 0.000559276
64 *284:22 *689:24 0.000586161
65 *590:41 *689:12 3.42994e-05
66 *597:26 *689:24 0.00663714
67 *597:32 *689:24 0.000846477
68 *599:54 *689:24 0.000235032
69 *599:60 *689:24 0.000150701
70 *600:77 *689:24 0.00169832
*RES
1 *3083:Q *689:12 16.92 
2 *689:12 *689:18 7.56 
3 *689:18 *689:24 49.23 
4 *689:24 *3090:I 9.99 
5 *689:18 *2845:B2 12.42 
6 *689:12 *2370:I0 4.5 
*END

*D_NET *690 0.0349351
*CONN
*I *3091:I I *D gf180mcu_fd_sc_mcu7t5v0__buf_1
*I *2371:I0 I *D gf180mcu_fd_sc_mcu7t5v0__mux2_2
*I *2854:B2 I *D gf180mcu_fd_sc_mcu7t5v0__aoi221_1
*I *3084:Q O *D gf180mcu_fd_sc_mcu7t5v0__dffq_1
*CAP
1 *3091:I 0.00157175
2 *2371:I0 0.000135847
3 *2854:B2 0.000294994
4 *3084:Q 0
5 *690:34 0.0047206
6 *690:17 0.00334085
7 *690:4 0.000351152
8 *2371:I0 *3076:CLK 0.000473387
9 *3091:I *2540:A1 0
10 *3091:I *2982:CLK 0.0001353
11 *3091:I *3226:I 0.000262125
12 *3091:I *711:18 0.000107095
13 *3091:I *711:24 0.000399985
14 *3091:I *711:33 0
15 *3091:I *711:37 0
16 *3091:I *711:46 0
17 *690:17 *783:24 0.000666696
18 *690:34 *2411:A1 4.73908e-05
19 *690:34 *2414:A1 0.001008
20 *690:34 *2417:A1 0.000208378
21 *690:34 *2478:C 5.53775e-05
22 *690:34 *2479:A1 0.000287046
23 *690:34 *2541:A1 6.72143e-05
24 *690:34 *2546:A1 0.000674344
25 *690:34 *2826:C2 5.00391e-05
26 *690:34 *2834:C1 0.000219114
27 *690:34 *3076:CLK 6.2979e-05
28 *690:34 *3142:I 0.00110934
29 *690:34 *694:108 0.00144418
30 *690:34 *703:20 0.000269238
31 *690:34 *779:10 0.000994627
32 *690:34 *779:12 0.000108347
33 *690:34 *779:18 0.000409327
34 *690:34 *779:24 0.000209832
35 *690:34 *779:49 0.000549088
36 *690:34 *782:18 0.00546581
37 *690:34 *782:20 0.000303031
38 *690:34 *863:19 0.0001981
39 *690:34 *884:12 9.26419e-06
40 *690:34 *884:36 2.84236e-06
41 *690:34 *884:51 2.59666e-06
42 *690:34 *885:27 0.000675215
43 *690:34 *909:14 0
44 *690:34 *943:10 0.000265678
45 bypass_pin_control[0] *3091:I 5.36871e-05
46 *2413:A1 *690:34 0.000216035
47 *2416:A1 *690:34 5.24971e-05
48 *2416:A2 *690:34 0.000296365
49 *2422:A1 *690:34 0.000251952
50 *2478:B *690:34 0.000119299
51 *2539:A2 *3091:I 0.000375166
52 *2540:A2 *3091:I 0.000114313
53 *2541:B *3091:I 0.00113761
54 *2542:I *3091:I 0.00104782
55 *2546:A2 *690:34 9.49804e-05
56 *2860:A1 *2371:I0 0
57 *2860:A1 *2854:B2 0.000922062
58 *2860:A1 *690:34 0
59 *3015:D *3091:I 0.000782491
60 *3017:D *3091:I 0.000302466
61 *244:61 *690:17 0.000196159
62 *284:22 *2371:I0 2.93938e-05
63 *284:28 *2371:I0 3.7795e-05
64 *372:129 *3091:I 0.000102789
65 *645:22 *2854:B2 0.00164605
66 *656:14 *690:34 0
67 *689:24 *690:34 0
*RES
1 *3084:Q *690:4 4.5 
2 *690:4 *2854:B2 9.27 
3 *690:4 *690:17 10.71 
4 *690:17 *2371:I0 5.85 
5 *690:17 *690:34 47.7 
6 *690:34 *3091:I 34.83 
*END

*D_NET *691 0.00859191
*CONN
*I *2861:B2 I *D gf180mcu_fd_sc_mcu7t5v0__aoi22_1
*I *2372:I0 I *D gf180mcu_fd_sc_mcu7t5v0__mux2_2
*I *3092:I I *D gf180mcu_fd_sc_mcu7t5v0__buf_1
*I *3085:Q O *D gf180mcu_fd_sc_mcu7t5v0__dffq_1
*CAP
1 *2861:B2 0.000923627
2 *2372:I0 3.39986e-05
3 *3092:I 0.000539163
4 *3085:Q 1.24169e-05
5 *691:25 0.00170343
6 *691:6 0.00129739
7 *2372:I0 *3070:CLK 3.07932e-05
8 *2372:I0 *714:21 0.000240538
9 *2861:B2 *2372:I1 0
10 *2861:B2 *2854:A1 0.000807339
11 *2861:B2 *2861:A1 6.31783e-05
12 *2861:B2 *2875:A1 0.000365454
13 *2861:B2 *2875:B2 0
14 *2861:B2 *3130:I 6.19076e-05
15 *2861:B2 *753:33 8.20943e-06
16 *2861:B2 *856:12 0.000653866
17 *3092:I *2385:A1 9.42618e-05
18 *3092:I *2925:CLK 1.51153e-05
19 *3092:I *726:16 3.12455e-05
20 *691:25 *2372:I1 0
21 *691:25 *2875:B2 0
22 *691:25 *3093:I 1.18076e-06
23 *691:25 *3130:I 9.0531e-06
24 *2383:B2 *3092:I 0.000119182
25 *2924:D *3092:I 2.73782e-05
26 *3086:D *691:25 0.000518371
27 *244:97 *2372:I0 5.30888e-06
28 *371:35 *691:6 3.97987e-05
29 *371:35 *691:25 0.000271813
30 *486:20 *691:6 9.84908e-05
31 *486:20 *691:25 0.000619401
*RES
1 *3085:Q *691:6 4.77 
2 *691:6 *3092:I 17.64 
3 *691:6 *691:25 11.16 
4 *691:25 *2372:I0 9.63 
5 *691:25 *2861:B2 17.46 
*END

*D_NET *692 0.00673113
*CONN
*I *2870:B2 I *D gf180mcu_fd_sc_mcu7t5v0__aoi221_1
*I *2373:A1 I *D gf180mcu_fd_sc_mcu7t5v0__nor2_1
*I *3093:I I *D gf180mcu_fd_sc_mcu7t5v0__buf_1
*I *3086:Q O *D gf180mcu_fd_sc_mcu7t5v0__dffq_1
*CAP
1 *2870:B2 0.000347372
2 *2373:A1 0
3 *3093:I 0.000144645
4 *3086:Q 1.39248e-05
5 *692:25 0.000524332
6 *692:6 0.00033553
7 *2870:B2 *2875:B2 0.00218538
8 *3093:I *3229:I 3.22122e-05
9 *2772:B *3093:I 1.70787e-05
10 *2772:B *692:25 0.000166798
11 *284:34 *2870:B2 0.000895713
12 *284:36 *2870:B2 0.000187043
13 *371:22 *2870:B2 0.000722898
14 *371:22 *692:25 0.000414195
15 *371:35 *692:6 7.20334e-05
16 *371:35 *692:25 0.000142874
17 *486:20 *3093:I 2.30981e-05
18 *486:20 *692:6 0.000169515
19 *486:20 *692:25 0.000335306
20 *691:25 *3093:I 1.18076e-06
*RES
1 *3086:Q *692:6 4.95 
2 *692:6 *3093:I 14.58 
3 *692:6 *692:25 7.02 
4 *692:25 *2373:A1 9 
5 *692:25 *2870:B2 17.19 
*END

*D_NET *693 0.025104
*CONN
*I *2375:I0 I *D gf180mcu_fd_sc_mcu7t5v0__mux2_2
*I *2875:B2 I *D gf180mcu_fd_sc_mcu7t5v0__aoi22_1
*I *3094:I I *D gf180mcu_fd_sc_mcu7t5v0__buf_1
*I *3087:Q O *D gf180mcu_fd_sc_mcu7t5v0__dffq_1
*CAP
1 *2375:I0 0
2 *2875:B2 0.000694808
3 *3094:I 0.00271617
4 *3087:Q 2.74449e-05
5 *693:29 0.00118901
6 *693:8 0.00323782
7 *2875:B2 *2375:I1 5.06031e-06
8 *2875:B2 *2870:A1 3.73774e-06
9 *2875:B2 *2875:A1 9.04462e-05
10 *2875:B2 *3130:I 7.55961e-05
11 *3094:I *2435:A1 0
12 *3094:I *2563:A1 0.000840698
13 *3094:I *2866:C1 5.31501e-05
14 *3094:I *2942:CLK 0.000230502
15 *3094:I *2989:CLK 5.97457e-06
16 *3094:I *3169:I 0.0001981
17 *3094:I *709:95 0.000351201
18 *3094:I *726:10 0.00030693
19 *3094:I *781:37 0.00142637
20 *3094:I *781:162 0.000718082
21 *3094:I *869:25 0.00071904
22 *3094:I *891:10 0.000643597
23 *693:29 *2375:I1 7.191e-07
24 *693:29 *3070:CLK 0
25 *2372:S *2875:B2 3.12451e-05
26 *2372:S *693:29 3.98088e-05
27 *2431:A2 *3094:I 0
28 *2563:A2 *3094:I 0.000159362
29 *2564:I *3094:I 4.63157e-05
30 *2621:A1 *693:8 2.37143e-05
31 *2860:A2 *3094:I 2.30277e-05
32 *2861:B2 *2875:B2 0
33 *2868:A1 *3094:I 0.000320311
34 *2870:B1 *2875:B2 0.000744726
35 *2870:B2 *2875:B2 0.00218538
36 *3087:D *693:29 0.000169927
37 *3159:I *3094:I 0.000124934
38 *283:64 *2875:B2 3.01487e-05
39 *283:75 *2875:B2 6.51736e-05
40 *284:34 *2875:B2 3.53802e-05
41 *284:58 *693:29 2.36813e-05
42 *371:22 *693:29 6.73147e-05
43 *373:69 *3094:I 0.000167602
44 *406:14 *3094:I 0
45 *406:24 *3094:I 0.000104054
46 *486:20 *693:8 0.000169515
47 *600:16 *3094:I 0.00503776
48 *600:16 *693:29 0.00157181
49 *600:26 *3094:I 0
50 *601:16 *3094:I 0.000278927
51 *601:16 *693:29 0.000149475
52 *691:25 *2875:B2 0
*RES
1 *3087:Q *693:8 9.45 
2 *693:8 *3094:I 41.76 
3 *693:8 *693:29 10.26 
4 *693:29 *2875:B2 22.05 
5 *693:29 *2375:I0 4.5 
*END

*D_NET *694 0.0484264
*CONN
*I *3103:I I *D gf180mcu_fd_sc_mcu7t5v0__clkbuf_8
*I *3102:I I *D gf180mcu_fd_sc_mcu7t5v0__clkbuf_8
*I *3105:I I *D gf180mcu_fd_sc_mcu7t5v0__clkbuf_8
*I *3106:I I *D gf180mcu_fd_sc_mcu7t5v0__clkbuf_8
*I *3107:I I *D gf180mcu_fd_sc_mcu7t5v0__clkbuf_8
*I *3104:I I *D gf180mcu_fd_sc_mcu7t5v0__clkbuf_8
*I *3116:I I *D gf180mcu_fd_sc_mcu7t5v0__clkbuf_8
*I *3115:I I *D gf180mcu_fd_sc_mcu7t5v0__clkbuf_8
*I *3114:I I *D gf180mcu_fd_sc_mcu7t5v0__clkbuf_8
*I *3113:I I *D gf180mcu_fd_sc_mcu7t5v0__clkbuf_8
*I *3112:I I *D gf180mcu_fd_sc_mcu7t5v0__clkbuf_8
*I *3111:I I *D gf180mcu_fd_sc_mcu7t5v0__clkbuf_8
*I *3110:I I *D gf180mcu_fd_sc_mcu7t5v0__clkbuf_8
*I *3109:I I *D gf180mcu_fd_sc_mcu7t5v0__clkbuf_8
*I *3101:I I *D gf180mcu_fd_sc_mcu7t5v0__clkbuf_8
*I *3108:I I *D gf180mcu_fd_sc_mcu7t5v0__clkbuf_8
*I *3095:Z O *D gf180mcu_fd_sc_mcu7t5v0__clkbuf_16
*CAP
1 *3103:I 0
2 *3102:I 0.000388907
3 *3105:I 0
4 *3106:I 0
5 *3107:I 0.000154841
6 *3104:I 0.000308394
7 *3116:I 0.000948974
8 *3115:I 0.000285832
9 *3114:I 0.000598506
10 *3113:I 0
11 *3112:I 0.000217655
12 *3111:I 0.000475311
13 *3110:I 0.000191459
14 *3109:I 0
15 *3101:I 0.000182422
16 *3108:I 0.000160614
17 *3095:Z 0.00180216
18 *694:254 0.00116911
19 *694:223 0.0012623
20 *694:217 0.00155628
21 *694:201 0.00270065
22 *694:169 0.000880218
23 *694:167 0.00280054
24 *694:138 0.000620449
25 *694:108 0.00138323
26 *694:102 0.0019388
27 *694:41 0.000710414
28 *694:35 0.000665218
29 *694:29 0.00245091
30 *694:13 0.00455887
31 *3102:I *2862:B2 3.67398e-05
32 *3104:I *756:144 0.000128721
33 *3107:I *2510:A2 2.27885e-05
34 *3108:I *3118:I 6.78766e-05
35 *3110:I *2395:A1 0.000120329
36 *3110:I *3125:I 0
37 *3111:I *2933:CLK 9.27022e-05
38 *3111:I *3127:I 0.000107788
39 *3111:I *710:14 3.12451e-05
40 *3112:I *2414:A2 0
41 *3112:I *2933:CLK 1.19491e-05
42 *3112:I *779:56 0
43 *3114:I *2415:A1 0.000278196
44 *3114:I *2818:A1 0
45 *3114:I *2956:CLK 7.77227e-05
46 *3115:I *744:37 0.000170743
47 *694:13 *2380:A2 5.04434e-05
48 *694:13 *2439:A2 0
49 *694:13 *2827:A1 4.33874e-05
50 *694:13 *2827:B2 8.11581e-05
51 *694:13 *3166:I 0.000423797
52 *694:13 *723:78 9.82023e-06
53 *694:13 *781:14 0
54 *694:29 *2433:A1 2.1087e-05
55 *694:29 *2433:A2 0
56 *694:29 *2439:A2 3.77135e-05
57 *694:29 *2827:A1 2.85333e-05
58 *694:29 *2835:C1 7.12129e-05
59 *694:29 *709:65 1.15538e-05
60 *694:29 *709:126 0.000131324
61 *694:29 *709:137 9.8432e-05
62 *694:29 *895:6 3.73868e-05
63 *694:29 *901:14 0.000181176
64 *694:35 *2395:A1 4.16005e-05
65 *694:35 *2398:A1 4.03097e-06
66 *694:35 *3125:I 0.000107008
67 *694:41 *2398:A1 6.71198e-06
68 *694:41 *2975:CLK 4.1536e-06
69 *694:41 *3125:I 2.98121e-05
70 *694:41 *774:14 0.000323615
71 *694:102 *2415:A1 4.18257e-05
72 *694:102 *2433:A1 0.000173373
73 *694:102 *2439:A2 0.000206412
74 *694:102 *2835:A1 4.34199e-06
75 *694:102 *2835:B2 0.000132147
76 *694:102 *2879:C2 0.000464824
77 *694:102 *779:30 0.000139796
78 *694:102 *779:84 1.05078e-05
79 *694:102 *779:95 6.69186e-05
80 *694:108 *2934:CLK 0
81 *694:108 *712:14 0
82 *694:108 *908:12 0.000491324
83 *694:108 *909:14 0
84 *694:138 *2415:A1 1.27919e-05
85 *694:167 *3079:CLK 4.3753e-05
86 *694:167 *720:12 0
87 *694:169 *744:37 0.000161242
88 *694:201 *2371:I1 0
89 *694:201 *3031:CLK 4.34121e-06
90 *694:201 *3078:CLK 0.000314141
91 *694:217 *3031:CLK 0.000100396
92 *694:223 *2471:A1 2.96649e-05
93 *694:223 *2765:A1 3.47359e-05
94 *694:223 *756:118 2.29859e-05
95 *694:223 *756:122 2.06244e-05
96 *694:223 *756:292 3.09427e-05
97 *694:254 *2862:B2 0.000783079
98 *694:254 *702:10 0.000110791
99 *694:254 *702:14 0.000504948
100 *2316:A2 *3102:I 5.38916e-06
101 *2339:A1 *694:169 5.68658e-06
102 *2339:A3 *3116:I 7.20436e-05
103 *2339:A3 *694:169 0
104 *2348:A2 *694:201 0.000223566
105 *2352:A2 *694:201 0.000355391
106 *2394:A1 *3110:I 0
107 *2397:A1 *3110:I 1.20515e-05
108 *2397:A1 *694:29 0
109 *2397:A1 *694:35 4.08995e-05
110 *2397:A2 *694:29 0
111 *2401:A2 *694:35 0
112 *2413:A1 *3111:I 0.000227873
113 *2415:B *694:102 0.000545211
114 *2416:A1 *3111:I 0.000125111
115 *2433:B *694:29 2.49079e-05
116 *2440:A2 *694:13 6.07502e-05
117 *2452:A2 *3108:I 0.000129469
118 *2452:A2 *694:41 8.53918e-05
119 *2455:A2 *3101:I 5.90451e-05
120 *2471:A2 *694:223 0.000412295
121 *2472:B *694:223 0.000327996
122 *2478:A1 *3114:I 0.000341658
123 *2478:A1 *694:102 6.1883e-05
124 *2478:A1 *694:138 2.31089e-05
125 *2510:B *3107:I 0
126 *2510:B *694:223 0.000234634
127 *2532:B *3101:I 0
128 *2682:A2 *694:13 5.96565e-05
129 *2685:A2 *694:13 5.96565e-05
130 *2746:A1 *694:217 0.000167242
131 *2755:A2 *694:223 0.00040135
132 *2767:A2 *694:13 4.97029e-05
133 *2770:A1 *694:13 0.000414575
134 *2827:A2 *694:29 0
135 *2831:A2 *694:13 6.7729e-05
136 *2831:A2 *694:167 0.000114143
137 *2835:A2 *694:102 2.00937e-05
138 *2836:A2 *694:102 3.88138e-05
139 *2870:C *694:254 0.00029603
140 *2881:A1 *3102:I 0.000191485
141 *2926:D *694:29 0.000124246
142 *2927:D *3110:I 0
143 *2933:D *3111:I 3.42764e-05
144 *2933:D *3112:I 1.0415e-05
145 *2947:D *3108:I 0
146 *3031:D *694:217 0.000304716
147 *3031:D *694:223 0.000251578
148 *3054:D *694:223 0
149 *3073:D *3115:I 0.000162303
150 *3073:D *694:169 0.000111589
151 *3080:D *694:201 0.00014308
152 *3084:D *694:201 3.32427e-05
153 *3180:I *3111:I 0.000128618
154 *10:55 *694:201 0.000155122
155 *10:55 *694:217 5.16364e-05
156 *244:61 *694:201 0
157 *244:76 *694:201 0.000184756
158 *244:78 *694:169 0.000191944
159 *244:78 *694:201 4.16188e-07
160 *244:332 *694:29 0.000101216
161 *244:339 *694:29 0.000267405
162 *244:370 *694:13 0.000108239
163 *244:370 *694:102 3.05421e-05
164 *244:422 *694:102 2.60586e-05
165 *251:30 *3107:I 0.000195939
166 *266:35 *694:167 0.000230157
167 *267:28 *694:169 0.000269734
168 *267:28 *694:201 0.000215874
169 *283:64 *694:254 6.63171e-05
170 *284:34 *3116:I 7.20436e-05
171 *296:50 *694:41 0.000248817
172 *296:52 *694:41 0.000425829
173 *296:58 *3101:I 5.00136e-06
174 *296:58 *694:41 0.000423797
175 *296:112 *694:35 0
176 *372:208 *3104:I 1.71254e-05
177 *385:24 *3108:I 0.000263008
178 *385:24 *694:41 0.00054254
179 *483:8 *694:13 0.000173952
180 *502:67 *694:223 0
181 *503:62 *3104:I 9.4913e-06
182 *600:16 *3116:I 0.000101574
183 *600:16 *694:254 0.000181045
184 *600:51 *694:29 0
185 *601:16 *3116:I 0.000265377
186 *601:16 *694:254 0.000301832
187 *601:29 *694:13 1.95146e-06
188 *601:96 *694:102 6.00846e-05
189 *689:24 *3111:I 2.57662e-05
190 *690:34 *694:108 0.00144418
*RES
1 *3095:Z *694:13 25.56 
2 *694:13 *694:29 18.45 
3 *694:29 *694:35 6.84 
4 *694:35 *694:41 12.24 
5 *694:41 *3108:I 11.16 
6 *694:41 *3101:I 9.99 
7 *694:35 *3109:I 4.5 
8 *694:29 *3110:I 10.8 
9 *694:13 *694:102 28.98 
10 *694:102 *694:108 17.91 
11 *694:108 *3111:I 17.91 
12 *694:108 *3112:I 6.03 
13 *694:102 *694:138 0.27 
14 *694:138 *3113:I 4.5 
15 *694:138 *3114:I 10.17 
16 *3095:Z *694:167 17.01 
17 *694:167 *694:169 4.05 
18 *694:169 *3115:I 6.75 
19 *694:169 *3116:I 15.66 
20 *694:167 *694:201 15.21 
21 *694:201 *3104:I 15.57 
22 *694:201 *694:217 4.32 
23 *694:217 *694:223 19.53 
24 *694:223 *3107:I 5.85 
25 *694:223 *3106:I 4.5 
26 *694:217 *3105:I 4.5 
27 *3116:I *694:254 23.13 
28 *694:254 *3102:I 7.11 
29 *694:254 *3103:I 4.5 
*END

*D_NET *695 0.000982871
*CONN
*I *3098:I I *D gf180mcu_fd_sc_mcu7t5v0__clkbuf_16
*I *3096:Z O *D gf180mcu_fd_sc_mcu7t5v0__clkbuf_16
*CAP
1 *3098:I 0.000226978
2 *3096:Z 0.000226978
3 *3098:I *2632:A3 0.000159648
4 *3098:I *736:51 0.000102368
5 *2632:A4 *3098:I 0.000153299
6 *2634:A3 *3098:I 0.000109148
7 *371:45 *3098:I 4.45184e-06
*RES
1 *3096:Z *3098:I 11.43 
*END

*D_NET *696 0.00097981
*CONN
*I *3100:I I *D gf180mcu_fd_sc_mcu7t5v0__clkbuf_16
*I *3099:I I *D gf180mcu_fd_sc_mcu7t5v0__clkbuf_16
*I *3097:Z O *D gf180mcu_fd_sc_mcu7t5v0__clkbuf_16
*CAP
1 *3100:I 0.000215074
2 *3099:I 0.000143262
3 *3097:Z 0.000358337
4 *3099:I *2294:I 0.000164758
5 *3099:I *2592:A1 0
6 *3100:I *2592:A1 0
7 *3100:I *2599:A2 9.38111e-05
8 *2608:A4 *3099:I 4.56787e-06
*RES
1 *3097:Z *3099:I 10.17 
2 *3097:Z *3100:I 10.53 
*END

*D_NET *697 0.00036959
*CONN
*I *3088:D I *D gf180mcu_fd_sc_mcu7t5v0__dffq_1
*I *3098:Z O *D gf180mcu_fd_sc_mcu7t5v0__clkbuf_16
*CAP
1 *3088:D 0.000134004
2 *3098:Z 0.000134004
3 *3088:D *698:22 8.37956e-05
4 *3096:I *3088:D 1.77853e-05
*RES
1 *3098:Z *3088:D 9.99 
*END

*D_NET *698 0.0172333
*CONN
*I *3004:CLK I *D gf180mcu_fd_sc_mcu7t5v0__dffq_1
*I *3005:CLK I *D gf180mcu_fd_sc_mcu7t5v0__dffq_1
*I *3003:CLK I *D gf180mcu_fd_sc_mcu7t5v0__dffq_1
*I *2998:CLK I *D gf180mcu_fd_sc_mcu7t5v0__dffq_1
*I *2999:CLK I *D gf180mcu_fd_sc_mcu7t5v0__dffq_1
*I *2315:I I *D gf180mcu_fd_sc_mcu7t5v0__clkinv_1
*I *2997:CLK I *D gf180mcu_fd_sc_mcu7t5v0__dffq_1
*I *3000:CLK I *D gf180mcu_fd_sc_mcu7t5v0__dffq_1
*I *3002:CLK I *D gf180mcu_fd_sc_mcu7t5v0__dffq_1
*I *3001:CLK I *D gf180mcu_fd_sc_mcu7t5v0__dffq_1
*I *3099:Z O *D gf180mcu_fd_sc_mcu7t5v0__clkbuf_16
*CAP
1 *3004:CLK 0
2 *3005:CLK 0.000585219
3 *3003:CLK 0.000152772
4 *2998:CLK 0.000173219
5 *2999:CLK 0
6 *2315:I 0
7 *2997:CLK 0.000428097
8 *3000:CLK 0
9 *3002:CLK 0.000388644
10 *3001:CLK 0.000216108
11 *3099:Z 0.000695561
12 *698:96 0.000867928
13 *698:92 0.000415066
14 *698:67 0.000409592
15 *698:26 0.000924259
16 *698:22 0.00135033
17 *698:16 0.00192948
18 *698:12 0.000544344
19 *698:10 0.000720596
20 *2997:CLK *873:10 6.89669e-05
21 *2998:CLK *2624:A3 0.000112472
22 *2998:CLK *3136:I 0
23 *2998:CLK *725:10 0.000342273
24 *2998:CLK *727:34 0.00023712
25 *698:16 *2628:A1 4.17866e-05
26 *698:22 *3156:I 4.38863e-05
27 *698:22 *708:24 0
28 *698:22 *708:30 0
29 *698:26 *708:30 1.86887e-06
30 *698:67 *2624:A1 0.000674891
31 *698:67 *2624:A2 9.3226e-06
32 *698:67 *2624:A3 5.14009e-05
33 *698:67 *725:10 1.23607e-05
34 *698:96 *2635:A1 1.07374e-05
35 *698:96 *2636:A1 0.00023286
36 *698:96 *738:28 6.11189e-05
37 *2521:A1 *2997:CLK 0
38 *2622:A1 *2998:CLK 0.000193631
39 *2626:A1 *698:10 0.00014822
40 *2626:A1 *698:12 0.000149577
41 *2626:A2 *698:67 6.78995e-05
42 *2626:A3 *698:67 9.04462e-05
43 *2629:A1 *3002:CLK 5.58654e-05
44 *2629:A2 *3002:CLK 0.000222631
45 *2630:B *3003:CLK 0.000109323
46 *2635:A2 *698:96 0.000418993
47 *2636:B *698:96 2.93938e-05
48 *2638:A2 *698:92 0.000481203
49 *2638:A2 *698:96 3.01487e-05
50 *2639:A3 *698:10 0
51 *2639:A3 *698:92 5.50498e-05
52 *2999:D *698:67 0.000187295
53 *3000:D *3002:CLK 0.000143583
54 *3000:D *698:26 0
55 *3001:D *3002:CLK 0
56 *3003:D *698:96 0.000356005
57 *3005:D *3005:CLK 0
58 *3088:D *698:22 8.37956e-05
59 *3096:I *3002:CLK 0
60 *3096:I *698:22 0
61 *3117:I *698:10 0.000283289
62 *3117:I *698:12 4.48509e-05
63 *3117:I *698:16 0.000165004
64 *455:10 *2998:CLK 0
65 *456:6 *698:10 6.75874e-06
66 *456:8 *698:10 1.20093e-05
67 *456:8 *698:92 0
68 *456:10 *698:96 0
69 *456:67 *698:10 0.000382916
70 *456:91 *698:10 0.00018902
71 *457:25 *3003:CLK 0.000111891
72 *457:25 *3005:CLK 5.59457e-05
73 *457:36 *3005:CLK 0.000177296
74 *458:10 *698:10 0.000726758
75 *458:10 *698:12 0.00023968
76 *458:12 *698:67 1.39839e-05
77 *463:14 *698:96 0.000168493
78 *463:20 *698:96 6.16286e-05
79 *486:20 *698:12 6.84426e-06
80 *486:20 *698:16 6.15984e-05
*RES
1 *3099:Z *698:10 14.4 
2 *698:10 *698:12 1.17 
3 *698:12 *698:16 8.55 
4 *698:16 *698:22 6.57 
5 *698:22 *698:26 2.16 
6 *698:26 *3001:CLK 5.85 
7 *698:26 *3002:CLK 17.37 
8 *698:22 *3000:CLK 4.5 
9 *698:16 *2997:CLK 7.29 
10 *698:12 *2315:I 9 
11 *698:10 *698:67 7.29 
12 *698:67 *2999:CLK 4.5 
13 *698:67 *2998:CLK 16.02 
14 *3099:Z *698:92 6.93 
15 *698:92 *698:96 7.11 
16 *698:96 *3003:CLK 10.53 
17 *698:96 *3005:CLK 13.32 
18 *698:92 *3004:CLK 4.5 
*END

*D_NET *699 0.0101769
*CONN
*I *3009:CLK I *D gf180mcu_fd_sc_mcu7t5v0__dffq_1
*I *3012:CLK I *D gf180mcu_fd_sc_mcu7t5v0__dffq_1
*I *3013:CLK I *D gf180mcu_fd_sc_mcu7t5v0__dffq_1
*I *3124:I I *D gf180mcu_fd_sc_mcu7t5v0__clkinv_2
*I *3011:CLK I *D gf180mcu_fd_sc_mcu7t5v0__dffq_1
*I *3010:CLK I *D gf180mcu_fd_sc_mcu7t5v0__dffq_1
*I *3006:CLK I *D gf180mcu_fd_sc_mcu7t5v0__dffq_1
*I *3007:CLK I *D gf180mcu_fd_sc_mcu7t5v0__dffq_1
*I *3008:CLK I *D gf180mcu_fd_sc_mcu7t5v0__dffq_1
*I *3100:Z O *D gf180mcu_fd_sc_mcu7t5v0__clkbuf_16
*CAP
1 *3009:CLK 0
2 *3012:CLK 0
3 *3013:CLK 0.000113568
4 *3124:I 0
5 *3011:CLK 1.71258e-05
6 *3010:CLK 7.71609e-05
7 *3006:CLK 0.000229056
8 *3007:CLK 0
9 *3008:CLK 0.000180378
10 *3100:Z 0.00045816
11 *699:83 0.000265989
12 *699:77 0.000326582
13 *699:68 0.000334692
14 *699:21 0.00035872
15 *699:8 0.000513384
16 *3006:CLK *2649:A1 1.60944e-05
17 *3008:CLK *2646:A1 0
18 *3010:CLK *733:14 1.56942e-05
19 *3011:CLK *2659:A1 0.000104951
20 *3011:CLK *732:29 0.000329949
21 *3013:CLK *2657:A2 5.72035e-05
22 *699:8 *742:10 2.82424e-05
23 *699:8 *742:36 0.000670345
24 *699:21 *2646:A1 0.000133786
25 *699:21 *2648:A1 0.000375176
26 *699:21 *728:10 0.000466026
27 *699:21 *728:21 0.00071904
28 *699:21 *742:12 7.48093e-05
29 *699:68 *732:20 6.0603e-05
30 *699:77 *2657:A1 0.000879114
31 *699:77 *743:30 2.71524e-05
32 *2647:A2 *3008:CLK 9.09867e-05
33 *2647:A2 *699:8 3.22829e-05
34 *2650:A3 *3008:CLK 1.32722e-05
35 *2653:A2 *699:8 8.44077e-06
36 *2655:B *3010:CLK 7.13114e-05
37 *2655:B *699:68 4.57514e-05
38 *2657:A3 *699:77 0.000540278
39 *2658:A2 *3013:CLK 0.00048874
40 *2660:A2 *699:83 7.58849e-05
41 *3007:D *3006:CLK 3.97987e-05
42 *3007:D *699:21 0.000528649
43 *3009:D *3010:CLK 0.000428567
44 *3010:D *3011:CLK 0.0004349
45 *457:47 *699:21 2.12098e-05
46 *457:71 *699:83 7.58849e-05
47 *470:19 *699:21 5.00297e-05
48 *470:32 *3006:CLK 0
49 *474:12 *3008:CLK 1.31349e-05
50 *474:12 *699:8 1.64952e-05
51 *475:10 *699:8 0.000106536
52 *475:49 *699:8 0.000261724
*RES
1 *3100:Z *699:8 7.2 
2 *699:8 *3008:CLK 5.85 
3 *699:8 *699:21 12.87 
4 *699:21 *3007:CLK 4.5 
5 *699:21 *3006:CLK 5.85 
6 *3100:Z *3010:CLK 10.17 
7 *3100:Z *3011:CLK 10.17 
8 *3100:Z *699:68 14.49 
9 *699:68 *3124:I 4.5 
10 *699:68 *699:77 2.7 
11 *699:77 *699:83 10.35 
12 *699:83 *3013:CLK 5.85 
13 *699:83 *3012:CLK 4.5 
14 *699:77 *3009:CLK 4.5 
*END

*D_NET *700 0.0211111
*CONN
*I *2978:CLK I *D gf180mcu_fd_sc_mcu7t5v0__dffq_1
*I *2996:CLK I *D gf180mcu_fd_sc_mcu7t5v0__dffq_1
*I *3040:CLK I *D gf180mcu_fd_sc_mcu7t5v0__dffq_1
*I *3042:CLK I *D gf180mcu_fd_sc_mcu7t5v0__dffq_1
*I *3041:CLK I *D gf180mcu_fd_sc_mcu7t5v0__dffq_1
*I *2995:CLK I *D gf180mcu_fd_sc_mcu7t5v0__dffq_1
*I *2992:CLK I *D gf180mcu_fd_sc_mcu7t5v0__dffq_1
*I *2993:CLK I *D gf180mcu_fd_sc_mcu7t5v0__dffq_1
*I *2994:CLK I *D gf180mcu_fd_sc_mcu7t5v0__dffq_1
*I *2977:CLK I *D gf180mcu_fd_sc_mcu7t5v0__dffq_1
*I *3044:CLK I *D gf180mcu_fd_sc_mcu7t5v0__dffq_1
*I *3118:I I *D gf180mcu_fd_sc_mcu7t5v0__clkbuf_4
*I *3101:Z O *D gf180mcu_fd_sc_mcu7t5v0__clkbuf_8
*CAP
1 *2978:CLK 0
2 *2996:CLK 0
3 *3040:CLK 0
4 *3042:CLK 0
5 *3041:CLK 0.000459818
6 *2995:CLK 0
7 *2992:CLK 0.000512489
8 *2993:CLK 0
9 *2994:CLK 0.000257541
10 *2977:CLK 0
11 *3044:CLK 0.000858059
12 *3118:I 0.000973613
13 *3101:Z 0
14 *700:103 0.000797423
15 *700:99 0.00124176
16 *700:63 0.000598839
17 *700:55 0.000961503
18 *700:53 0.0004647
19 *700:51 0.00150395
20 *700:49 0.000660889
21 *700:27 0.00109981
22 *700:19 0.000829814
23 *700:17 0.000632627
24 *700:4 0.00143625
25 *3044:CLK *2777:A2 0.000203125
26 *3044:CLK *3137:I 0
27 *3044:CLK *962:31 0
28 *3118:I *2454:A1 2.37527e-05
29 *3118:I *2454:A2 0.000224777
30 *3118:I *2866:C1 7.82936e-05
31 *700:17 *3172:I 0
32 *700:17 *3184:I 0
33 *700:19 *2513:A1 4.27e-05
34 *700:19 *3172:I 2.09122e-05
35 *700:27 *3137:I 0.000180811
36 *700:27 *3172:I 8.12023e-06
37 *700:49 *2584:A1 6.51736e-05
38 *700:49 *3172:I 0.000138305
39 *700:51 *2581:A1 7.16551e-06
40 *700:51 *2584:A1 0.000299724
41 *700:51 *2584:A3 0
42 *700:51 *875:42 2.56098e-05
43 *700:53 *2581:A1 4.2766e-05
44 *700:99 *2580:A1 0.000184693
45 *700:99 *2584:A3 0.000248583
46 *700:99 *874:21 0.000379504
47 *2454:B *3118:I 0
48 *2455:A2 *3118:I 3.53964e-05
49 *2455:A2 *700:17 9.57249e-05
50 *2579:A1 *2992:CLK 0.000260418
51 *2579:A1 *700:63 3.01487e-05
52 *2579:A2 *2992:CLK 2.53817e-05
53 *2579:A2 *700:63 3.55118e-05
54 *2579:A3 *700:53 0
55 *2579:A3 *700:55 0
56 *2579:A3 *700:63 0
57 *2580:A2 *2992:CLK 0
58 *2582:A1 *700:99 0
59 *2582:A2 *700:99 0
60 *2582:A3 *2992:CLK 6.31783e-05
61 *2582:A3 *700:53 0
62 *2582:A3 *700:63 0
63 *2584:A4 *700:51 2.36954e-05
64 *2584:A4 *700:99 9.34436e-06
65 *2585:A2 *700:19 0.000186096
66 *2585:A2 *700:49 4.50142e-05
67 *2586:A2 *700:49 7.21742e-05
68 *2587:A2 *700:49 0
69 *2777:A1 *3044:CLK 0.000284991
70 *2784:A1 *700:99 0
71 *2791:C *3044:CLK 0.00069741
72 *2793:A2 *3044:CLK 0.000125724
73 *2793:B *3044:CLK 0
74 *2978:D *700:17 0
75 *2993:D *700:63 4.18699e-05
76 *2995:D *700:51 0.000370481
77 *2995:D *700:53 0.000763634
78 *2995:D *700:99 2.3037e-05
79 *2996:D *700:49 0.00118202
80 *3041:D *3041:CLK 2.8591e-05
81 *3041:D *700:99 1.90816e-05
82 *3044:D *3044:CLK 3.22114e-05
83 *3108:I *3118:I 6.78766e-05
84 *371:83 *700:19 3.01487e-05
85 *371:83 *700:27 0.000309999
86 *373:12 *700:19 5.25121e-06
87 *373:12 *700:27 7.95552e-06
88 *373:12 *700:49 0.000196261
89 *373:23 *700:17 1.23119e-05
90 *373:23 *700:19 1.03727e-05
91 *373:23 *700:49 0
92 *373:23 *700:51 0
93 *373:50 *2992:CLK 0.000556678
94 *418:8 *700:53 0
*RES
1 *3101:Z *700:4 4.5 
2 *700:4 *3118:I 11.34 
3 *700:4 *700:17 3.24 
4 *700:17 *700:19 1.35 
5 *700:19 *700:27 11.52 
6 *700:27 *3044:CLK 11.88 
7 *700:27 *2977:CLK 4.5 
8 *700:19 *700:49 9.81 
9 *700:49 *700:51 2.25 
10 *700:51 *700:53 3.15 
11 *700:53 *700:55 0.63 
12 *700:55 *700:63 6.75 
13 *700:63 *2994:CLK 6.3 
14 *700:63 *2993:CLK 4.5 
15 *700:55 *2992:CLK 14.13 
16 *700:53 *2995:CLK 9 
17 *700:51 *700:99 11.34 
18 *700:99 *700:103 2.16 
19 *700:103 *3041:CLK 7.74 
20 *700:103 *3042:CLK 4.5 
21 *700:99 *3040:CLK 4.5 
22 *700:49 *2996:CLK 9 
23 *700:17 *2978:CLK 4.5 
*END

*D_NET *701 0.0206061
*CONN
*I *3132:I I *D gf180mcu_fd_sc_mcu7t5v0__inv_3
*I *3063:CLK I *D gf180mcu_fd_sc_mcu7t5v0__dffq_1
*I *3061:CLK I *D gf180mcu_fd_sc_mcu7t5v0__dffq_1
*I *3065:CLK I *D gf180mcu_fd_sc_mcu7t5v0__dffq_1
*I *3060:CLK I *D gf180mcu_fd_sc_mcu7t5v0__dffq_1
*I *3058:CLK I *D gf180mcu_fd_sc_mcu7t5v0__dffq_1
*I *3064:CLK I *D gf180mcu_fd_sc_mcu7t5v0__dffq_1
*I *3069:CLK I *D gf180mcu_fd_sc_mcu7t5v0__dffq_1
*I *3067:CLK I *D gf180mcu_fd_sc_mcu7t5v0__dffq_1
*I *3059:CLK I *D gf180mcu_fd_sc_mcu7t5v0__dffq_1
*I *3102:Z O *D gf180mcu_fd_sc_mcu7t5v0__clkbuf_8
*CAP
1 *3132:I 0.000225795
2 *3063:CLK 0
3 *3061:CLK 0
4 *3065:CLK 0
5 *3060:CLK 3.44897e-05
6 *3058:CLK 0.000128031
7 *3064:CLK 0
8 *3069:CLK 0.00046517
9 *3067:CLK 0
10 *3059:CLK 4.58119e-05
11 *3102:Z 9.05438e-05
12 *701:100 0.000332148
13 *701:70 0.000420461
14 *701:43 0.00095407
15 *701:37 0.000844605
16 *701:26 0.000734073
17 *701:18 0.000776845
18 *701:16 0.000436429
19 *701:12 0.000459951
20 *701:8 0.000406768
21 *3058:CLK *2591:A1 6.60809e-05
22 *3059:CLK *2593:A1 0.000436469
23 *3059:CLK *743:30 0
24 *3069:CLK *2595:A1 5.67458e-05
25 *3069:CLK *2822:B2 0.000242643
26 *3069:CLK *2837:A1 0.00104169
27 *3069:CLK *2838:B2 0.00045656
28 *3132:I *2821:A1 9.20679e-05
29 *3132:I *756:352 0.000244865
30 *3132:I *756:364 0.000475342
31 *3132:I *758:25 0.000638833
32 *701:8 *850:27 0.000101615
33 *701:12 *2906:A1 3.55118e-05
34 *701:12 *753:27 0.000134003
35 *701:16 *2906:A1 0.000544961
36 *701:16 *852:32 0
37 *701:18 *2591:A1 0.000672559
38 *701:18 *852:32 0.00015963
39 *701:26 *743:30 7.43298e-06
40 *701:26 *744:24 0.000613055
41 *701:26 *749:22 7.31694e-05
42 *701:26 *756:401 6.96766e-06
43 *701:37 *2593:A1 9.39061e-05
44 *701:37 *847:18 0.000463511
45 *701:37 *860:18 0
46 *701:37 *861:23 2.76794e-05
47 *701:43 *2595:A1 8.40905e-05
48 *701:43 *2602:A1 7.20334e-05
49 *701:43 *2838:B2 0.000151427
50 *701:43 *847:18 0.000926059
51 *701:43 *860:18 0
52 *701:43 *861:10 2.87839e-05
53 *701:43 *861:23 5.42613e-05
54 *701:70 *2591:A1 2.2029e-05
55 *2316:A2 *701:8 0.000255088
56 *2609:A3 *701:43 8.96572e-05
57 *2810:A1 *701:8 0
58 *2813:A1 *3132:I 0.000203127
59 *2871:A1 *701:100 1.04144e-05
60 *2890:A1 *701:8 1.90142e-05
61 *2890:A2 *701:12 9.30128e-05
62 *2892:A2 *3058:CLK 3.97987e-05
63 *2894:A1 *3059:CLK 0.000354719
64 *2894:A1 *701:26 0.000598609
65 *2906:A2 *701:16 5.29798e-05
66 *2906:A2 *701:18 3.01487e-05
67 *2908:A2 *3132:I 4.55112e-05
68 *2908:A2 *701:12 0.000145519
69 *2908:A2 *701:100 9.04462e-05
70 *2908:A3 *701:12 0.000338816
71 *2908:A3 *701:16 9.3226e-06
72 *2910:A2 *701:26 0.000158798
73 *2910:B *701:26 3.10415e-05
74 *3058:D *3059:CLK 6.44696e-05
75 *3059:D *701:37 2.63211e-05
76 *3060:D *701:70 0.000328407
77 *3063:D *701:8 1.18076e-06
78 *3063:D *701:100 1.89688e-06
79 *264:12 *3132:I 9.85004e-05
80 *591:30 *3058:CLK 0.000190246
81 *591:30 *3060:CLK 0
82 *591:30 *3132:I 0.000223401
83 *591:30 *701:18 0.000151008
84 *591:30 *701:70 0.000451654
85 *591:30 *701:100 2.08301e-05
86 *605:20 *701:12 0.000189706
87 *605:20 *701:100 0.000142139
88 *605:39 *701:8 4.79105e-05
89 *605:39 *701:100 6.81379e-06
90 *664:32 *701:16 0.000835903
91 *664:32 *701:18 4.65279e-05
92 *664:46 *701:26 9.04462e-05
93 *665:55 *701:18 0.000743563
*RES
1 *3102:Z *701:8 9.99 
2 *701:8 *701:12 6.93 
3 *701:12 *701:16 3.06 
4 *701:16 *701:18 3.51 
5 *701:18 *701:26 12.42 
6 *701:26 *3059:CLK 5.85 
7 *701:26 *701:37 7.65 
8 *701:37 *701:43 10.98 
9 *701:43 *3067:CLK 4.5 
10 *701:43 *3069:CLK 10.17 
11 *701:37 *3064:CLK 9 
12 *701:18 *701:70 3.24 
13 *701:70 *3058:CLK 5.85 
14 *701:70 *3060:CLK 4.77 
15 *701:16 *3065:CLK 4.5 
16 *701:12 *3061:CLK 4.5 
17 *701:8 *701:100 5.4 
18 *701:100 *3063:CLK 4.5 
19 *701:100 *3132:I 8.64 
*END

*D_NET *702 0.0170411
*CONN
*I *3049:CLK I *D gf180mcu_fd_sc_mcu7t5v0__dffq_1
*I *3050:CLK I *D gf180mcu_fd_sc_mcu7t5v0__dffq_1
*I *3048:CLK I *D gf180mcu_fd_sc_mcu7t5v0__dffq_1
*I *3077:CLK I *D gf180mcu_fd_sc_mcu7t5v0__dffq_1
*I *3062:CLK I *D gf180mcu_fd_sc_mcu7t5v0__dffq_1
*I *3120:I I *D gf180mcu_fd_sc_mcu7t5v0__inv_4
*I *3075:CLK I *D gf180mcu_fd_sc_mcu7t5v0__dffq_1
*I *3081:CLK I *D gf180mcu_fd_sc_mcu7t5v0__dffq_1
*I *3103:Z O *D gf180mcu_fd_sc_mcu7t5v0__clkbuf_8
*CAP
1 *3049:CLK 3.44897e-05
2 *3050:CLK 7.41717e-05
3 *3048:CLK 2.74449e-05
4 *3077:CLK 0.000878884
5 *3062:CLK 0.00072323
6 *3120:I 1.33893e-05
7 *3075:CLK 0.000123836
8 *3081:CLK 8.22303e-05
9 *3103:Z 0.0019292
10 *702:90 0.000211448
11 *702:81 0.000317358
12 *702:66 0.00197358
13 *702:14 0.000387297
14 *702:10 0.000493028
15 *3048:CLK *756:344 0.000169515
16 *3048:CLK *782:14 2.37143e-05
17 *3049:CLK *756:344 0
18 *3050:CLK *756:344 0.000480025
19 *3050:CLK *782:14 7.77173e-05
20 *3062:CLK *2829:B2 6.03144e-06
21 *3062:CLK *2830:A1 7.191e-07
22 *3062:CLK *2869:A1 2.16833e-05
23 *3062:CLK *2869:B2 0.000306559
24 *3075:CLK *2837:A1 9.51133e-05
25 *3077:CLK *2832:A1 3.37908e-05
26 *3077:CLK *2847:A1 1.52092e-05
27 *3077:CLK *759:42 6.89225e-06
28 *3081:CLK *2837:A1 5.69493e-05
29 *3120:I *2845:A1 0.000161479
30 *702:10 *2830:A1 3.32853e-05
31 *702:10 *2862:B2 8.30408e-05
32 *702:66 *2364:A1 0.000326756
33 *702:66 *2830:A1 7.2661e-05
34 *702:66 *743:62 0
35 *702:81 *2824:A1 5.17969e-05
36 *702:81 *2832:A1 0.000137179
37 *702:90 *756:344 0.000313863
38 *702:90 *782:14 3.12524e-05
39 *2319:A1 *3062:CLK 4.91761e-05
40 *2350:B *3077:CLK 0.000169927
41 *2357:A1 *3077:CLK 9.04462e-05
42 *2366:A1 *3077:CLK 8.49143e-05
43 *2812:I *702:66 0.00114005
44 *2816:A1 *702:66 7.3967e-06
45 *2817:A2 *702:66 0.000139498
46 *2824:B2 *3077:CLK 0.000225845
47 *2829:A1 *3062:CLK 9.04462e-05
48 *2829:B1 *3062:CLK 4.1025e-05
49 *2845:B1 *3077:CLK 2.76752e-05
50 *2845:B2 *3077:CLK 0.000152219
51 *2847:A2 *3077:CLK 0
52 *2847:B *3077:CLK 3.70209e-05
53 *2855:A2 *3077:CLK 0.00133104
54 *2869:B1 *3062:CLK 0.000394397
55 *2871:A2 *702:66 0
56 *2881:A1 *3077:CLK 0
57 *2881:A1 *3120:I 0.000161479
58 *3185:I *3062:CLK 0.000346684
59 *3185:I *702:10 2.23795e-05
60 *245:12 *3062:CLK 4.938e-05
61 *247:80 *702:66 0
62 *248:8 *3077:CLK 0
63 *248:8 *702:81 0
64 *253:22 *3077:CLK 9.39061e-05
65 *253:26 *3075:CLK 0.000617399
66 *253:26 *3081:CLK 0.00034797
67 *265:10 *3062:CLK 8.68281e-06
68 *265:29 *3062:CLK 7.65946e-06
69 *265:29 *702:10 2.31089e-05
70 *266:111 *3077:CLK 4.78006e-05
71 *283:21 *3077:CLK 1.39313e-05
72 *283:27 *3077:CLK 2.36954e-05
73 *595:28 *702:66 7.19502e-05
74 *595:45 *702:66 0.000113888
75 *600:16 *702:10 0
76 *600:16 *702:66 1.79158e-05
77 *601:16 *702:10 0.000234965
78 *601:16 *702:14 0.000390817
79 *605:39 *3062:CLK 7.58976e-05
80 *694:254 *702:10 0.000110791
81 *694:254 *702:14 0.000504948
*RES
1 *3103:Z *702:10 11.88 
2 *702:10 *702:14 7.65 
3 *702:14 *3081:CLK 5.49 
4 *702:14 *3075:CLK 6.21 
5 *702:10 *3120:I 9.45 
6 *3103:Z *3062:CLK 14.58 
7 *3103:Z *702:66 26.82 
8 *702:66 *3077:CLK 16.92 
9 *702:66 *702:81 6.03 
10 *702:81 *3048:CLK 4.95 
11 *702:81 *702:90 0.99 
12 *702:90 *3050:CLK 5.85 
13 *702:90 *3049:CLK 4.77 
*END

*D_NET *703 0.0194125
*CONN
*I *3084:CLK I *D gf180mcu_fd_sc_mcu7t5v0__dffq_1
*I *2965:CLK I *D gf180mcu_fd_sc_mcu7t5v0__dffq_1
*I *3030:CLK I *D gf180mcu_fd_sc_mcu7t5v0__dffq_1
*I *3121:I I *D gf180mcu_fd_sc_mcu7t5v0__clkinv_4
*I *2968:CLK I *D gf180mcu_fd_sc_mcu7t5v0__dffq_1
*I *2960:CLK I *D gf180mcu_fd_sc_mcu7t5v0__dffq_1
*I *3074:CLK I *D gf180mcu_fd_sc_mcu7t5v0__dffq_1
*I *3076:CLK I *D gf180mcu_fd_sc_mcu7t5v0__dffq_1
*I *3031:CLK I *D gf180mcu_fd_sc_mcu7t5v0__dffq_1
*I *3104:Z O *D gf180mcu_fd_sc_mcu7t5v0__clkbuf_8
*CAP
1 *3084:CLK 0
2 *2965:CLK 7.7922e-05
3 *3030:CLK 4.55112e-05
4 *3121:I 0.000375185
5 *2968:CLK 0
6 *2960:CLK 0.000361064
7 *3074:CLK 0.00030088
8 *3076:CLK 0.000197748
9 *3031:CLK 0.00016923
10 *3104:Z 0.000951529
11 *703:54 0.000581458
12 *703:52 0.000649139
13 *703:50 0.000144808
14 *703:48 0.000316817
15 *703:35 0.000605515
16 *703:31 0.000236221
17 *703:20 0.00110479
18 *2960:CLK *2303:I 0.000449911
19 *2960:CLK *2501:A1 0.000872504
20 *2960:CLK *2842:C2 0.000945785
21 *2960:CLK *2878:B2 8.3187e-05
22 *2965:CLK *756:148 0.000498052
23 *3074:CLK *2376:A1 0.000338425
24 *3074:CLK *2511:A1 0.000469918
25 *3074:CLK *756:148 4.98644e-05
26 *3121:I *918:14 0.000362773
27 *3121:I *918:33 0.000521561
28 *703:31 *782:18 0.000316263
29 *703:31 *783:24 0.000508459
30 *703:35 *782:18 0.000323747
31 *703:35 *783:24 0.000491343
32 *703:48 *3142:I 0.000632064
33 *703:48 *756:148 5.63942e-05
34 *703:54 *2878:B2 0.000296735
35 *2346:A2 *3074:CLK 0.000117854
36 *2371:I0 *3076:CLK 0.000473387
37 *2496:A1 *3030:CLK 0.000479291
38 *2496:A1 *3121:I 7.60924e-05
39 *2496:A2 *3074:CLK 3.55118e-05
40 *2496:A2 *703:48 7.10237e-05
41 *2679:A1 *3121:I 6.95119e-05
42 *2746:A1 *3031:CLK 3.22122e-05
43 *2746:A1 *703:20 0
44 *2749:B2 *2965:CLK 0.000312562
45 *2749:B2 *3121:I 0.000100339
46 *2749:B2 *703:50 0.000219114
47 *2749:B2 *703:52 0.000375166
48 *2749:B2 *703:54 0.000309993
49 *2860:A1 *703:20 0
50 *2960:D *2960:CLK 0
51 *2965:D *703:48 5.72337e-05
52 *3213:I *3121:I 9.26913e-05
53 *244:61 *3076:CLK 0.000348427
54 *244:61 *703:20 5.30751e-05
55 *244:61 *703:31 6.98034e-05
56 *284:28 *3076:CLK 0.000144397
57 *295:63 *703:20 0
58 *371:8 *3074:CLK 2.3015e-05
59 *372:60 *3030:CLK 0.000479291
60 *372:60 *3074:CLK 0.00095453
61 *372:60 *703:48 1.07374e-05
62 *503:36 *2960:CLK 0
63 *656:14 *2960:CLK 0.000247524
64 *656:14 *2965:CLK 6.67701e-05
65 *656:14 *703:50 4.29609e-05
66 *656:14 *703:52 8.06007e-05
67 *656:14 *703:54 0.000297625
68 *690:34 *3076:CLK 6.2979e-05
69 *690:34 *703:20 0.000269238
70 *694:201 *3031:CLK 4.34121e-06
71 *694:217 *3031:CLK 0.000100396
*RES
1 *3104:Z *3031:CLK 10.53 
2 *3104:Z *703:20 9.72 
3 *703:20 *3076:CLK 7.11 
4 *703:20 *703:31 7.47 
5 *703:31 *703:35 7.29 
6 *703:35 *3074:CLK 8.64 
7 *703:35 *703:48 7.11 
8 *703:48 *703:50 0.63 
9 *703:50 *703:52 0.99 
10 *703:52 *703:54 3.33 
11 *703:54 *2960:CLK 14.58 
12 *703:54 *2968:CLK 9 
13 *703:52 *3121:I 12.87 
14 *703:50 *3030:CLK 10.35 
15 *703:48 *2965:CLK 11.16 
16 *703:31 *3084:CLK 9 
*END

*D_NET *704 0.0249596
*CONN
*I *3122:I I *D gf180mcu_fd_sc_mcu7t5v0__clkbuf_4
*I *3029:CLK I *D gf180mcu_fd_sc_mcu7t5v0__dffq_1
*I *3026:CLK I *D gf180mcu_fd_sc_mcu7t5v0__dffq_1
*I *3027:CLK I *D gf180mcu_fd_sc_mcu7t5v0__dffq_1
*I *2962:CLK I *D gf180mcu_fd_sc_mcu7t5v0__dffq_1
*I *3025:CLK I *D gf180mcu_fd_sc_mcu7t5v0__dffq_1
*I *3024:CLK I *D gf180mcu_fd_sc_mcu7t5v0__dffq_1
*I *2954:CLK I *D gf180mcu_fd_sc_mcu7t5v0__dffq_1
*I *3023:CLK I *D gf180mcu_fd_sc_mcu7t5v0__dffq_1
*I *3028:CLK I *D gf180mcu_fd_sc_mcu7t5v0__dffq_1
*I *3032:CLK I *D gf180mcu_fd_sc_mcu7t5v0__dffq_1
*I *3033:CLK I *D gf180mcu_fd_sc_mcu7t5v0__dffq_1
*I *3105:Z O *D gf180mcu_fd_sc_mcu7t5v0__clkbuf_8
*CAP
1 *3122:I 0
2 *3029:CLK 0.000251873
3 *3026:CLK 0.000419959
4 *3027:CLK 0.000215778
5 *2962:CLK 0
6 *3025:CLK 0.000133897
7 *3024:CLK 0
8 *2954:CLK 0.000266446
9 *3023:CLK 0.000142848
10 *3028:CLK 3.44897e-05
11 *3032:CLK 5.99691e-05
12 *3033:CLK 0.000794492
13 *3105:Z 4.87104e-05
14 *704:125 0.000287217
15 *704:91 0.000507368
16 *704:51 0.000467084
17 *704:49 0.000183831
18 *704:47 0.000599894
19 *704:45 0.000631545
20 *704:43 0.00076972
21 *704:34 0.000845081
22 *704:10 0.00127895
23 *704:6 0.000898685
24 *2954:CLK *2473:A1 9.40498e-06
25 *2954:CLK *2474:C 0.000496776
26 *3023:CLK *2473:A1 0.000297533
27 *3025:CLK *2730:B 0.000216299
28 *3025:CLK *784:69 0.000297533
29 *3026:CLK *2733:A1 1.61174e-05
30 *3026:CLK *2734:B 4.58451e-05
31 *3026:CLK *3149:I 2.49724e-05
32 *3026:CLK *915:12 0.000641754
33 *3027:CLK *2489:A1 0
34 *3027:CLK *914:14 0.000135783
35 *3032:CLK *2678:B 7.84041e-05
36 *3032:CLK *920:45 7.20436e-05
37 *3033:CLK *2675:A1 4.22217e-05
38 *3033:CLK *2757:A1 0.000656427
39 *3033:CLK *2758:A1 3.22122e-05
40 *3033:CLK *2758:B 4.2405e-05
41 *3033:CLK *920:6 1.23607e-05
42 *704:10 *2675:A1 0.000101812
43 *704:10 *2754:B 1.61217e-05
44 *704:10 *2758:B 0.000176289
45 *704:34 *2754:A1 2.14748e-05
46 *704:34 *784:29 2.08301e-05
47 *704:34 *784:42 7.16036e-05
48 *704:34 *784:46 0.00111885
49 *704:43 *2733:A1 9.3226e-06
50 *704:43 *2736:A1 7.56389e-05
51 *704:43 *784:46 0.000247231
52 *704:43 *914:35 4.27484e-05
53 *704:43 *914:44 0.000100389
54 *704:43 *915:12 0.000735646
55 *704:47 *2730:A1 3.16214e-05
56 *704:47 *784:52 8.56798e-05
57 *704:47 *913:19 0.000345122
58 *704:47 *913:21 8.42806e-05
59 *704:91 *784:52 3.10415e-05
60 *2474:A1 *2954:CLK 1.59125e-05
61 *2474:B *2954:CLK 3.55744e-05
62 *2489:A2 *3027:CLK 2.26729e-05
63 *2490:A1 *3027:CLK 2.65444e-06
64 *2490:A1 *704:91 2.12098e-05
65 *2492:A1 *704:91 0.000164228
66 *2675:A4 *704:10 0
67 *2679:A2 *704:10 0.000212085
68 *2725:A2 *3023:CLK 0
69 *2730:A2 *3025:CLK 1.86887e-06
70 *2733:A2 *704:43 9.04462e-05
71 *2733:B2 *3026:CLK 1.58782e-05
72 *2735:A1 *3026:CLK 0.000795674
73 *2738:A1 *704:91 0.000375176
74 *2738:A2 *704:91 9.93872e-05
75 *2750:A2 *704:6 9.04462e-05
76 *2750:A2 *704:10 3.55431e-05
77 *2750:A2 *704:34 0.000117286
78 *2755:A1 *3029:CLK 0.000308241
79 *2755:A2 *704:10 0.00015651
80 *2755:A2 *704:34 6.23112e-05
81 *2761:A2 *3033:CLK 0
82 *2962:D *3027:CLK 3.11274e-05
83 *3024:D *3023:CLK 0.000182206
84 *3025:D *3025:CLK 1.9246e-05
85 *3026:D *3026:CLK 0
86 *10:20 *704:91 0.000296375
87 *295:166 *3033:CLK 4.45177e-05
88 *372:208 *704:125 0.00042307
89 *499:20 *3032:CLK 0.000354738
90 *502:37 *3029:CLK 0.000292006
91 *502:172 *704:47 9.39061e-05
92 *502:172 *704:91 0.000614846
93 *502:178 *704:47 0.00137592
94 *502:191 *3023:CLK 0.000385445
95 *502:191 *704:47 0.000583544
96 *502:191 *704:49 0.000737008
97 *502:191 *704:51 0.000309993
98 *502:206 *3023:CLK 6.51329e-06
99 *503:62 *3029:CLK 0
100 *503:75 *704:125 0.000415026
101 *531:10 *3023:CLK 0
102 *531:10 *704:47 0
103 *531:10 *704:49 0
104 *531:10 *704:51 0
105 *531:23 *704:47 0
106 *549:29 *704:6 9.04462e-05
107 *549:29 *704:34 0.00034797
108 *552:16 *3033:CLK 0.000461005
109 *599:44 *3033:CLK 0
110 *599:44 *704:10 0
*RES
1 *3105:Z *704:6 4.77 
2 *704:6 *704:10 8.55 
3 *704:10 *3033:CLK 15.84 
4 *704:10 *3032:CLK 9.99 
5 *704:6 *704:34 5.04 
6 *704:34 *3028:CLK 4.77 
7 *704:34 *704:43 3.87 
8 *704:43 *704:45 4.5 
9 *704:45 *704:47 5.31 
10 *704:47 *704:49 1.89 
11 *704:49 *704:51 0.81 
12 *704:51 *3023:CLK 11.34 
13 *704:51 *2954:CLK 11.61 
14 *704:49 *3024:CLK 9 
15 *704:47 *3025:CLK 10.35 
16 *704:45 *704:91 8.55 
17 *704:91 *2962:CLK 4.5 
18 *704:91 *3027:CLK 6.3 
19 *704:43 *3026:CLK 9.18 
20 *3105:Z *704:125 5.67 
21 *704:125 *3029:CLK 16.11 
22 *704:125 *3122:I 4.5 
*END

*D_NET *705 0.0193114
*CONN
*I *3052:CLK I *D gf180mcu_fd_sc_mcu7t5v0__dffq_1
*I *3054:CLK I *D gf180mcu_fd_sc_mcu7t5v0__dffq_1
*I *3053:CLK I *D gf180mcu_fd_sc_mcu7t5v0__dffq_1
*I *3051:CLK I *D gf180mcu_fd_sc_mcu7t5v0__dffq_1
*I *3055:CLK I *D gf180mcu_fd_sc_mcu7t5v0__dffq_1
*I *3123:I I *D gf180mcu_fd_sc_mcu7t5v0__inv_3
*I *2972:CLK I *D gf180mcu_fd_sc_mcu7t5v0__dffq_1
*I *2964:CLK I *D gf180mcu_fd_sc_mcu7t5v0__dffq_1
*I *3083:CLK I *D gf180mcu_fd_sc_mcu7t5v0__dffq_1
*I *3082:CLK I *D gf180mcu_fd_sc_mcu7t5v0__dffq_1
*I *3106:Z O *D gf180mcu_fd_sc_mcu7t5v0__clkbuf_8
*CAP
1 *3052:CLK 0
2 *3054:CLK 0.000146785
3 *3053:CLK 0
4 *3051:CLK 9.30031e-05
5 *3055:CLK 0.000113423
6 *3123:I 0.000220229
7 *2972:CLK 0
8 *2964:CLK 0.000176015
9 *3083:CLK 0.000496851
10 *3082:CLK 8.58718e-05
11 *3106:Z 0.000234676
12 *705:91 0.000266062
13 *705:82 0.000657023
14 *705:76 0.000744446
15 *705:61 0.000515619
16 *705:45 0.000374892
17 *705:16 0.000930485
18 *705:14 0.000792629
19 *705:10 0.00100789
20 *705:8 0.00092154
21 *2964:CLK *756:144 3.99171e-05
22 *3051:CLK *2848:A1 0.000507492
23 *3051:CLK *2865:A1 5.56393e-05
24 *3054:CLK *2848:A1 0.000927891
25 *3054:CLK *2865:A1 2.65444e-06
26 *3054:CLK *768:14 0.00024528
27 *3055:CLK *3221:I 4.45837e-05
28 *3055:CLK *759:36 0.000496785
29 *3083:CLK *782:18 0.000241954
30 *3123:I *756:134 0.000443189
31 *3123:I *782:79 0.00040142
32 *705:8 *2298:I 0.000141012
33 *705:8 *2878:C2 2.26729e-05
34 *705:8 *3143:I 8.12451e-05
35 *705:8 *706:10 0.000628106
36 *705:8 *759:36 3.60275e-05
37 *705:10 *2304:I 0.000427025
38 *705:10 *2878:B2 9.93993e-06
39 *705:10 *2878:C2 0.000157562
40 *705:14 *2304:I 0.000109323
41 *705:14 *2878:B2 0.000159295
42 *705:14 *756:144 0.00012136
43 *705:45 *756:134 3.01487e-05
44 *705:45 *782:79 0.000255084
45 *705:61 *2864:A1 0.000164228
46 *705:76 *2864:A1 0.000256745
47 *705:76 *3221:I 0.000111349
48 *705:76 *759:36 3.53507e-05
49 *705:91 *2848:A1 0.00045592
50 *705:91 *2865:A1 6.75054e-06
51 *2471:B *3123:I 1.86887e-06
52 *2494:A1 *705:45 0.000711467
53 *2510:A1 *705:8 0.000404299
54 *2857:A2 *705:10 2.76726e-05
55 *2857:A2 *705:61 4.85078e-05
56 *2857:A2 *705:76 3.22593e-05
57 *2864:A2 *705:76 7.55765e-06
58 *2864:A2 *705:82 0
59 *2865:A2 *3054:CLK 3.74036e-05
60 *2865:A2 *705:61 1.17752e-05
61 *2865:A2 *705:82 0.0003823
62 *2865:A2 *705:91 3.94638e-05
63 *2881:A1 *705:8 0.000496785
64 *2881:A2 *705:10 0.000362328
65 *2881:B *705:8 0.000109215
66 *2882:A2 *705:8 0.000496776
67 *3052:D *705:10 1.70821e-05
68 *3052:D *705:61 5.45299e-06
69 *3052:D *705:82 0.000415407
70 *3082:D *3082:CLK 3.08895e-05
71 *244:49 *2964:CLK 1.18222e-05
72 *244:49 *705:16 0.000113667
73 *244:186 *3083:CLK 2.87839e-05
74 *251:30 *3083:CLK 0.000101624
75 *589:73 *705:82 0
76 *590:35 *705:8 0.000567809
77 *630:24 *3123:I 0
78 *630:24 *705:45 1.47139e-05
79 *645:22 *2964:CLK 2.93898e-05
80 *645:22 *705:16 6.1434e-05
81 *656:14 *3083:CLK 0.000350258
*RES
1 *3106:Z *705:8 14.31 
2 *705:8 *705:10 5.13 
3 *705:10 *705:14 7.11 
4 *705:14 *705:16 2.61 
5 *705:16 *3082:CLK 5.13 
6 *705:16 *3083:CLK 18.09 
7 *705:14 *2964:CLK 5.85 
8 *705:10 *705:45 7.11 
9 *705:45 *2972:CLK 4.5 
10 *705:45 *3123:I 7.38 
11 *705:8 *705:61 0.99 
12 *705:61 *3055:CLK 10.35 
13 *705:61 *705:76 6.66 
14 *705:76 *705:82 12.69 
15 *705:82 *3051:CLK 5.85 
16 *705:82 *705:91 1.35 
17 *705:91 *3053:CLK 4.5 
18 *705:91 *3054:CLK 7.11 
19 *705:76 *3052:CLK 4.5 
*END

*D_NET *706 0.0251629
*CONN
*I *2969:CLK I *D gf180mcu_fd_sc_mcu7t5v0__dffq_1
*I *3036:CLK I *D gf180mcu_fd_sc_mcu7t5v0__dffq_1
*I *3057:CLK I *D gf180mcu_fd_sc_mcu7t5v0__dffq_1
*I *3056:CLK I *D gf180mcu_fd_sc_mcu7t5v0__dffq_1
*I *3035:CLK I *D gf180mcu_fd_sc_mcu7t5v0__dffq_1
*I *3034:CLK I *D gf180mcu_fd_sc_mcu7t5v0__dffq_1
*I *2970:CLK I *D gf180mcu_fd_sc_mcu7t5v0__dffq_1
*I *2971:CLK I *D gf180mcu_fd_sc_mcu7t5v0__dffq_1
*I *3037:CLK I *D gf180mcu_fd_sc_mcu7t5v0__dffq_1
*I *2961:CLK I *D gf180mcu_fd_sc_mcu7t5v0__dffq_1
*I *2953:CLK I *D gf180mcu_fd_sc_mcu7t5v0__dffq_1
*I *2955:CLK I *D gf180mcu_fd_sc_mcu7t5v0__dffq_1
*I *2963:CLK I *D gf180mcu_fd_sc_mcu7t5v0__dffq_1
*I *3107:Z O *D gf180mcu_fd_sc_mcu7t5v0__clkbuf_8
*CAP
1 *2969:CLK 0
2 *3036:CLK 0.000111604
3 *3057:CLK 0
4 *3056:CLK 0.000125631
5 *3035:CLK 0
6 *3034:CLK 0
7 *2970:CLK 0
8 *2971:CLK 0
9 *3037:CLK 0
10 *2961:CLK 0.000136995
11 *2953:CLK 0
12 *2955:CLK 0.00036829
13 *2963:CLK 0
14 *3107:Z 0.00042375
15 *706:111 0.000246504
16 *706:102 0.000227635
17 *706:100 0.000319281
18 *706:89 0.000356809
19 *706:78 0.000483833
20 *706:65 0.000691217
21 *706:61 0.000584241
22 *706:54 0.000120965
23 *706:20 0.000723718
24 *706:16 0.000424251
25 *706:12 0.000743443
26 *706:10 0.000961375
27 *2955:CLK *2489:A1 0
28 *2955:CLK *2858:B2 0.000299806
29 *2955:CLK *2858:C2 0.000241982
30 *2961:CLK *778:316 0.000468501
31 *2961:CLK *917:19 1.39839e-05
32 *3036:CLK *2888:A1 9.7293e-05
33 *3056:CLK *2888:A1 0.000912611
34 *3056:CLK *759:26 9.04462e-05
35 *3056:CLK *759:153 0.000397478
36 *706:10 *3143:I 0.00107864
37 *706:10 *3146:I 8.68398e-06
38 *706:10 *759:36 3.96404e-05
39 *706:10 *926:16 0.000264753
40 *706:12 *2850:A1 7.66407e-05
41 *706:12 *3146:I 0.000102193
42 *706:12 *784:135 0.00027498
43 *706:12 *953:10 0.00079964
44 *706:16 *784:135 2.54722e-05
45 *706:20 *2488:C 1.05145e-05
46 *706:20 *2858:C1 0.000163342
47 *706:20 *2858:C2 0.000149445
48 *706:20 *778:316 0.000274976
49 *706:20 *778:353 0
50 *706:61 *778:392 0.000164467
51 *706:61 *926:16 0.000169524
52 *706:65 *2301:I 0.000115907
53 *706:65 *2322:A3 0.00050482
54 *706:65 *2508:C 3.55544e-05
55 *706:65 *756:104 0.00045633
56 *706:65 *756:108 2.6995e-05
57 *706:65 *778:392 0.000528799
58 *706:78 *2322:A3 0.000469308
59 *706:78 *2867:C2 8.83381e-05
60 *706:78 *3145:I 0.00122922
61 *706:78 *756:104 0.000204492
62 *706:89 *3145:I 0.000353889
63 *706:89 *3148:I 3.73774e-06
64 *706:89 *923:12 0.000145905
65 *706:100 *923:12 0.000643712
66 *706:102 *2888:A1 9.31829e-05
67 *706:111 *2888:A1 0.000524243
68 *706:111 *759:153 6.02974e-05
69 *2476:A2 *2955:CLK 0.000558359
70 *2488:A1 *706:12 0
71 *2492:A1 *2955:CLK 1.87252e-05
72 *2508:B *706:65 0
73 *2763:A3 *706:78 0.000101624
74 *2763:A3 *706:89 0.000496776
75 *2886:A2 *3036:CLK 0.000445194
76 *2886:A2 *3056:CLK 0.000183731
77 *2886:A2 *706:102 0.000478014
78 *2886:A2 *706:111 0.000177471
79 *2953:D *706:12 6.97472e-05
80 *2953:D *706:16 2.78423e-05
81 *2961:D *2961:CLK 3.87762e-05
82 *3037:D *706:10 6.18234e-05
83 *3057:D *706:89 0.000198334
84 *3057:D *706:100 0.000275816
85 *251:30 *706:10 0
86 *251:30 *706:61 0.000102839
87 *251:30 *706:65 0.000147107
88 *502:84 *706:10 0.000268694
89 *502:84 *706:12 0.000264718
90 *599:18 *706:12 1.18076e-06
91 *645:22 *2955:CLK 0.00026713
92 *645:22 *706:20 0.00169162
93 *705:8 *706:10 0.000628106
*RES
1 *3107:Z *706:10 14.76 
2 *706:10 *706:12 6.03 
3 *706:12 *706:16 4.95 
4 *706:16 *706:20 5.4 
5 *706:20 *2963:CLK 4.5 
6 *706:20 *2955:CLK 9.18 
7 *706:16 *2953:CLK 4.5 
8 *706:12 *2961:CLK 10.35 
9 *706:10 *706:54 4.5 
10 *706:54 *3037:CLK 4.5 
11 *706:54 *706:61 1.35 
12 *706:61 *706:65 5.4 
13 *706:65 *2971:CLK 4.5 
14 *706:65 *706:78 13.5 
15 *706:78 *2970:CLK 4.5 
16 *706:78 *706:89 7.38 
17 *706:89 *3034:CLK 9 
18 *706:89 *706:100 6.39 
19 *706:100 *706:102 1.35 
20 *706:102 *3035:CLK 4.5 
21 *706:102 *706:111 1.98 
22 *706:111 *3056:CLK 7.11 
23 *706:111 *3057:CLK 4.5 
24 *706:100 *3036:CLK 5.85 
25 *706:61 *2969:CLK 4.5 
*END

*D_NET *707 0.0151002
*CONN
*I *2947:CLK I *D gf180mcu_fd_sc_mcu7t5v0__dffq_1
*I *2946:CLK I *D gf180mcu_fd_sc_mcu7t5v0__dffq_1
*I *3119:I I *D gf180mcu_fd_sc_mcu7t5v0__clkbuf_4
*I *2990:CLK I *D gf180mcu_fd_sc_mcu7t5v0__dffq_1
*I *2989:CLK I *D gf180mcu_fd_sc_mcu7t5v0__dffq_1
*I *2988:CLK I *D gf180mcu_fd_sc_mcu7t5v0__dffq_1
*I *2987:CLK I *D gf180mcu_fd_sc_mcu7t5v0__dffq_1
*I *2991:CLK I *D gf180mcu_fd_sc_mcu7t5v0__dffq_1
*I *2939:CLK I *D gf180mcu_fd_sc_mcu7t5v0__dffq_1
*I *2944:CLK I *D gf180mcu_fd_sc_mcu7t5v0__dffq_1
*I *2930:CLK I *D gf180mcu_fd_sc_mcu7t5v0__dffq_1
*I *2945:CLK I *D gf180mcu_fd_sc_mcu7t5v0__dffq_1
*I *3108:Z O *D gf180mcu_fd_sc_mcu7t5v0__clkbuf_8
*CAP
1 *2947:CLK 0.000121934
2 *2946:CLK 5.16089e-05
3 *3119:I 9.41955e-05
4 *2990:CLK 0
5 *2989:CLK 0.00026604
6 *2988:CLK 0.000320895
7 *2987:CLK 0
8 *2991:CLK 0.000147754
9 *2939:CLK 0.000457593
10 *2944:CLK 0
11 *2930:CLK 0.00031603
12 *2945:CLK 0
13 *3108:Z 0.000114047
14 *707:99 0.000145804
15 *707:74 0.000706232
16 *707:67 0.00107195
17 *707:63 0.000983089
18 *707:54 0.00117173
19 *707:50 0.0011495
20 *707:48 0.00046998
21 *707:30 0.000861481
22 *707:17 0.000866761
23 *707:13 0.000472324
24 *707:6 0.000247429
25 *2930:CLK *2448:A1 4.02636e-05
26 *2930:CLK *781:93 9.49471e-06
27 *2930:CLK *899:12 0
28 *2939:CLK *2565:B 0
29 *2946:CLK *872:12 1.27919e-05
30 *3119:I *872:12 7.82853e-05
31 *707:30 *3182:I 5.9617e-05
32 *707:50 *2441:A1 0
33 *707:54 *2441:A1 0
34 *707:54 *2571:A1 0.000664135
35 *707:54 *870:14 7.23977e-05
36 *707:54 *871:20 0
37 *707:63 *2571:A1 1.61174e-05
38 *707:67 *2571:A1 8.91442e-05
39 pga_gain_control[1] *707:67 2.7968e-05
40 *2431:A1 *2939:CLK 3.57187e-05
41 *2443:A1 *2930:CLK 0.00175738
42 *2443:A1 *707:48 0
43 *2446:A1 *707:30 0
44 *2449:A2 *707:6 0.000127164
45 *2563:A2 *2988:CLK 1.79237e-05
46 *2563:A2 *2989:CLK 3.22122e-05
47 *2563:B *2988:CLK 0.000444513
48 *2564:I *2989:CLK 2.09855e-05
49 *2570:A3 *707:67 0
50 *2571:A2 *707:67 1.19491e-05
51 *2572:A2 *707:54 8.54106e-06
52 *2573:A2 *2991:CLK 0.000112242
53 *2573:A2 *707:63 1.23715e-05
54 *2945:D *707:6 0.000204492
55 *2945:D *707:48 0
56 *2946:D *2946:CLK 3.98088e-05
57 *2946:D *3119:I 0.000183652
58 *2946:D *707:48 0.000101624
59 *2946:D *707:50 0.000375176
60 *2947:D *707:6 6.23673e-05
61 *2947:D *707:13 0.000112242
62 *2947:D *707:17 9.05146e-05
63 *2987:D *707:67 0
64 *2989:D *2989:CLK 0
65 *3094:I *2989:CLK 5.97457e-06
66 *3183:I *2939:CLK 0
67 *373:57 *707:67 0
68 *373:69 *2989:CLK 0
69 *373:69 *707:67 0
70 *385:24 *2939:CLK 0
71 *385:24 *2947:CLK 0.000236727
72 *385:24 *707:6 0
73 *385:24 *707:13 0
74 *385:24 *707:30 0
*RES
1 *3108:Z *707:6 6.03 
2 *707:6 *2945:CLK 4.5 
3 *707:6 *707:13 1.17 
4 *707:13 *707:17 1.8 
5 *707:17 *2930:CLK 17.91 
6 *707:17 *707:30 2.61 
7 *707:30 *2944:CLK 4.5 
8 *707:30 *2939:CLK 7.38 
9 *707:13 *707:48 5.85 
10 *707:48 *707:50 1.35 
11 *707:50 *707:54 10.53 
12 *707:54 *2991:CLK 5.67 
13 *707:54 *707:63 0.27 
14 *707:63 *707:67 6.66 
15 *707:67 *2987:CLK 4.5 
16 *707:67 *707:74 0.81 
17 *707:74 *2988:CLK 7.02 
18 *707:74 *2989:CLK 6.12 
19 *707:63 *2990:CLK 4.5 
20 *707:50 *707:99 4.5 
21 *707:99 *3119:I 5.67 
22 *707:99 *2946:CLK 5.04 
23 *707:48 *2947:CLK 10.53 
*END

*D_NET *708 0.0177061
*CONN
*I *3125:I I *D gf180mcu_fd_sc_mcu7t5v0__inv_3
*I *2975:CLK I *D gf180mcu_fd_sc_mcu7t5v0__dffq_1
*I *2973:CLK I *D gf180mcu_fd_sc_mcu7t5v0__dffq_1
*I *2976:CLK I *D gf180mcu_fd_sc_mcu7t5v0__dffq_1
*I *2974:CLK I *D gf180mcu_fd_sc_mcu7t5v0__dffq_1
*I *3088:CLK I *D gf180mcu_fd_sc_mcu7t5v0__dffq_1
*I *3046:CLK I *D gf180mcu_fd_sc_mcu7t5v0__dffq_1
*I *3045:CLK I *D gf180mcu_fd_sc_mcu7t5v0__dffq_1
*I *3047:CLK I *D gf180mcu_fd_sc_mcu7t5v0__dffq_1
*I *3043:CLK I *D gf180mcu_fd_sc_mcu7t5v0__dffq_1
*I *3109:Z O *D gf180mcu_fd_sc_mcu7t5v0__clkbuf_8
*CAP
1 *3125:I 0.000243669
2 *2975:CLK 0.000147679
3 *2973:CLK 0.000257024
4 *2976:CLK 0.000214711
5 *2974:CLK 0
6 *3088:CLK 6.40993e-05
7 *3046:CLK 0
8 *3045:CLK 0
9 *3047:CLK 0.00014365
10 *3043:CLK 0.000266017
11 *3109:Z 1.14814e-05
12 *708:100 0.000457208
13 *708:41 0.00014365
14 *708:30 0.000978052
15 *708:24 0.000940144
16 *708:20 0.00100052
17 *708:14 0.000966234
18 *708:10 0.000535262
19 *708:8 0.000636902
20 *708:6 0.000394587
21 *2975:CLK *2398:A1 0
22 *2976:CLK *726:41 8.1928e-05
23 *2976:CLK *879:8 0.000229781
24 *3088:CLK *3156:I 0.000196987
25 *3088:CLK *723:18 8.3976e-05
26 *3125:I *2522:A1 0
27 *708:6 *2522:A1 3.98088e-05
28 *708:8 *2522:A1 0.000567131
29 *708:20 *2796:A1 0.000486784
30 *708:20 *2799:A1 0.000116486
31 *708:20 *3156:I 0.000612552
32 *708:20 *723:18 0.000108922
33 *708:20 *723:24 6.35039e-05
34 *708:24 *3156:I 1.39839e-05
35 *708:24 *965:34 0
36 *708:30 *964:12 0.000765264
37 *708:30 *965:19 7.08457e-06
38 *708:30 *965:34 8.31395e-06
39 *708:30 *966:10 0
40 *708:100 *774:14 0.000131057
41 *2516:A3 *2973:CLK 0.000285839
42 *2516:A3 *708:10 1.22872e-05
43 *2516:A3 *708:14 7.191e-07
44 *2519:A2 *2976:CLK 0.000455757
45 *2519:A2 *708:10 6.02974e-05
46 *2519:A2 *708:14 3.01487e-05
47 *2519:A3 *708:8 4.85809e-05
48 *2519:A3 *708:10 3.30832e-05
49 *2521:A1 *708:14 0
50 *2522:B *2973:CLK 2.14664e-05
51 *2522:B *708:8 0.000526117
52 *2523:I *708:8 7.73282e-05
53 *2528:A2 *2976:CLK 0.000382875
54 *2778:A2 *3043:CLK 0.000578414
55 *2778:A2 *708:30 0.000799622
56 *2785:A2 *3043:CLK 0.000201318
57 *2785:A2 *708:30 0.000120277
58 *2795:A1 *3047:CLK 0.000204492
59 *2796:A2 *708:20 3.97987e-05
60 *2797:A1 *3047:CLK 0.000121576
61 *2798:A2 *708:20 3.12451e-05
62 *2799:A2 *708:20 0.000154639
63 *2974:D *2973:CLK 0
64 *2974:D *708:14 0.000119182
65 *2975:D *708:8 5.50498e-05
66 *3046:D *708:24 1.7437e-05
67 *3110:I *3125:I 0
68 *296:50 *708:100 0.000275309
69 *371:45 *3088:CLK 5.90703e-05
70 *371:49 *708:20 0.00011554
71 *371:68 *708:20 3.72786e-05
72 *371:83 *708:14 0
73 *371:83 *708:20 0.000143485
74 *373:259 *2976:CLK 0.000251568
75 *373:272 *2976:CLK 0.000789072
76 *382:12 *2976:CLK 0.000341304
77 *570:16 *3043:CLK 0.000100251
78 *583:21 *708:20 0.000158392
79 *694:35 *3125:I 0.000107008
80 *694:41 *2975:CLK 4.1536e-06
81 *694:41 *3125:I 2.98121e-05
82 *698:22 *708:24 0
83 *698:22 *708:30 0
84 *698:26 *708:30 1.86887e-06
*RES
1 *3109:Z *708:6 4.77 
2 *708:6 *708:8 4.23 
3 *708:8 *708:10 0.63 
4 *708:10 *708:14 1.98 
5 *708:14 *708:20 12.06 
6 *708:20 *708:24 5.85 
7 *708:24 *708:30 11.34 
8 *708:30 *3043:CLK 12.15 
9 *708:30 *708:41 4.5 
10 *708:41 *3047:CLK 6.12 
11 *708:41 *3045:CLK 4.5 
12 *708:24 *3046:CLK 4.5 
13 *708:20 *3088:CLK 9.99 
14 *708:14 *2974:CLK 4.5 
15 *708:10 *2976:CLK 19.17 
16 *708:8 *2973:CLK 6.3 
17 *708:6 *708:100 10.53 
18 *708:100 *2975:CLK 5.49 
19 *708:100 *3125:I 6.21 
*END

*D_NET *709 0.0192834
*CONN
*I *3039:CLK I *D gf180mcu_fd_sc_mcu7t5v0__dffq_1
*I *2928:CLK I *D gf180mcu_fd_sc_mcu7t5v0__dffq_1
*I *2927:CLK I *D gf180mcu_fd_sc_mcu7t5v0__dffq_1
*I *2926:CLK I *D gf180mcu_fd_sc_mcu7t5v0__dffq_1
*I *2942:CLK I *D gf180mcu_fd_sc_mcu7t5v0__dffq_1
*I *2943:CLK I *D gf180mcu_fd_sc_mcu7t5v0__dffq_1
*I *2929:CLK I *D gf180mcu_fd_sc_mcu7t5v0__dffq_1
*I *2948:CLK I *D gf180mcu_fd_sc_mcu7t5v0__dffq_1
*I *2923:CLK I *D gf180mcu_fd_sc_mcu7t5v0__dffq_1
*I *2924:CLK I *D gf180mcu_fd_sc_mcu7t5v0__dffq_1
*I *2925:CLK I *D gf180mcu_fd_sc_mcu7t5v0__dffq_1
*I *3126:I I *D gf180mcu_fd_sc_mcu7t5v0__clkbuf_4
*I *3110:Z O *D gf180mcu_fd_sc_mcu7t5v0__clkbuf_8
*CAP
1 *3039:CLK 0.000454491
2 *2928:CLK 0.000142124
3 *2927:CLK 0
4 *2926:CLK 0
5 *2942:CLK 0.000211314
6 *2943:CLK 2.37789e-05
7 *2929:CLK 0
8 *2948:CLK 0.000217414
9 *2923:CLK 4.22219e-05
10 *2924:CLK 0.00019597
11 *2925:CLK 8.32072e-05
12 *3126:I 0.000854647
13 *3110:Z 0.000124909
14 *709:137 0.000887493
15 *709:126 0.000416626
16 *709:95 0.000459746
17 *709:84 0.00050562
18 *709:71 0.000824562
19 *709:67 0.000623774
20 *709:65 0.000743946
21 *709:38 0.000417179
22 *709:25 0.000647953
23 *709:8 0.00104471
24 *2925:CLK *726:16 0.000268972
25 *2925:CLK *774:14 0.000232503
26 *2928:CLK *2827:C1 8.12856e-06
27 *2942:CLK *2879:C2 0.000547652
28 *2948:CLK *2851:C1 0.000348355
29 *3039:CLK *2399:A1 0
30 *3039:CLK *2814:B2 0.000391769
31 *3039:CLK *2835:A1 0.000956581
32 *3039:CLK *3229:I 0.000563776
33 *3126:I *2390:A2 1.56674e-05
34 *3126:I *2393:A2 1.54403e-05
35 *3126:I *2395:A1 0
36 *3126:I *828:10 0
37 *709:25 *2390:A2 3.31858e-06
38 *709:65 *3188:I 2.36813e-05
39 *709:67 *901:14 0.000146212
40 *709:71 *2402:A1 0.00016377
41 *709:71 *2405:A2 0.000351682
42 *709:71 *901:14 0.000212085
43 *709:71 *905:12 3.31858e-06
44 *709:84 *2851:A1 1.51153e-05
45 *709:84 *2851:C1 0.000385952
46 *709:84 *2859:A1 7.96333e-06
47 *709:95 *2851:A1 0.000585214
48 *709:95 *2851:C1 5.75641e-05
49 *709:95 *2859:B2 3.22348e-05
50 *709:126 *3188:I 6.96972e-05
51 *709:137 *3188:I 0.000432241
52 *709:137 *3229:I 0.000100123
53 *2383:B2 *2923:CLK 9.65355e-06
54 *2383:B2 *2924:CLK 2.03791e-05
55 *2383:B2 *2925:CLK 0.000141012
56 *2391:A1 *709:8 4.80547e-05
57 *2394:A1 *3126:I 0
58 *2397:A2 *3126:I 0.000106536
59 *2397:A2 *709:65 0.000903105
60 *2400:A1 *709:8 0
61 *2400:A2 *2928:CLK 0.000192205
62 *2406:A2 *2948:CLK 0.000121739
63 *2440:A1 *2942:CLK 0
64 *2440:A1 *2943:CLK 9.85004e-05
65 *2440:A1 *709:71 0
66 *2443:A1 *2948:CLK 0.000175108
67 *2443:A1 *709:71 9.72182e-06
68 *2443:A1 *709:84 0.000215897
69 *2443:A2 *709:84 1.84833e-05
70 *2620:A2 *2924:CLK 0
71 *2859:A2 *709:95 0.00037349
72 *2860:A2 *2942:CLK 0.000101685
73 *2860:A2 *3039:CLK 0
74 *2860:A2 *709:95 0.000210518
75 *2860:A2 *709:137 0
76 *2924:D *2923:CLK 1.61174e-05
77 *2926:D *3126:I 0
78 *2926:D *709:65 1.56674e-05
79 *2926:D *709:67 3.96522e-05
80 *2927:D *3126:I 2.70125e-05
81 *2943:D *2942:CLK 3.01487e-05
82 *2943:D *2943:CLK 7.191e-07
83 *2943:D *709:71 0
84 *3092:I *2925:CLK 1.51153e-05
85 *3094:I *2942:CLK 0.000230502
86 *3094:I *709:95 0.000351201
87 *244:101 *709:25 0.00020517
88 *244:101 *709:38 0.000161402
89 *244:105 *709:25 0.000212914
90 *244:271 *2948:CLK 3.08083e-05
91 *296:35 *709:25 3.34727e-05
92 *486:20 *2923:CLK 1.77471e-05
93 *486:20 *2924:CLK 4.76605e-05
94 *694:29 *709:65 1.15538e-05
95 *694:29 *709:126 0.000131324
96 *694:29 *709:137 9.8432e-05
*RES
1 *3110:Z *709:8 9.81 
2 *709:8 *3126:I 13.14 
3 *709:8 *709:25 3.69 
4 *709:25 *2925:CLK 10.71 
5 *709:25 *709:38 6.03 
6 *709:38 *2924:CLK 5.94 
7 *709:38 *2923:CLK 4.95 
8 *3126:I *709:65 12.24 
9 *709:65 *709:67 2.25 
10 *709:67 *709:71 8.55 
11 *709:71 *2948:CLK 7.38 
12 *709:71 *709:84 3.24 
13 *709:84 *2929:CLK 4.5 
14 *709:84 *709:95 8.46 
15 *709:95 *2943:CLK 9.27 
16 *709:95 *2942:CLK 11.88 
17 *709:67 *2926:CLK 9 
18 *709:65 *709:126 5.85 
19 *709:126 *2927:CLK 4.5 
20 *709:126 *709:137 7.38 
21 *709:137 *2928:CLK 10.35 
22 *709:137 *3039:CLK 14.94 
*END

*D_NET *710 0.0164695
*CONN
*I *2933:CLK I *D gf180mcu_fd_sc_mcu7t5v0__dffq_1
*I *3127:I I *D gf180mcu_fd_sc_mcu7t5v0__inv_3
*I *2936:CLK I *D gf180mcu_fd_sc_mcu7t5v0__dffq_1
*I *2941:CLK I *D gf180mcu_fd_sc_mcu7t5v0__dffq_1
*I *2937:CLK I *D gf180mcu_fd_sc_mcu7t5v0__dffq_1
*I *2938:CLK I *D gf180mcu_fd_sc_mcu7t5v0__dffq_1
*I *2983:CLK I *D gf180mcu_fd_sc_mcu7t5v0__dffq_1
*I *2985:CLK I *D gf180mcu_fd_sc_mcu7t5v0__dffq_1
*I *2984:CLK I *D gf180mcu_fd_sc_mcu7t5v0__dffq_1
*I *2986:CLK I *D gf180mcu_fd_sc_mcu7t5v0__dffq_1
*I *3111:Z O *D gf180mcu_fd_sc_mcu7t5v0__clkbuf_8
*CAP
1 *2933:CLK 0.00022477
2 *3127:I 0.000156157
3 *2936:CLK 0
4 *2941:CLK 0
5 *2937:CLK 0.000462467
6 *2938:CLK 0
7 *2983:CLK 0.000370412
8 *2985:CLK 0.000104256
9 *2984:CLK 0.000124512
10 *2986:CLK 0
11 *3111:Z 1.79225e-05
12 *710:41 0.000403572
13 *710:39 0.000923003
14 *710:30 0.0015526
15 *710:24 0.00125409
16 *710:22 0.000707716
17 *710:18 0.000501092
18 *710:14 0.000673767
19 *710:12 0.000529363
20 *710:8 0.000277251
21 *2933:CLK *2414:A2 2.64095e-05
22 *2983:CLK *3225:I 0.000575844
23 *3127:I *2414:A1 0.000205859
24 *3127:I *2414:A2 0.000413576
25 *3127:I *778:79 5.78287e-06
26 *710:14 *778:87 0
27 *710:18 *778:87 0
28 *710:18 *778:89 2.32821e-05
29 *710:18 *778:91 1.59267e-05
30 *710:30 *2562:A1 0
31 *710:30 *3158:I 0
32 *710:30 *868:47 0
33 *2416:A1 *2933:CLK 0.00027566
34 *2416:A1 *3127:I 0.000327261
35 *2416:A1 *710:12 0.000364897
36 *2416:A1 *710:14 9.85004e-05
37 *2419:A1 *710:8 5.53168e-05
38 *2419:A1 *710:12 2.63343e-05
39 *2422:A1 *2933:CLK 7.91275e-05
40 *2422:A1 *3127:I 4.29353e-05
41 *2422:A1 *710:14 0.000113344
42 *2422:A2 *2933:CLK 0.00027566
43 *2422:A2 *710:14 3.55867e-05
44 *2422:A2 *710:18 2.32821e-05
45 *2428:A1 *710:18 8.6117e-05
46 *2428:A1 *710:22 0.000968756
47 *2434:A1 *2937:CLK 0.000319274
48 *2434:A1 *710:24 5.31501e-05
49 *2434:A1 *710:30 8.73714e-05
50 *2437:A1 *2937:CLK 0.000320271
51 *2437:A1 *710:18 0.000207343
52 *2437:A1 *710:22 0.000161242
53 *2437:A1 *710:24 0.000229402
54 *2552:A1 *2983:CLK 5.36871e-05
55 *2560:A2 *710:30 0.000208507
56 *2562:B *710:30 3.01423e-05
57 *2563:B *710:30 0
58 *2984:D *2983:CLK 0.000444513
59 *2985:D *710:39 0.000243256
60 *3090:I *2983:CLK 9.07783e-05
61 *3111:I *2933:CLK 9.27022e-05
62 *3111:I *3127:I 0.000107788
63 *3111:I *710:14 3.12451e-05
64 *3112:I *2933:CLK 1.19491e-05
65 *3161:I *2937:CLK 0
66 *3180:I *710:14 5.75577e-05
67 *373:82 *710:30 1.86887e-06
68 *373:88 *710:30 6.96972e-05
69 *373:88 *710:39 8.53841e-05
70 *373:101 *2983:CLK 4.37298e-05
71 *373:101 *710:39 0.000623828
72 *373:114 *2983:CLK 0
73 *689:24 *710:8 0.000144912
74 *689:24 *710:12 0.000427501
*RES
1 *3111:Z *710:8 9.45 
2 *710:8 *710:12 5.67 
3 *710:12 *710:14 2.79 
4 *710:14 *710:18 3.06 
5 *710:18 *710:22 7.11 
6 *710:22 *710:24 0.99 
7 *710:24 *710:30 11.7 
8 *710:30 *2986:CLK 4.5 
9 *710:30 *710:39 3.96 
10 *710:39 *710:41 0.81 
11 *710:41 *2984:CLK 5.4 
12 *710:41 *2985:CLK 5.31 
13 *710:39 *2983:CLK 8.91 
14 *710:24 *2938:CLK 9 
15 *710:22 *2937:CLK 13.59 
16 *710:18 *2941:CLK 4.5 
17 *710:14 *2936:CLK 4.5 
18 *710:12 *3127:I 6.93 
19 *710:8 *2933:CLK 11.43 
*END

*D_NET *711 0.0213752
*CONN
*I *2949:CLK I *D gf180mcu_fd_sc_mcu7t5v0__dffq_1
*I *2952:CLK I *D gf180mcu_fd_sc_mcu7t5v0__dffq_1
*I *2979:CLK I *D gf180mcu_fd_sc_mcu7t5v0__dffq_1
*I *2980:CLK I *D gf180mcu_fd_sc_mcu7t5v0__dffq_1
*I *2982:CLK I *D gf180mcu_fd_sc_mcu7t5v0__dffq_1
*I *3017:CLK I *D gf180mcu_fd_sc_mcu7t5v0__dffq_1
*I *3020:CLK I *D gf180mcu_fd_sc_mcu7t5v0__dffq_1
*I *3019:CLK I *D gf180mcu_fd_sc_mcu7t5v0__dffq_1
*I *3018:CLK I *D gf180mcu_fd_sc_mcu7t5v0__dffq_1
*I *3014:CLK I *D gf180mcu_fd_sc_mcu7t5v0__dffq_1
*I *3016:CLK I *D gf180mcu_fd_sc_mcu7t5v0__dffq_1
*I *3015:CLK I *D gf180mcu_fd_sc_mcu7t5v0__dffq_1
*I *2981:CLK I *D gf180mcu_fd_sc_mcu7t5v0__dffq_1
*I *3112:Z O *D gf180mcu_fd_sc_mcu7t5v0__clkbuf_8
*CAP
1 *2949:CLK 0.000397915
2 *2952:CLK 0
3 *2979:CLK 0
4 *2980:CLK 0
5 *2982:CLK 0.000143878
6 *3017:CLK 3.44897e-05
7 *3020:CLK 0.000526339
8 *3019:CLK 0.000177606
9 *3018:CLK 8.89399e-05
10 *3014:CLK 0
11 *3016:CLK 0
12 *3015:CLK 0
13 *2981:CLK 0
14 *3112:Z 0.00021596
15 *711:127 0.00110253
16 *711:102 0.000143878
17 *711:68 0.000266546
18 *711:66 0.00130039
19 *711:57 0.00157331
20 *711:46 0.00141174
21 *711:37 0.000887278
22 *711:33 0.00102202
23 *711:24 0.00100064
24 *711:18 0.000965962
25 *711:14 0.000924011
26 *711:8 0.00116653
27 *2949:CLK *2460:A2 7.59619e-05
28 *2949:CLK *778:73 0
29 *2982:CLK *3226:I 0.000412815
30 *3018:CLK *911:10 0.000433797
31 *3020:CLK *2686:B 7.76619e-05
32 *3020:CLK *930:62 0.000601531
33 *711:8 *778:73 0.000269941
34 *711:18 *2543:B 0
35 *711:18 *3167:I 0.000703913
36 *711:24 *3226:I 0
37 *711:33 *3226:I 3.75437e-05
38 *711:57 *2687:A2 0
39 *711:66 *2686:B 3.06117e-05
40 *711:66 *2687:A2 0
41 *711:66 *2692:A3 0
42 *711:66 *911:10 0
43 *711:66 *911:12 0
44 *711:66 *911:14 0
45 *711:127 *2297:I 0
46 *711:127 *3167:I 1.58611e-05
47 *711:127 *778:73 0
48 bypass_pin_control[1] *711:33 0
49 bypass_pin_control[2] *711:46 3.96568e-05
50 *2410:A1 *711:14 9.21301e-05
51 *2410:A1 *711:18 0.000312562
52 *2410:A1 *711:127 0.000146454
53 *2461:A1 *2949:CLK 2.65444e-06
54 *2461:A2 *2949:CLK 0
55 *2464:A1 *2949:CLK 0
56 *2470:A1 *2949:CLK 7.77173e-05
57 *2534:A1 *711:8 0.000338924
58 *2534:A2 *711:14 4.47028e-05
59 *2536:A2 *711:14 0.00010273
60 *2537:A2 *711:14 1.4382e-06
61 *2538:A1 *711:18 0.000786865
62 *2538:A2 *711:14 2.76794e-05
63 *2538:A2 *711:127 6.0354e-06
64 *2539:A2 *711:18 5.77798e-05
65 *2540:B *711:18 9.88967e-05
66 *2541:B *2982:CLK 0.00064954
67 *2541:B *711:18 7.01518e-05
68 *2541:B *711:24 2.08352e-05
69 *2542:I *711:33 0
70 *2548:A1 *711:14 3.45613e-05
71 *2548:A4 *711:8 0
72 *2684:I *711:46 0
73 *2684:I *711:57 0
74 *2979:D *711:8 0.000316173
75 *2981:D *711:33 0.000782491
76 *3015:D *711:33 2.32821e-05
77 *3015:D *711:37 0
78 *3019:D *3018:CLK 0.000116914
79 *3019:D *3019:CLK 0.000183662
80 *3091:I *2982:CLK 0.0001353
81 *3091:I *711:18 0.000107095
82 *3091:I *711:24 0.000399985
83 *3091:I *711:33 0
84 *3091:I *711:37 0
85 *3091:I *711:46 0
86 *227:10 *711:127 0.000102966
87 *227:35 *711:8 0.000286386
88 *385:35 *711:8 0
*RES
1 *3112:Z *711:8 12.33 
2 *711:8 *711:14 6.48 
3 *711:14 *711:18 10.89 
4 *711:18 *711:24 6.66 
5 *711:24 *2981:CLK 4.5 
6 *711:24 *711:33 6.12 
7 *711:33 *711:37 1.98 
8 *711:37 *3015:CLK 4.5 
9 *711:37 *711:46 4.14 
10 *711:46 *3016:CLK 4.5 
11 *711:46 *711:57 10.26 
12 *711:57 *3014:CLK 9 
13 *711:57 *711:66 4.95 
14 *711:66 *711:68 4.5 
15 *711:68 *3018:CLK 5.85 
16 *711:68 *3019:CLK 6.12 
17 *711:66 *3020:CLK 13.23 
18 *711:33 *3017:CLK 4.77 
19 *711:18 *711:102 4.5 
20 *711:102 *2982:CLK 7.38 
21 *711:102 *2980:CLK 4.5 
22 *711:14 *2979:CLK 4.5 
23 *711:8 *711:127 9.54 
24 *711:127 *2952:CLK 4.5 
25 *711:127 *2949:CLK 7.65 
*END

*D_NET *712 0.0137496
*CONN
*I *3038:CLK I *D gf180mcu_fd_sc_mcu7t5v0__dffq_1
*I *2935:CLK I *D gf180mcu_fd_sc_mcu7t5v0__dffq_1
*I *2940:CLK I *D gf180mcu_fd_sc_mcu7t5v0__dffq_1
*I *2957:CLK I *D gf180mcu_fd_sc_mcu7t5v0__dffq_1
*I *2966:CLK I *D gf180mcu_fd_sc_mcu7t5v0__dffq_1
*I *2956:CLK I *D gf180mcu_fd_sc_mcu7t5v0__dffq_1
*I *3128:I I *D gf180mcu_fd_sc_mcu7t5v0__inv_4
*I *2934:CLK I *D gf180mcu_fd_sc_mcu7t5v0__dffq_1
*I *3113:Z O *D gf180mcu_fd_sc_mcu7t5v0__clkbuf_8
*CAP
1 *3038:CLK 0.00030094
2 *2935:CLK 0
3 *2940:CLK 0.00025385
4 *2957:CLK 0
5 *2966:CLK 0
6 *2956:CLK 0.000292055
7 *3128:I 6.65621e-05
8 *2934:CLK 0.000382545
9 *3113:Z 0.000362205
10 *712:72 0.000714604
11 *712:68 0.00118133
12 *712:57 0.000589118
13 *712:14 0.000547743
14 *712:12 0.000404383
15 *712:10 0.000206414
16 *2934:CLK *2407:A1 0
17 *2934:CLK *2866:A1 0
18 *2934:CLK *2878:B2 7.77106e-05
19 *2934:CLK *908:12 3.65607e-05
20 *2940:CLK *2866:A1 0.000119952
21 *2940:CLK *2879:C2 0
22 *2956:CLK *2415:A1 0.000213046
23 *2956:CLK *2818:A1 5.59693e-05
24 *3038:CLK *3178:I 0.000637963
25 *3128:I *2818:A1 0.000496785
26 *3128:I *2866:A1 1.77471e-05
27 *3128:I *2878:B2 0.000151427
28 *712:10 *2878:B2 0.000184413
29 *712:10 *909:14 0.000670853
30 *712:12 *2878:B2 0.000143583
31 *712:12 *909:14 0.00028126
32 *712:14 *2878:B2 0.000238419
33 *712:14 *909:14 3.64412e-05
34 *712:57 *2827:A1 0
35 *712:57 *779:18 0.000356014
36 *712:68 *2827:A1 0.000229941
37 *712:72 *2424:A2 0
38 *712:72 *2835:B2 0.000914588
39 *712:72 *2879:C2 3.10746e-05
40 *712:72 *3178:I 0.000244819
41 *2424:B *2940:CLK 0.000215887
42 *2434:A1 *2940:CLK 0.000365445
43 *2434:A2 *2940:CLK 1.84476e-05
44 *2480:A1 *712:10 0
45 *2480:A1 *712:57 3.08083e-05
46 *2827:A2 *712:68 0.000369196
47 *2836:A2 *3038:CLK 0
48 *2836:A2 *712:72 0
49 *2879:A2 *712:68 0
50 *2934:D *2934:CLK 0.000102973
51 *2956:D *712:10 0.00010009
52 *2957:D *712:57 6.56238e-05
53 *2966:D *712:10 0.000309993
54 *3114:I *2956:CLK 7.77227e-05
55 *244:370 *712:72 0.000112928
56 *244:376 *2940:CLK 1.0415e-05
57 *244:376 *712:72 0.000194418
58 *597:38 *3038:CLK 4.55978e-05
59 *599:82 *712:68 0.000181818
60 *600:66 *712:72 2.48332e-05
61 *601:85 *2940:CLK 0
62 *656:14 *712:10 5.92036e-05
63 *656:14 *712:57 0.00100482
64 *656:14 *712:68 1.90699e-05
65 *694:108 *2934:CLK 0
66 *694:108 *712:14 0
*RES
1 *3113:Z *712:10 12.06 
2 *712:10 *712:12 0.81 
3 *712:12 *712:14 1.35 
4 *712:14 *2934:CLK 12.33 
5 *712:14 *3128:I 10.35 
6 *712:12 *2956:CLK 11.7 
7 *712:10 *2966:CLK 9 
8 *3113:Z *712:57 7.29 
9 *712:57 *2957:CLK 4.5 
10 *712:57 *712:68 8.82 
11 *712:68 *712:72 9.63 
12 *712:72 *2940:CLK 7.38 
13 *712:72 *2935:CLK 4.5 
14 *712:68 *3038:CLK 12.15 
*END

*D_NET *713 0.017491
*CONN
*I *2967:CLK I *D gf180mcu_fd_sc_mcu7t5v0__dffq_1
*I *2959:CLK I *D gf180mcu_fd_sc_mcu7t5v0__dffq_1
*I *2958:CLK I *D gf180mcu_fd_sc_mcu7t5v0__dffq_1
*I *3129:I I *D gf180mcu_fd_sc_mcu7t5v0__inv_3
*I *2951:CLK I *D gf180mcu_fd_sc_mcu7t5v0__dffq_1
*I *3021:CLK I *D gf180mcu_fd_sc_mcu7t5v0__dffq_1
*I *3022:CLK I *D gf180mcu_fd_sc_mcu7t5v0__dffq_1
*I *2950:CLK I *D gf180mcu_fd_sc_mcu7t5v0__dffq_1
*I *2932:CLK I *D gf180mcu_fd_sc_mcu7t5v0__dffq_1
*I *2931:CLK I *D gf180mcu_fd_sc_mcu7t5v0__dffq_1
*I *3114:Z O *D gf180mcu_fd_sc_mcu7t5v0__clkbuf_8
*CAP
1 *2967:CLK 0
2 *2959:CLK 0.000672651
3 *2958:CLK 0
4 *3129:I 1.39248e-05
5 *2951:CLK 0.000111078
6 *3021:CLK 8.0001e-05
7 *3022:CLK 0.000887134
8 *2950:CLK 0
9 *2932:CLK 0
10 *2931:CLK 0.000412245
11 *3114:Z 0.000177514
12 *713:104 0.000881411
13 *713:57 0.00132704
14 *713:53 0.000836937
15 *713:46 0.000675946
16 *713:26 0.000911809
17 *713:20 0.00101431
18 *713:18 0.000618591
19 *713:12 0.000524424
20 *713:6 0.000510787
21 *2951:CLK *778:55 4.6108e-05
22 *2959:CLK *2302:I 2.08301e-05
23 *2959:CLK *2307:I 0.00052094
24 *2959:CLK *2477:A1 0
25 *2959:CLK *2481:A1 0.000151417
26 *2959:CLK *2482:C 4.20103e-05
27 *2959:CLK *2827:A1 2.36954e-05
28 *2959:CLK *2834:A2 9.07783e-05
29 *2959:CLK *756:218 0.000175108
30 *2959:CLK *756:235 0.000233873
31 *2959:CLK *778:38 4.76218e-05
32 *2959:CLK *778:47 0.000133717
33 *3021:CLK *2293:I 3.53355e-05
34 *3022:CLK *2671:A1 0.000145212
35 *3022:CLK *2671:B 0.000115763
36 *3022:CLK *931:8 0.000165947
37 *3022:CLK *931:12 0.000140786
38 *3022:CLK *932:17 0
39 *3129:I *2409:A1 0.000169515
40 *3129:I *2818:A1 7.20334e-05
41 *713:12 *2463:A1 0.000102973
42 *713:12 *2827:A1 7.63913e-05
43 *713:12 *779:148 0.000470268
44 *713:18 *2818:A1 0
45 *713:18 *779:148 0.000128564
46 *713:20 *2409:A1 0
47 *713:20 *3135:I 0
48 *713:26 *2297:I 0
49 *713:26 *3135:I 0
50 *713:26 *3190:I 0.00108345
51 *713:46 *2409:A1 2.42375e-05
52 *713:46 *2466:A2 7.26673e-05
53 *713:46 *2818:A1 0
54 *713:46 *2843:A1 5.3289e-05
55 *713:46 *3135:I 2.79586e-05
56 *713:53 *2466:A2 8.77402e-05
57 *713:53 *2818:A1 0
58 *713:57 *2293:I 4.0907e-05
59 *713:104 *946:10 1.03727e-05
60 *2408:B *2931:CLK 1.86887e-06
61 *2410:A1 *713:26 8.43202e-05
62 *2464:A1 *713:46 8.76996e-05
63 *2467:A1 *2951:CLK 0.000101615
64 *2467:A1 *713:53 1.27836e-05
65 *2472:A1 *2951:CLK 0
66 *2472:A1 *3022:CLK 0.000187771
67 *2478:A1 *713:6 0
68 *2478:A1 *713:18 6.95227e-05
69 *2480:A1 *713:6 6.89669e-05
70 *2480:A1 *713:104 6.77603e-05
71 *2500:A1 *2959:CLK 0.000294431
72 *2500:B *2959:CLK 0.000127736
73 *2670:A1 *2951:CLK 0
74 *2670:A1 *713:57 5.79792e-06
75 *2671:A2 *3022:CLK 9.04462e-05
76 *2713:A2 *3022:CLK 1.75631e-05
77 *2714:A1 *3022:CLK 6.06134e-05
78 *2714:A2 *3022:CLK 0.000140022
79 *2714:C *3022:CLK 2.89427e-06
80 *2932:D *713:26 0.000106027
81 *2951:D *2951:CLK 0.000166798
82 *2951:D *713:53 0.000131469
83 *2958:D *713:104 0
84 *3021:D *3022:CLK 1.68011e-05
85 *221:25 *3022:CLK 0
86 *222:8 *3022:CLK 8.49143e-05
87 *244:480 *713:26 0.000144039
88 *244:480 *713:46 0.000487282
89 *244:489 *713:46 0.00049538
90 *244:489 *713:53 6.2979e-05
91 *372:86 *2959:CLK 0.000118234
92 *502:214 *3022:CLK 8.99522e-05
*RES
1 *3114:Z *713:6 5.67 
2 *713:6 *713:12 11.61 
3 *713:12 *713:18 7.56 
4 *713:18 *713:20 1.35 
5 *713:20 *713:26 9.9 
6 *713:26 *2931:CLK 7.47 
7 *713:26 *2932:CLK 4.5 
8 *713:20 *713:46 8.01 
9 *713:46 *2950:CLK 4.5 
10 *713:46 *713:53 2.61 
11 *713:53 *713:57 2.34 
12 *713:57 *3022:CLK 21.24 
13 *713:57 *3021:CLK 5.13 
14 *713:53 *2951:CLK 14.49 
15 *713:18 *3129:I 9.45 
16 *713:12 *2958:CLK 4.5 
17 *713:6 *713:104 1.35 
18 *713:104 *2959:CLK 21.06 
19 *713:104 *2967:CLK 4.5 
*END

*D_NET *714 0.0125466
*CONN
*I *3071:CLK I *D gf180mcu_fd_sc_mcu7t5v0__dffq_1
*I *3073:CLK I *D gf180mcu_fd_sc_mcu7t5v0__dffq_1
*I *3068:CLK I *D gf180mcu_fd_sc_mcu7t5v0__dffq_1
*I *3072:CLK I *D gf180mcu_fd_sc_mcu7t5v0__dffq_1
*I *3066:CLK I *D gf180mcu_fd_sc_mcu7t5v0__dffq_1
*I *3086:CLK I *D gf180mcu_fd_sc_mcu7t5v0__dffq_1
*I *3130:I I *D gf180mcu_fd_sc_mcu7t5v0__inv_4
*I *3085:CLK I *D gf180mcu_fd_sc_mcu7t5v0__dffq_1
*I *3115:Z O *D gf180mcu_fd_sc_mcu7t5v0__clkbuf_8
*CAP
1 *3071:CLK 0.00032017
2 *3073:CLK 0
3 *3068:CLK 0.000160012
4 *3072:CLK 0
5 *3066:CLK 0.000277566
6 *3086:CLK 0
7 *3130:I 0.000122149
8 *3085:CLK 0
9 *3115:Z 0.000114952
10 *714:55 0.000345577
11 *714:51 0.0007272
12 *714:39 0.000499177
13 *714:21 0.00041692
14 *714:14 0.000620058
15 *714:10 0.000521862
16 *714:8 0.000631697
17 *3066:CLK *2916:A1 0
18 *3068:CLK *756:441 0.00156026
19 *3068:CLK *756:447 1.71254e-05
20 *3071:CLK *2870:A1 0.000238428
21 *3071:CLK *753:27 7.50811e-05
22 *3071:CLK *753:33 0.000155827
23 *714:10 *2372:I1 1.71254e-05
24 *714:10 *753:33 0.000266307
25 *714:14 *2372:I1 0.000435972
26 *714:21 *2372:I1 1.77281e-05
27 *714:21 *2375:I1 0
28 *714:21 *3070:CLK 3.96404e-05
29 *714:51 *744:37 6.99566e-06
30 *714:55 *2876:A1 0
31 *714:55 *756:447 0.000222631
32 *2329:A2 *714:51 0.000678907
33 *2331:A1 *714:51 0.000273004
34 *2331:A2 *714:10 3.56105e-05
35 *2331:A2 *714:14 1.49477e-05
36 *2331:A2 *714:51 0.000119192
37 *2334:A1 *3071:CLK 0
38 *2339:A2 *3071:CLK 0
39 *2339:A2 *714:8 0.00088562
40 *2339:A2 *714:10 0
41 *2339:A3 *714:8 0.000359563
42 *2372:I0 *714:21 0.000240538
43 *2372:S *714:21 0.000213046
44 *2861:B2 *3130:I 6.19076e-05
45 *2875:B2 *3130:I 7.55961e-05
46 *2916:A3 *714:51 1.58782e-05
47 *3072:D *3066:CLK 0
48 *3072:D *714:51 6.92926e-05
49 *3085:D *714:21 0
50 *209:26 *3068:CLK 0.00116988
51 *209:26 *714:51 0
52 *209:36 *3068:CLK 2.6575e-05
53 *209:36 *714:14 0
54 *209:36 *714:51 0.000333543
55 *209:36 *714:55 3.42213e-05
56 *244:97 *714:21 0
57 *244:97 *714:51 7.191e-07
58 *254:39 *3071:CLK 4.34691e-05
59 *254:60 *3071:CLK 5.38632e-05
60 *254:68 *714:10 0
61 *266:75 *714:14 0
62 *266:75 *714:51 2.16688e-05
63 *691:25 *3130:I 9.0531e-06
*RES
1 *3115:Z *714:8 11.43 
2 *714:8 *714:10 2.07 
3 *714:10 *714:14 7.11 
4 *714:14 *3085:CLK 4.5 
5 *714:14 *714:21 2.61 
6 *714:21 *3130:I 14.67 
7 *714:21 *3086:CLK 4.5 
8 *714:10 *714:39 4.5 
9 *714:39 *714:51 10.35 
10 *714:51 *714:55 5.67 
11 *714:55 *3066:CLK 6.3 
12 *714:55 *3072:CLK 4.5 
13 *714:51 *3068:CLK 13.23 
14 *714:39 *3073:CLK 4.5 
15 *714:8 *3071:CLK 12.33 
*END

*D_NET *715 0.0106097
*CONN
*I *3080:CLK I *D gf180mcu_fd_sc_mcu7t5v0__dffq_1
*I *3078:CLK I *D gf180mcu_fd_sc_mcu7t5v0__dffq_1
*I *3079:CLK I *D gf180mcu_fd_sc_mcu7t5v0__dffq_1
*I *3070:CLK I *D gf180mcu_fd_sc_mcu7t5v0__dffq_1
*I *3087:CLK I *D gf180mcu_fd_sc_mcu7t5v0__dffq_1
*I *3131:I I *D gf180mcu_fd_sc_mcu7t5v0__clkinv_8
*I *3116:Z O *D gf180mcu_fd_sc_mcu7t5v0__clkbuf_8
*CAP
1 *3080:CLK 1.90755e-05
2 *3078:CLK 0.000461551
3 *3079:CLK 0.000133441
4 *3070:CLK 0.000467058
5 *3087:CLK 5.69882e-05
6 *3131:I 9.4481e-05
7 *3116:Z 0
8 *715:58 0.000779257
9 *715:37 0.000633403
10 *715:17 0.000625461
11 *715:13 0.000319982
12 *715:4 0.000111716
13 *3078:CLK *2367:I1 4.57596e-05
14 *3078:CLK *744:37 2.36813e-05
15 *3131:I *2361:A1 8.96341e-05
16 *715:13 *2361:A1 2.30981e-05
17 *715:37 *2361:A1 7.12273e-05
18 *715:37 *744:37 3.42583e-05
19 *715:58 *2367:I1 2.26729e-05
20 *715:58 *744:37 3.98244e-05
21 *2347:B *3078:CLK 1.13986e-05
22 *2348:A2 *3078:CLK 0.000101967
23 *2348:A2 *3080:CLK 3.99224e-05
24 *2348:A2 *715:58 6.1714e-05
25 *2363:A1 *715:37 0.000166465
26 *2363:A1 *715:58 0.000130703
27 *2363:A2 *3079:CLK 8.76708e-05
28 *2372:I0 *3070:CLK 3.07932e-05
29 *2372:S *3070:CLK 0
30 *2831:A2 *3079:CLK 0.000364897
31 *3079:D *715:37 0.000153256
32 *3079:D *715:58 0.00034295
33 *3080:D *3078:CLK 0
34 *10:55 *3080:CLK 5.36871e-05
35 *10:55 *715:58 1.30207e-05
36 *244:97 *3070:CLK 0.000554493
37 *250:18 *3078:CLK 0
38 *266:35 *3079:CLK 0.000161838
39 *266:41 *3078:CLK 1.18477e-05
40 *266:41 *715:58 0.00132728
41 *266:65 *715:37 0.00068683
42 *266:65 *715:58 8.42181e-05
43 *266:75 *3131:I 0.000413567
44 *266:75 *715:13 6.2979e-05
45 *266:75 *715:37 0.000438425
46 *267:28 *3078:CLK 0.000354728
47 *284:58 *3070:CLK 0
48 *600:16 *3087:CLK 0.000180463
49 *600:16 *715:17 0.000185705
50 *601:16 *3087:CLK 7.15742e-05
51 *601:16 *715:17 6.71617e-05
52 *693:29 *3070:CLK 0
53 *694:167 *3079:CLK 4.3753e-05
54 *694:201 *3078:CLK 0.000314141
55 *714:21 *3070:CLK 3.96404e-05
*RES
1 *3116:Z *715:4 4.5 
2 *715:4 *3131:I 5.67 
3 *715:4 *715:13 0.27 
4 *715:13 *715:17 5.67 
5 *715:17 *3087:CLK 9.99 
6 *715:17 *3070:CLK 12.87 
7 *715:13 *715:37 3.15 
8 *715:37 *3079:CLK 15.12 
9 *715:37 *715:58 4.86 
10 *715:58 *3078:CLK 17.28 
11 *715:58 *3080:CLK 4.95 
*END

*D_NET *716 0.011304
*CONN
*I *2820:A1 I *D gf180mcu_fd_sc_mcu7t5v0__aoi22_1
*I *2512:A1 I *D gf180mcu_fd_sc_mcu7t5v0__or2_1
*I *2511:A1 I *D gf180mcu_fd_sc_mcu7t5v0__nor2_1
*I *2376:A1 I *D gf180mcu_fd_sc_mcu7t5v0__aoi21_1
*I *2346:A1 I *D gf180mcu_fd_sc_mcu7t5v0__aoi21_1
*I *3074:Q O *D gf180mcu_fd_sc_mcu7t5v0__dffq_1
*CAP
1 *2820:A1 0.000359184
2 *2512:A1 2.23917e-06
3 *2511:A1 3.77397e-05
4 *2376:A1 0.000134953
5 *2346:A1 0.000210993
6 *3074:Q 0
7 *716:21 0.000238163
8 *716:19 0.00015016
9 *716:10 0.000354027
10 *716:6 0.000419767
11 *2511:A1 *2512:A2 9.21285e-05
12 *2820:A1 *750:60 0.000196286
13 *716:21 *2512:A2 4.83522e-05
14 *716:21 *756:148 0
15 *2346:A2 *2346:A1 7.91006e-05
16 *2346:A2 *2376:A1 0.00015691
17 *2346:B *2346:A1 0.00023506
18 *2348:A1 *2346:A1 0.000200308
19 *2376:B *2346:A1 0.000183652
20 *2376:B *2376:A1 0.000436469
21 *2820:B2 *2820:A1 6.85814e-05
22 *2839:A2 *2820:A1 0.00170602
23 *2839:A2 *716:10 0.00143503
24 *2854:A2 *2820:A1 0.000283714
25 *2855:A2 *2820:A1 3.97987e-05
26 *3074:D *2346:A1 1.0415e-05
27 *3074:D *2511:A1 5.97457e-06
28 *3074:D *2512:A1 4.83522e-05
29 *3074:D *716:19 8.84891e-05
30 *3074:CLK *2376:A1 0.000338425
31 *3074:CLK *2511:A1 0.000469918
32 *250:18 *2820:A1 0.00165931
33 *250:18 *716:10 0.00144531
34 *371:8 *2511:A1 0.000154819
35 *645:22 *2820:A1 1.4328e-05
*RES
1 *3074:Q *716:6 9 
2 *716:6 *716:10 8.19 
3 *716:10 *2346:A1 7.29 
4 *716:10 *716:19 0.81 
5 *716:19 *716:21 0.63 
6 *716:21 *2376:A1 6.84 
7 *716:21 *2511:A1 5.85 
8 *716:19 *2512:A1 4.77 
9 *716:6 *2820:A1 16.2 
*END

*D_NET *717 0.00158519
*CONN
*I *3173:I I *D gf180mcu_fd_sc_mcu7t5v0__dlyc_1
*I *2830:B2 I *D gf180mcu_fd_sc_mcu7t5v0__aoi22_1
*I *3075:Q O *D gf180mcu_fd_sc_mcu7t5v0__dffq_1
*CAP
1 *3173:I 0.00055667
2 *2830:B2 4.10734e-05
3 *3075:Q 0.000126222
4 *717:6 0.000723965
5 *2830:B1 *717:6 1.29418e-05
6 *2831:C *3173:I 0
7 *2832:B2 *3173:I 0
8 *2864:B2 *3173:I 4.45837e-05
9 *3185:I *2830:B2 0
10 *3185:I *3173:I 0
11 *265:35 *2830:B2 1.17652e-05
12 *265:35 *3173:I 3.77715e-05
13 *265:35 *717:6 3.01975e-05
14 *600:16 *3173:I 0
*RES
1 *3075:Q *717:6 5.31 
2 *717:6 *2830:B2 4.77 
3 *717:6 *3173:I 16.56 
*END

*D_NET *718 0.00557837
*CONN
*I *3186:I I *D gf180mcu_fd_sc_mcu7t5v0__dlyc_1
*I *2837:B2 I *D gf180mcu_fd_sc_mcu7t5v0__aoi22_1
*I *3076:Q O *D gf180mcu_fd_sc_mcu7t5v0__dffq_1
*CAP
1 *3186:I 0.000479608
2 *2837:B2 0.000430267
3 *3076:Q 0
4 *718:4 0.000909876
5 *2837:B2 *2823:A1 0.000425761
6 *2837:B2 *750:60 0.000423755
7 *3186:I *2370:I1 8.61061e-05
8 *3186:I *783:16 0.000213957
9 *3186:I *783:80 0.000188947
10 *2823:A2 *2837:B2 0.000543506
11 *2823:B *2837:B2 8.53098e-05
12 *2838:A2 *3186:I 0.000185523
13 *2838:B1 *2837:B2 0
14 *2839:A2 *2837:B2 3.21801e-05
15 *2840:B2 *3186:I 0.000229402
16 *2847:A2 *3186:I 0.000347676
17 *2854:C *2837:B2 0.000344002
18 *251:30 *3186:I 4.45215e-05
19 *266:111 *3186:I 2.14848e-05
20 *688:12 *3186:I 0.000586488
21 *688:14 *3186:I 0
*RES
1 *3076:Q *718:4 4.5 
2 *718:4 *2837:B2 9.09 
3 *718:4 *3186:I 18.9 
*END

*D_NET *719 0.00458656
*CONN
*I *3177:I I *D gf180mcu_fd_sc_mcu7t5v0__dlyc_1
*I *2846:A1 I *D gf180mcu_fd_sc_mcu7t5v0__aoi22_1
*I *3077:Q O *D gf180mcu_fd_sc_mcu7t5v0__dffq_1
*CAP
1 *3177:I 0.00060836
2 *2846:A1 0.000366787
3 *3077:Q 0
4 *719:6 0.000975146
5 *2846:A1 *759:40 0.000365454
6 *3177:I *2840:A1 2.70026e-05
7 *2350:B *2846:A1 4.5501e-05
8 *2832:A2 *3177:I 2.30131e-05
9 *2840:B2 *2846:A1 0.00081628
10 *2840:B2 *3177:I 0.000214596
11 *2841:A2 *3177:I 0.000100557
12 *2847:C *2846:A1 0.000283714
13 *2848:B1 *3177:I 1.97376e-05
14 *2848:B2 *3177:I 0
15 *2864:B2 *2846:A1 0.000192283
16 *589:25 *3177:I 5.78854e-06
17 *589:33 *3177:I 0.000187524
18 *589:35 *3177:I 9.85004e-05
19 *590:49 *3177:I 0.000173031
20 *590:64 *3177:I 2.79678e-05
21 *590:66 *3177:I 5.53212e-05
*RES
1 *3077:Q *719:6 9 
2 *719:6 *2846:A1 13.32 
3 *719:6 *3177:I 14.13 
*END

*D_NET *720 0.0164812
*CONN
*I *2853:A1 I *D gf180mcu_fd_sc_mcu7t5v0__aoi22_1
*I *2359:A1 I *D gf180mcu_fd_sc_mcu7t5v0__oai21_1
*I *2771:A1 I *D gf180mcu_fd_sc_mcu7t5v0__aoi22_1
*I *2344:A2 I *D gf180mcu_fd_sc_mcu7t5v0__nor2_1
*I *2379:A1 I *D gf180mcu_fd_sc_mcu7t5v0__nand2_1
*I *2380:A2 I *D gf180mcu_fd_sc_mcu7t5v0__nor2_1
*I *3078:Q O *D gf180mcu_fd_sc_mcu7t5v0__dffq_1
*CAP
1 *2853:A1 0.00110392
2 *2359:A1 6.1079e-05
3 *2771:A1 0.000499092
4 *2344:A2 0.000100035
5 *2379:A1 0
6 *2380:A2 0.000557266
7 *3078:Q 0
8 *720:42 0.000896484
9 *720:14 0.000653347
10 *720:12 0.00141511
11 *720:10 0.00161437
12 *720:6 0.00163553
13 *2380:A2 *2380:A1 1.61174e-05
14 *2380:A2 *781:14 0.000779065
15 *2771:A1 *2683:A1 0.000273851
16 *2771:A1 *723:68 0.000121817
17 *2771:A1 *723:78 7.39052e-05
18 *2853:A1 *2368:I1 0.000720229
19 *2853:A1 *2831:A1 2.54656e-05
20 *2853:A1 *2852:B 2.63343e-05
21 *2853:A1 *2853:B2 0.000179923
22 *2853:A1 *759:78 5.35249e-05
23 *720:10 *2367:I1 1.23523e-05
24 *2347:B *720:12 4.54901e-05
25 *2352:A2 *720:12 7.02619e-05
26 *2379:A2 *2344:A2 7.58409e-06
27 *2379:A2 *720:42 7.90366e-05
28 *2382:A1 *720:12 0
29 *2382:B1 *720:42 1.0415e-05
30 *2386:A1 *720:12 3.1302e-05
31 *2386:A1 *720:14 9.29483e-05
32 *2666:A2 *2771:A1 7.71021e-06
33 *2770:A1 *2380:A2 0
34 *2770:A1 *2771:A1 0.000244792
35 *2771:A2 *2771:A1 7.20436e-05
36 *2820:A2 *2853:A1 2.18833e-05
37 *2831:A2 *2771:A1 0.00157273
38 *2832:B2 *2853:A1 0.000119777
39 *2846:A2 *2853:A1 0.000164219
40 *2854:B1 *720:10 4.02636e-05
41 *3078:D *2359:A1 0.000302466
42 *3078:D *720:10 3.96522e-05
43 *214:22 *2380:A2 1.61174e-05
44 *214:22 *2771:A1 0.000152367
45 *244:61 *720:10 2.84883e-05
46 *244:61 *720:12 6.0354e-06
47 *244:76 *2359:A1 0.000578516
48 *248:10 *2853:A1 0
49 *248:12 *2853:A1 0
50 *265:102 *2853:A1 9.04462e-05
51 *266:27 *2853:A1 0
52 *266:27 *720:10 0
53 *266:35 *720:10 0
54 *266:35 *720:12 0
55 *266:41 *720:12 0
56 *268:45 *720:42 0
57 *282:10 *2853:A1 8.12856e-06
58 *283:33 *2853:A1 0
59 *283:33 *720:10 1.36885e-05
60 *284:34 *2359:A1 1.83325e-05
61 *289:12 *2380:A2 1.71254e-05
62 *289:12 *2771:A1 0
63 *289:12 *720:14 7.48093e-05
64 *289:12 *720:42 9.57249e-05
65 *296:35 *2380:A2 4.93098e-06
66 *296:35 *720:12 8.22657e-05
67 *296:35 *720:14 3.13946e-05
68 *484:6 *2771:A1 6.11784e-05
69 *499:20 *2380:A2 0.000107995
70 *499:20 *720:14 0.000182206
71 *502:18 *2380:A2 0.000198467
72 *503:36 *2380:A2 0.000209829
73 *630:24 *2853:A1 0.000711329
74 *694:13 *2380:A2 5.04434e-05
75 *694:167 *720:12 0
*RES
1 *3078:Q *720:6 9 
2 *720:6 *720:10 4.14 
3 *720:10 *720:12 6.93 
4 *720:12 *720:14 1.17 
5 *720:14 *2380:A2 13.77 
6 *720:14 *2379:A1 9 
7 *720:12 *720:42 6.75 
8 *720:42 *2344:A2 4.95 
9 *720:42 *2771:A1 19.62 
10 *720:10 *2359:A1 10.53 
11 *720:6 *2853:A1 18.18 
*END

*D_NET *721 0.0138542
*CONN
*I *2862:A1 I *D gf180mcu_fd_sc_mcu7t5v0__aoi22_1
*I *2362:A1 I *D gf180mcu_fd_sc_mcu7t5v0__oai21_1
*I *2377:A2 I *D gf180mcu_fd_sc_mcu7t5v0__nand2_1
*I *2344:A1 I *D gf180mcu_fd_sc_mcu7t5v0__nor2_1
*I *2666:A1 I *D gf180mcu_fd_sc_mcu7t5v0__nand2_1
*I *2683:A1 I *D gf180mcu_fd_sc_mcu7t5v0__aoi21_1
*I *3079:Q O *D gf180mcu_fd_sc_mcu7t5v0__dffq_1
*CAP
1 *2862:A1 0.000271138
2 *2362:A1 0
3 *2377:A2 0
4 *2344:A1 0
5 *2666:A1 0.000110372
6 *2683:A1 8.80755e-05
7 *3079:Q 9.58616e-05
8 *721:26 0.000303197
9 *721:22 0.000166894
10 *721:18 0.000395756
11 *721:12 0.000574188
12 *721:10 0.000607576
13 *2666:A1 *2842:B2 0.00104769
14 *2862:A1 *2868:B 0.000156399
15 *721:10 *2371:I1 0.000171188
16 *2360:A1 *721:10 0.000353333
17 *2362:B *721:18 0.000174497
18 *2377:A1 *721:22 0.00052479
19 *2377:A1 *721:26 0.000225225
20 *2378:A2 *721:18 7.78397e-05
21 *2666:A2 *2666:A1 0.00098739
22 *2666:A2 *2683:A1 2.08301e-05
23 *2683:B *2683:A1 0.000397478
24 *2769:A2 *2683:A1 0.000101624
25 *2771:A1 *2683:A1 0.000273851
26 *2831:A2 *721:22 2.63343e-05
27 *2868:A1 *2862:A1 0.000311397
28 *2868:A1 *721:12 0.000643035
29 *2868:A1 *721:18 0.000553849
30 *214:22 *2683:A1 3.75296e-05
31 *244:82 *721:12 0.000942826
32 *244:82 *721:18 7.03219e-05
33 *267:17 *2862:A1 0.000318826
34 *267:21 *2862:A1 3.53802e-05
35 *267:21 *721:12 0.000202387
36 *268:8 *2683:A1 0.000234541
37 *268:8 *721:26 0.00109421
38 *268:45 *721:18 6.34901e-05
39 *268:45 *721:22 0.000243301
40 *268:45 *721:26 3.64412e-05
41 *284:34 *721:10 3.22348e-05
42 *371:22 *721:18 0.00014037
43 *501:8 *2683:A1 0.000127778
44 *501:8 *721:26 0.000570706
45 *502:18 *2666:A1 2.08301e-05
46 *502:18 *2683:A1 9.84908e-05
47 *600:16 *2862:A1 0.000732808
48 *631:16 *721:18 0.000191949
*RES
1 *3079:Q *721:10 10.44 
2 *721:10 *721:12 4.23 
3 *721:12 *721:18 9.36 
4 *721:18 *721:22 6.03 
5 *721:22 *721:26 3.24 
6 *721:26 *2683:A1 10.98 
7 *721:26 *2666:A1 11.97 
8 *721:22 *2344:A1 9 
9 *721:18 *2377:A2 4.5 
10 *721:12 *2362:A1 9 
11 *721:10 *2862:A1 13.23 
*END

*D_NET *722 0.0302372
*CONN
*I *2869:A1 I *D gf180mcu_fd_sc_mcu7t5v0__aoi22_1
*I *2783:A1 I *D gf180mcu_fd_sc_mcu7t5v0__oai21_1
*I *2792:A1 I *D gf180mcu_fd_sc_mcu7t5v0__or4_1
*I *2781:A1 I *D gf180mcu_fd_sc_mcu7t5v0__nor3_1
*I *2787:A1 I *D gf180mcu_fd_sc_mcu7t5v0__or4_1
*I *2780:A1 I *D gf180mcu_fd_sc_mcu7t5v0__nor2_1
*I *2309:I I *D gf180mcu_fd_sc_mcu7t5v0__clkinv_1
*I *2923:Q O *D gf180mcu_fd_sc_mcu7t5v0__dffq_1
*CAP
1 *2869:A1 0.00454725
2 *2783:A1 4.95016e-05
3 *2792:A1 8.34216e-05
4 *2781:A1 0.000462818
5 *2787:A1 8.02831e-05
6 *2780:A1 0.000149409
7 *2309:I 0
8 *2923:Q 0
9 *722:43 0.000276957
10 *722:41 0.000570084
11 *722:39 0.00136361
12 *722:33 0.0019987
13 *722:22 0.00362491
14 *722:8 0.00744315
15 *2781:A1 *2776:A1 0.000214327
16 *2869:A1 *2869:B2 5.02442e-05
17 *2869:A1 *2876:B2 0.000209676
18 *2869:A1 *743:30 0.000107788
19 *2869:A1 *752:36 0.000175204
20 *2869:A1 *753:27 0.000203398
21 *2869:A1 *755:29 0.000118359
22 *2869:A1 *755:35 0.000107087
23 *722:22 *2628:A1 0
24 *722:22 *2799:A1 0
25 *722:22 *3156:I 2.31089e-05
26 *722:22 *723:18 0.000335547
27 *722:22 *735:19 0
28 *722:22 *735:34 0
29 *722:22 *737:30 0.000895229
30 *722:33 *2799:A1 7.16298e-05
31 *722:33 *3156:I 4.15021e-05
32 *2383:B2 *722:22 0.00103142
33 *2383:B2 *722:33 4.34597e-05
34 *2628:A2 *722:22 3.31517e-06
35 *2632:A4 *722:22 0.000672279
36 *2775:A1 *722:39 0.000189328
37 *2777:A3 *722:39 0.000501195
38 *2778:A3 *722:39 0.00135391
39 *2781:A2 *2780:A1 3.01487e-05
40 *2781:A2 *2787:A1 7.84312e-05
41 *2783:A2 *2783:A1 6.1299e-06
42 *2784:A1 *2781:A1 8.53366e-05
43 *2784:A2 *2781:A1 4.33148e-05
44 *2787:A2 *2781:A1 6.26224e-06
45 *2787:A2 *722:39 2.79568e-05
46 *2787:A4 *2780:A1 5.0784e-05
47 *2787:A4 *2792:A1 0.000471962
48 *2787:A4 *722:41 5.912e-05
49 *2787:A4 *722:43 2.16578e-05
50 *2788:A1 *2781:A1 7.56646e-05
51 *2788:A1 *2787:A1 1.14089e-05
52 *2788:B *2781:A1 4.59827e-06
53 *2788:B *2792:A1 1.0415e-05
54 *2788:B *722:39 0.000156612
55 *2792:A2 *2792:A1 0.000224469
56 *2792:A2 *722:39 1.57137e-05
57 *2796:A2 *722:33 0.000467639
58 *2799:B *722:22 5.97457e-06
59 *3042:D *2780:A1 3.65186e-05
60 *3042:D *722:43 1.67011e-05
61 *3062:CLK *2869:A1 2.16833e-05
62 *211:8 *722:39 0.000133786
63 *211:10 *722:39 6.3006e-05
64 *244:101 *2869:A1 0.000101607
65 *255:27 *2869:A1 0.000130857
66 *571:12 *2783:A1 1.31385e-05
67 *571:22 *2781:A1 0.0001447
68 *571:22 *722:43 9.04462e-05
69 *571:28 *2781:A1 6.98474e-05
70 *571:28 *2787:A1 0.000122568
71 *574:12 *722:39 0.000440674
72 *583:21 *722:33 0
*RES
1 *2923:Q *722:8 13.5 
2 *722:8 *722:22 33.2646 
3 *722:22 *2309:I 4.5 
4 *722:22 *722:33 9.9 
5 *722:33 *722:39 16.02 
6 *722:39 *722:41 0.63 
7 *722:41 *722:43 0.63 
8 *722:43 *2780:A1 5.58 
9 *722:43 *2787:A1 14.49 
10 *722:41 *2781:A1 16.83 
11 *722:39 *2792:A1 6.39 
12 *722:33 *2783:A1 9.27 
13 *722:8 *2869:A1 34.9335 
*END

*D_NET *723 0.0296698
*CONN
*I *2876:A1 I *D gf180mcu_fd_sc_mcu7t5v0__aoi22_1
*I *2665:A2 I *D gf180mcu_fd_sc_mcu7t5v0__and2_1
*I *2664:A2 I *D gf180mcu_fd_sc_mcu7t5v0__nor2_1
*I *2767:A1 I *D gf180mcu_fd_sc_mcu7t5v0__oai31_1
*I *2384:B2 I *D gf180mcu_fd_sc_mcu7t5v0__aoi22_1
*I *2798:C I *D gf180mcu_fd_sc_mcu7t5v0__oai211_1
*I *2783:B I *D gf180mcu_fd_sc_mcu7t5v0__oai21_1
*I *2779:A1 I *D gf180mcu_fd_sc_mcu7t5v0__nand2_1
*I *2924:Q O *D gf180mcu_fd_sc_mcu7t5v0__dffq_1
*CAP
1 *2876:A1 0.00224682
2 *2665:A2 3.44897e-05
3 *2664:A2 0
4 *2767:A1 0.000164174
5 *2384:B2 0
6 *2798:C 8.39224e-05
7 *2783:B 9.01942e-05
8 *2779:A1 0
9 *2924:Q 0
10 *723:78 0.000361956
11 *723:68 0.00142475
12 *723:51 0.00148786
13 *723:24 0.000511424
14 *723:18 0.00303777
15 *723:8 0.00308885
16 *723:6 0.00250768
17 *2876:A1 *2329:A1 6.05988e-05
18 *2876:A1 *2838:B2 9.92405e-05
19 *2876:A1 *2876:B2 6.08466e-05
20 *2876:A1 *2921:A1 3.45237e-05
21 *2876:A1 *749:39 2.23179e-05
22 *2876:A1 *750:29 0
23 *2876:A1 *751:26 1.57095e-05
24 *2876:A1 *752:36 4.77012e-05
25 *2876:A1 *849:10 1.19491e-05
26 *2876:A1 *853:14 6.7442e-05
27 *2876:A1 *857:10 0.000119192
28 *723:8 *756:447 0
29 *723:18 *2378:A1 0.00097681
30 *723:18 *2622:A2 0.00184567
31 *723:18 *2667:A2 0.000135676
32 *723:18 *734:38 0
33 *723:18 *737:30 0.000106147
34 *723:18 *756:447 0
35 *723:51 *2375:I1 8.12023e-06
36 *723:51 *2378:A1 0.000138569
37 *723:51 *755:35 2.6441e-05
38 *723:68 *2375:I1 0.000143146
39 *723:68 *2378:A1 0.000134153
40 *723:68 *2771:B2 3.55118e-05
41 *2327:A2 *2876:A1 0.000122626
42 *2328:B *2876:A1 3.64152e-05
43 *2336:B *2876:A1 5.05815e-05
44 *2374:A1 *723:51 3.01487e-05
45 *2374:A1 *723:68 0.0009252
46 *2374:A2 *723:68 0.00042224
47 *2374:B *723:68 0.000356899
48 *2383:B2 *723:18 1.25563e-06
49 *2622:A1 *723:18 2.38983e-05
50 *2622:A3 *723:18 0.000424357
51 *2632:A4 *723:18 0.000127515
52 *2664:A1 *2767:A1 7.55765e-06
53 *2664:A1 *723:78 3.46409e-05
54 *2665:A1 *723:78 9.04462e-05
55 *2767:B *2767:A1 2.5887e-05
56 *2770:A2 *723:68 0.000388581
57 *2771:A1 *723:68 0.000121817
58 *2771:A1 *723:78 7.39052e-05
59 *2771:B1 *723:68 0.000578298
60 *2773:A2 *723:68 0.000101624
61 *2773:B *723:68 5.57986e-05
62 *2796:A2 *723:18 1.30531e-05
63 *2796:A2 *723:24 1.6879e-05
64 *2798:A2 *2798:C 8.68281e-06
65 *2798:B *2798:C 3.01487e-05
66 *2799:A2 *2798:C 1.86195e-05
67 *2831:A2 *723:78 0.000185715
68 *2868:A1 *723:68 0.000119685
69 *2917:A2 *2876:A1 0.000101917
70 *3046:D *2798:C 0.000285156
71 *3069:D *2876:A1 0
72 *3087:D *723:68 6.18747e-05
73 *3088:CLK *723:18 8.3976e-05
74 *209:26 *2876:A1 0
75 *209:36 *2876:A1 2.76863e-05
76 *214:22 *723:78 0.000207732
77 *240:8 *2876:A1 7.71766e-05
78 *240:14 *2876:A1 0.000125629
79 *244:101 *2876:A1 0.000116802
80 *244:101 *723:8 0
81 *244:101 *723:18 0
82 *244:128 *2876:A1 3.04847e-05
83 *244:143 *2876:A1 0.00017918
84 *254:8 *2876:A1 0
85 *254:10 *2876:A1 0
86 *255:8 *2876:A1 0
87 *255:27 *2876:A1 0.000235614
88 *255:37 *2876:A1 0.000146193
89 *255:39 *2876:A1 0.000118567
90 *255:43 *2876:A1 0.000130994
91 *268:23 *2767:A1 2.18208e-05
92 *268:23 *723:68 1.0415e-05
93 *268:23 *723:78 0.00011785
94 *296:35 *2767:A1 0.000603311
95 *296:35 *723:78 5.25991e-05
96 *371:22 *723:68 0
97 *371:45 *723:18 0.000566943
98 *371:68 *2783:B 0.000106536
99 *371:68 *723:24 0.000620139
100 *371:83 *2783:B 7.10237e-05
101 *456:6 *723:18 0.000213209
102 *456:8 *723:18 0.000399257
103 *463:10 *723:18 0.000148021
104 *483:8 *723:78 0.000149596
105 *571:12 *2783:B 4.83522e-05
106 *571:12 *723:24 0.000121108
107 *583:8 *723:24 6.09211e-05
108 *583:21 *723:24 0.000241022
109 *631:16 *723:68 0.00014882
110 *694:13 *723:78 9.82023e-06
111 *708:20 *723:18 0.000108922
112 *708:20 *723:24 6.35039e-05
113 *714:55 *2876:A1 0
114 *722:22 *723:18 0.000335547
*RES
1 *2924:Q *723:6 9 
2 *723:6 *723:8 2.07 
3 *723:8 *723:18 32.67 
4 *723:18 *723:24 8.46 
5 *723:24 *2779:A1 4.5 
6 *723:24 *2783:B 5.58 
7 *723:18 *2798:C 9.81 
8 *723:8 *723:51 6.75 
9 *723:51 *2384:B2 4.5 
10 *723:51 *723:68 22.5 
11 *723:68 *723:78 11.79 
12 *723:78 *2767:A1 6.48 
13 *723:78 *2664:A2 4.5 
14 *723:68 *2665:A2 4.77 
15 *723:6 *2876:A1 27.27 
*END

*D_NET *724 0.00118848
*CONN
*I *2667:A2 I *D gf180mcu_fd_sc_mcu7t5v0__nor2_1
*I *3088:Q O *D gf180mcu_fd_sc_mcu7t5v0__dffq_1
*CAP
1 *2667:A2 0.00037362
2 *3088:Q 0.00037362
3 *2667:A2 *2667:A1 1.0415e-05
4 *2383:B2 *2667:A2 5.79059e-06
5 *2629:A3 *2667:A2 0
6 *3117:I *2667:A2 5.80846e-05
7 *371:45 *2667:A2 7.25591e-05
8 *460:6 *2667:A2 0.000158716
9 *723:18 *2667:A2 0.000135676
*RES
1 *3088:Q *2667:A2 21.06 
*END

*D_NET *725 0.0126831
*CONN
*I *2378:A1 I *D gf180mcu_fd_sc_mcu7t5v0__nand2_1
*I *2622:A2 I *D gf180mcu_fd_sc_mcu7t5v0__oai31_1
*I *2295:I I *D gf180mcu_fd_sc_mcu7t5v0__clkinv_1
*I *2618:A2 I *D gf180mcu_fd_sc_mcu7t5v0__nor2_1
*I *2997:Q O *D gf180mcu_fd_sc_mcu7t5v0__dffq_1
*CAP
1 *2378:A1 0.000916825
2 *2622:A2 0.000219922
3 *2295:I 0
4 *2618:A2 0
5 *2997:Q 0.000196085
6 *725:32 0.00131453
7 *725:21 0.000432866
8 *725:10 0.000451164
9 *725:10 *2624:A3 1.51153e-05
10 *725:10 *727:51 1.51153e-05
11 *725:21 *727:51 6.26074e-05
12 *725:32 *2619:B 0.000580984
13 *725:32 *756:447 4.47101e-05
14 *2374:A1 *2378:A1 0.000238479
15 *2374:B *2378:A1 0.000356899
16 *2379:A2 *2378:A1 1.61174e-05
17 *2383:A2 *2378:A1 9.04462e-05
18 *2383:B2 *725:10 0.000375564
19 *2383:B2 *725:21 4.29496e-05
20 *2619:A1 *2622:A2 0.00017364
21 *2619:A2 *725:21 4.34691e-05
22 *2619:A2 *725:32 4.87375e-05
23 *2621:A1 *2378:A1 0.00181062
24 *2621:A1 *2622:A2 0.000236717
25 *2622:A1 *2622:A2 5.40467e-05
26 *2998:D *2622:A2 0.000294431
27 *2998:CLK *725:10 0.000342273
28 *2999:D *725:10 3.55118e-05
29 *453:10 *725:10 0.000106536
30 *453:10 *725:21 0.000845251
31 *455:10 *725:21 0.000213928
32 *698:67 *725:10 1.23607e-05
33 *723:18 *2378:A1 0.00097681
34 *723:18 *2622:A2 0.00184567
35 *723:51 *2378:A1 0.000138569
36 *723:68 *2378:A1 0.000134153
*RES
1 *2997:Q *725:10 6.93 
2 *725:10 *2618:A2 4.5 
3 *725:10 *725:21 7.92 
4 *725:21 *2295:I 9 
5 *725:21 *725:32 6.57 
6 *725:32 *2622:A2 9.45 
7 *725:32 *2378:A1 17.1 
*END

*D_NET *726 0.0172849
*CONN
*I *2771:B2 I *D gf180mcu_fd_sc_mcu7t5v0__aoi22_1
*I *2772:A1 I *D gf180mcu_fd_sc_mcu7t5v0__oai21_1
*I *2283:I I *D gf180mcu_fd_sc_mcu7t5v0__clkinv_1
*I *2513:A1 I *D gf180mcu_fd_sc_mcu7t5v0__nand2_1
*I *2585:A1 I *D gf180mcu_fd_sc_mcu7t5v0__nand3_1
*I *2624:A1 I *D gf180mcu_fd_sc_mcu7t5v0__and4_1
*I *3039:Q O *D gf180mcu_fd_sc_mcu7t5v0__dffq_1
*CAP
1 *2771:B2 0.000187496
2 *2772:A1 0
3 *2283:I 0
4 *2513:A1 9.54037e-05
5 *2585:A1 0.000321233
6 *2624:A1 0.000471591
7 *3039:Q 9.244e-05
8 *726:41 0.00208967
9 *726:16 0.00367484
10 *726:12 0.00174372
11 *726:10 0.000493444
12 *2513:A1 *3172:I 6.8618e-06
13 *2585:A1 *3172:I 1.24166e-05
14 *2624:A1 *2624:A2 1.56493e-05
15 *2624:A1 *2624:A3 0.000185533
16 *2771:B2 *2842:B2 0
17 *726:12 *2842:B2 0
18 *726:16 *2389:A1 0
19 *726:16 *3229:I 0
20 *726:16 *774:14 0.000319716
21 *726:41 *2517:A1 0.00135185
22 *726:41 *2528:A1 0.000103508
23 *726:41 *2531:A1 0.00027267
24 *726:41 *3136:I 0
25 *726:41 *3172:I 9.29938e-05
26 *726:41 *873:10 9.4836e-05
27 *726:41 *873:12 0.000305629
28 *726:41 *880:12 7.96987e-05
29 *726:41 *881:17 0.00022921
30 *2383:B2 *726:16 3.31332e-05
31 *2515:A1 *726:16 0
32 *2516:A2 *2624:A1 8.96422e-05
33 *2516:A2 *726:16 0.00021843
34 *2516:A2 *726:41 0.000161725
35 *2519:A2 *726:41 6.98563e-05
36 *2520:A1 *726:41 0
37 *2526:A2 *726:41 3.01575e-05
38 *2530:A4 *726:41 0
39 *2533:I *726:41 0
40 *2585:A2 *2513:A1 8.49143e-05
41 *2585:A2 *2585:A1 0.000525354
42 *2617:A1 *2624:A1 2.70026e-05
43 *2617:A2 *2624:A1 0.00035003
44 *2617:A2 *726:41 1.18076e-06
45 *2624:A4 *2624:A1 6.2083e-05
46 *2626:A3 *2624:A1 5.92385e-05
47 *2772:A2 *726:12 9.6501e-06
48 *2773:B *2771:B2 0.000208135
49 *2773:B *726:12 0.000130371
50 *2773:B *726:16 1.07374e-05
51 *2925:CLK *726:16 0.000268972
52 *2976:CLK *726:41 8.1928e-05
53 *2997:D *726:41 0
54 *2999:D *2624:A1 4.91692e-05
55 *3092:I *726:16 3.12455e-05
56 *3094:I *726:10 0.00030693
57 *225:47 *2624:A1 0.000531929
58 *225:47 *726:16 0.000372037
59 *296:35 *726:12 0
60 *296:35 *726:16 0.000143661
61 *373:23 *2585:A1 0.000163756
62 *373:237 *726:41 0
63 *373:248 *726:41 0
64 *373:272 *726:41 0
65 *373:281 *726:41 0
66 *378:10 *726:41 0
67 *382:12 *726:41 2.57662e-05
68 *384:19 *726:41 8.22584e-05
69 *601:16 *726:10 0.000162129
70 *698:67 *2624:A1 0.000674891
71 *700:19 *2513:A1 4.27e-05
72 *723:68 *2771:B2 3.55118e-05
*RES
1 *3039:Q *726:10 15.21 
2 *726:10 *726:12 1.53 
3 *726:12 *726:16 12.78 
4 *726:16 *2624:A1 19.17 
5 *726:16 *726:41 21.42 
6 *726:41 *2585:A1 12.87 
7 *726:41 *2513:A1 9.63 
8 *726:16 *2283:I 4.5 
9 *726:12 *2772:A1 4.5 
10 *726:10 *2771:B2 6.03 
*END

*D_NET *727 0.0101223
*CONN
*I *2620:A1 I *D gf180mcu_fd_sc_mcu7t5v0__and2_1
*I *2619:B I *D gf180mcu_fd_sc_mcu7t5v0__aoi21_1
*I *2624:A3 I *D gf180mcu_fd_sc_mcu7t5v0__and4_1
*I *2604:A2 I *D gf180mcu_fd_sc_mcu7t5v0__xor2_1
*I *2613:A4 I *D gf180mcu_fd_sc_mcu7t5v0__nor4_1
*I *2998:Q O *D gf180mcu_fd_sc_mcu7t5v0__dffq_1
*CAP
1 *2620:A1 7.55385e-05
2 *2619:B 9.00953e-05
3 *2624:A3 0.000385647
4 *2604:A2 0.000618686
5 *2613:A4 0
6 *2998:Q 0
7 *727:51 0.000453275
8 *727:34 0.00141552
9 *727:10 0.00125208
10 *727:4 0.00137562
11 *2604:A2 *2600:A2 0.000199141
12 *2604:A2 *2601:A1 0.000142874
13 *2604:A2 *2601:A2 9.00225e-05
14 *2604:A2 *2604:A1 9.85004e-05
15 *2604:A2 *736:74 0.000110922
16 *2624:A3 *2624:A2 0.000362773
17 *2624:A3 *734:16 7.39052e-05
18 *727:10 *734:16 1.20136e-05
19 *727:10 *734:38 1.25373e-05
20 *727:34 *734:38 5.47237e-05
21 *2383:B2 *2620:A1 0
22 *2615:A1 *727:10 0
23 *2616:I *2604:A2 3.3982e-05
24 *2616:I *727:10 0.000179602
25 *2619:A2 *2619:B 0.00023711
26 *2620:A2 *2620:A1 7.70028e-05
27 *2620:A2 *727:51 2.31089e-05
28 *2621:A3 *727:34 1.99431e-05
29 *2622:A1 *727:34 8.72259e-05
30 *2622:A3 *727:34 0
31 *2624:A1 *2624:A3 0.000185533
32 *2625:A2 *2624:A3 0.0003073
33 *2625:A2 *727:51 0.000175108
34 *2998:CLK *2624:A3 0.000112472
35 *2998:CLK *727:34 0.00023712
36 *3117:I *2604:A2 0
37 *3117:I *727:10 0
38 *445:10 *2604:A2 6.85746e-06
39 *452:8 *727:34 0
40 *455:10 *727:34 9.72182e-06
41 *455:10 *727:51 8.02954e-05
42 *486:20 *2620:A1 0.000425752
43 *486:20 *727:51 0.000375068
44 *698:67 *2624:A3 5.14009e-05
45 *725:10 *2624:A3 1.51153e-05
46 *725:10 *727:51 1.51153e-05
47 *725:21 *727:51 6.26074e-05
48 *725:32 *2619:B 0.000580984
*RES
1 *2998:Q *727:4 4.5 
2 *727:4 *727:10 9 
3 *727:10 *2613:A4 9 
4 *727:10 *2604:A2 14.04 
5 *727:4 *727:34 14.31 
6 *727:34 *2624:A3 8.73 
7 *727:34 *727:51 3.15 
8 *727:51 *2619:B 15.03 
9 *727:51 *2620:A1 5.67 
*END

*D_NET *728 0.0103336
*CONN
*I *2648:A1 I *D gf180mcu_fd_sc_mcu7t5v0__nor2_1
*I *2610:A2 I *D gf180mcu_fd_sc_mcu7t5v0__nor4_1
*I *2602:A2 I *D gf180mcu_fd_sc_mcu7t5v0__xor2_1
*I *2651:A2 I *D gf180mcu_fd_sc_mcu7t5v0__and4_1
*I *2649:A1 I *D gf180mcu_fd_sc_mcu7t5v0__and2_1
*I *3008:Q O *D gf180mcu_fd_sc_mcu7t5v0__dffq_1
*CAP
1 *2648:A1 0.000516487
2 *2610:A2 0.000250461
3 *2602:A2 0.0004662
4 *2651:A2 0
5 *2649:A1 0.000196985
6 *3008:Q 0.000265104
7 *728:32 0.0010018
8 *728:25 0.000453623
9 *728:21 0.000782885
10 *728:10 0.000560007
11 *2602:A2 *2599:A1 9.68777e-05
12 *2602:A2 *2602:A1 1.07374e-05
13 *2602:A2 *3097:I 0.000290607
14 *2610:A2 *742:36 8.77159e-05
15 *2610:A2 *742:49 1.61174e-05
16 *2648:A1 *2652:A1 0.000294421
17 *2648:A1 *2659:A1 0
18 *2648:A1 *733:14 0
19 *2648:A1 *742:10 8.22657e-05
20 *728:10 *740:14 0
21 *728:25 *2646:A1 3.1493e-05
22 *728:25 *2651:A3 0.000269245
23 *728:32 *2599:A2 0
24 *728:32 *2651:A3 3.01487e-05
25 *728:32 *3097:I 5.11087e-05
26 *2606:A4 *2602:A2 0.000305503
27 *2608:A4 *2610:A2 8.49127e-05
28 *2614:A1 *2610:A2 0.000294153
29 *2645:A2 *2602:A2 4.55586e-05
30 *2645:A2 *728:32 0.00109098
31 *2647:A2 *2648:A1 2.16372e-05
32 *2647:A2 *728:10 6.95539e-05
33 *2647:A2 *728:21 0.00011394
34 *2647:A2 *728:25 0.000104415
35 *2647:A2 *728:32 4.266e-05
36 *2649:A2 *2649:A1 0.000139825
37 *2650:A3 *2648:A1 0.000145904
38 *2652:B *2648:A1 0.000183652
39 *2655:A2 *2610:A2 2.44598e-07
40 *2659:A2 *2648:A1 0
41 *3006:CLK *2649:A1 1.60944e-05
42 *3007:D *2649:A1 0
43 *3007:D *728:10 0.000276481
44 *457:47 *2648:A1 2.60549e-05
45 *470:19 *728:10 3.60134e-05
46 *470:32 *2649:A1 2.14748e-05
47 *470:32 *728:25 0
48 *470:32 *728:32 0
49 *699:21 *2648:A1 0.000375176
50 *699:21 *728:10 0.000466026
51 *699:21 *728:21 0.00071904
*RES
1 *3008:Q *728:10 12.24 
2 *728:10 *2649:A1 10.35 
3 *728:10 *728:21 1.89 
4 *728:21 *728:25 6.03 
5 *728:25 *2651:A2 4.5 
6 *728:25 *728:32 3.33 
7 *728:32 *2602:A2 8.64 
8 *728:32 *2610:A2 15.48 
9 *728:21 *2648:A1 14.04 
*END

*D_NET *729 0.00868239
*CONN
*I *2605:A2 I *D gf180mcu_fd_sc_mcu7t5v0__xor2_1
*I *2610:A1 I *D gf180mcu_fd_sc_mcu7t5v0__nor4_1
*I *2651:A1 I *D gf180mcu_fd_sc_mcu7t5v0__and4_1
*I *2652:A1 I *D gf180mcu_fd_sc_mcu7t5v0__oai21_1
*I *3009:Q O *D gf180mcu_fd_sc_mcu7t5v0__dffq_1
*CAP
1 *2605:A2 0.000280307
2 *2610:A1 4.42249e-05
3 *2651:A1 0.000180361
4 *2652:A1 3.0697e-05
5 *3009:Q 0
6 *729:34 0.000691619
7 *729:13 0.000602073
8 *729:4 8.53218e-05
9 *2605:A2 *2589:A2 2.51943e-05
10 *2605:A2 *2596:A1 0.000215887
11 *2605:A2 *2611:A1 3.01487e-05
12 *2605:A2 *2645:A1 5.79792e-06
13 *2610:A1 *2655:A1 0.000237101
14 *729:34 *2611:A1 0.000308481
15 *729:34 *733:14 0.000568913
16 *2606:A2 *2605:A2 0.000325173
17 *2608:A1 *2610:A1 0.000820169
18 *2608:A4 *2605:A2 0
19 *2608:A4 *2610:A1 0.000320262
20 *2648:A1 *2652:A1 0.000294421
21 *2651:A4 *2651:A1 4.73908e-05
22 *2652:B *2652:A1 2.9185e-05
23 *2653:A2 *2652:A1 0.000433797
24 *2653:A2 *729:13 0.000391517
25 *2653:A2 *729:34 0.000530755
26 *2655:B *729:34 0.000823502
27 *3009:D *2652:A1 1.61174e-05
28 *3009:D *729:13 0.000174029
29 *3009:D *729:34 0.000220503
30 *3010:D *2610:A1 3.42509e-05
31 *457:47 *2651:A1 2.48332e-05
32 *470:32 *2651:A1 6.71551e-05
33 *474:12 *2651:A1 0.000367461
34 *475:10 *2651:A1 0.000455748
35 *475:10 *729:34 0
*RES
1 *3009:Q *729:4 4.5 
2 *729:4 *2652:A1 5.67 
3 *729:4 *729:13 1.17 
4 *729:13 *2651:A1 16.11 
5 *729:13 *729:34 14.31 
6 *729:34 *2610:A1 15.57 
7 *729:34 *2605:A2 7.11 
*END

*D_NET *730 0.00849859
*CONN
*I *2611:A4 I *D gf180mcu_fd_sc_mcu7t5v0__nor4_1
*I *2589:A2 I *D gf180mcu_fd_sc_mcu7t5v0__xor2_1
*I *2655:A1 I *D gf180mcu_fd_sc_mcu7t5v0__aoi21_1
*I *2656:A1 I *D gf180mcu_fd_sc_mcu7t5v0__aoi21_1
*I *2654:A1 I *D gf180mcu_fd_sc_mcu7t5v0__oai21_1
*I *2657:A2 I *D gf180mcu_fd_sc_mcu7t5v0__and3_1
*I *3010:Q O *D gf180mcu_fd_sc_mcu7t5v0__dffq_1
*CAP
1 *2611:A4 0
2 *2589:A2 0.000278429
3 *2655:A1 9.06436e-05
4 *2656:A1 0
5 *2654:A1 0
6 *2657:A2 0.000394465
7 *3010:Q 0
8 *730:41 0.00038462
9 *730:39 0.000824763
10 *730:28 0.000927765
11 *730:19 0.000276958
12 *730:4 0.000552875
13 *2589:A2 *2594:A1 0.000196001
14 *2589:A2 *2594:A2 0.000117627
15 *2589:A2 *2611:A2 1.61174e-05
16 *2589:A2 *731:14 0.000158798
17 *2655:A1 *2591:A2 2.12098e-05
18 *2655:A1 *2593:A2 0.000174506
19 *2657:A2 *2657:A1 0.000937367
20 *2657:A2 *743:30 3.75247e-05
21 *730:19 *2657:A1 6.99566e-06
22 *730:39 *2591:A2 4.51432e-05
23 *730:39 *2593:A2 0.000126585
24 *730:39 *2656:B 3.92433e-05
25 *730:39 *2657:A1 0
26 *730:39 *2808:A2 0.000515872
27 *730:39 *731:8 0
28 *730:41 *2593:A2 5.79557e-05
29 *2318:A3 *730:39 0
30 *2589:A1 *2589:A2 5.16292e-05
31 *2605:A2 *2589:A2 2.51943e-05
32 *2606:A2 *2589:A2 8.45762e-05
33 *2607:A2 *2589:A2 0
34 *2608:A1 *2655:A1 0.000164649
35 *2608:A1 *730:39 0.000482697
36 *2608:A1 *730:41 0.000164228
37 *2610:A1 *2655:A1 0.000237101
38 *2656:A2 *730:19 3.12451e-05
39 *2656:A2 *730:28 0.000133341
40 *2657:A3 *2657:A2 2.16474e-05
41 *2658:A2 *2657:A2 1.84507e-05
42 *2658:A2 *730:19 0.000248583
43 *2658:A2 *730:28 0.000228548
44 *2661:A2 *730:28 5.7233e-06
45 *3010:D *2655:A1 0.000362309
46 *3013:CLK *2657:A2 5.72035e-05
*RES
1 *3010:Q *730:4 4.5 
2 *730:4 *2657:A2 8.55 
3 *730:4 *730:19 1.62 
4 *730:19 *2654:A1 4.5 
5 *730:19 *730:28 1.44 
6 *730:28 *2656:A1 4.5 
7 *730:28 *730:39 10.8 
8 *730:39 *730:41 0.45 
9 *730:41 *2655:A1 10.98 
10 *730:41 *2589:A2 11.97 
11 *730:39 *2611:A4 9 
*END

*D_NET *731 0.00716192
*CONN
*I *2656:B I *D gf180mcu_fd_sc_mcu7t5v0__aoi21_1
*I *2657:A1 I *D gf180mcu_fd_sc_mcu7t5v0__and3_1
*I *2594:A2 I *D gf180mcu_fd_sc_mcu7t5v0__xor2_1
*I *2611:A3 I *D gf180mcu_fd_sc_mcu7t5v0__nor4_1
*I *3011:Q O *D gf180mcu_fd_sc_mcu7t5v0__dffq_1
*CAP
1 *2656:B 0.00014593
2 *2657:A1 0.000424856
3 *2594:A2 0.000232407
4 *2611:A3 0
5 *3011:Q 0
6 *731:14 0.000896663
7 *731:8 0.00132926
8 *731:6 0.00038608
9 *2656:B *2808:A2 0.000273036
10 *2656:B *732:20 1.97282e-05
11 *2657:A1 *743:30 2.16454e-05
12 *731:8 *2591:A2 4.59827e-06
13 *731:8 *732:20 0.000100833
14 *731:14 *2591:A2 0.000157131
15 *731:14 *2593:A2 7.46964e-06
16 *731:14 *2611:A2 2.16941e-05
17 *731:14 *732:20 0.000105701
18 *731:14 *732:29 9.80905e-05
19 *731:14 *743:30 0
20 *2589:A2 *2594:A2 0.000117627
21 *2589:A2 *731:14 0.000158798
22 *2607:A2 *2594:A2 4.94454e-05
23 *2607:A2 *731:14 1.17725e-05
24 *2656:A2 *2657:A1 6.02564e-05
25 *2657:A2 *2657:A1 0.000937367
26 *2657:A3 *2657:A1 0.000289112
27 *2661:A2 *2656:B 0.000349506
28 *3011:D *731:14 3.01487e-05
29 *3012:D *2656:B 7.41234e-06
30 *699:77 *2657:A1 0.000879114
31 *730:19 *2657:A1 6.99566e-06
32 *730:39 *2656:B 3.92433e-05
33 *730:39 *2657:A1 0
34 *730:39 *731:8 0
*RES
1 *3011:Q *731:6 9 
2 *731:6 *731:8 1.71 
3 *731:8 *731:14 8.82 
4 *731:14 *2611:A3 4.5 
5 *731:14 *2594:A2 6.3 
6 *731:8 *2657:A1 14.22 
7 *731:6 *2656:B 10.62 
*END

*D_NET *732 0.0110117
*CONN
*I *2660:A1 I *D gf180mcu_fd_sc_mcu7t5v0__oai21_1
*I *2611:A2 I *D gf180mcu_fd_sc_mcu7t5v0__nor4_1
*I *2593:A2 I *D gf180mcu_fd_sc_mcu7t5v0__xor2_1
*I *2659:A1 I *D gf180mcu_fd_sc_mcu7t5v0__and2_1
*I *3012:Q O *D gf180mcu_fd_sc_mcu7t5v0__dffq_1
*CAP
1 *2660:A1 0.000274722
2 *2611:A2 8.41037e-05
3 *2593:A2 0.000169974
4 *2659:A1 0.000433264
5 *3012:Q 0.000558365
6 *732:29 0.00042106
7 *732:20 0.00157017
8 *732:12 0.00180301
9 *2593:A2 *2591:A2 0.00016406
10 *2593:A2 *743:30 0.000161479
11 *2611:A2 *2611:A1 2.77702e-05
12 *2659:A1 *733:14 0.000209386
13 *2660:A1 *2808:A2 0
14 *2660:A1 *769:12 0.000166496
15 *2660:A1 *780:13 6.02091e-06
16 *732:12 *2312:I 0.00090947
17 *732:12 *2313:I 3.16918e-05
18 *732:12 *2663:A1 0
19 *732:12 *2808:A2 6.6365e-05
20 *732:20 *2808:A1 0
21 *732:20 *2808:A2 0.000519563
22 *2317:A1 *732:12 0.000253399
23 *2318:A2 *732:12 2.81127e-05
24 *2589:A2 *2611:A2 1.61174e-05
25 *2606:A2 *2611:A2 0
26 *2648:A1 *2659:A1 0
27 *2655:A1 *2593:A2 0.000174506
28 *2655:B *732:20 0
29 *2656:B *732:20 1.97282e-05
30 *2658:A1 *2659:A1 0.000291749
31 *2659:A2 *2659:A1 0.000195949
32 *2660:B *2660:A1 0.000120999
33 *2661:A1 *2660:A1 0.000243312
34 *2662:B *2659:A1 0.000345164
35 *2811:A3 *2660:A1 8.49143e-05
36 *3010:D *2659:A1 0.000180704
37 *3010:D *732:29 0.000123905
38 *3011:D *2659:A1 0.000130893
39 *3011:D *732:29 3.23963e-05
40 *3011:CLK *2659:A1 0.000104951
41 *3011:CLK *732:29 0.000329949
42 *3205:I *732:12 0.00013069
43 *3206:I *732:12 4.83666e-05
44 *699:68 *732:20 6.0603e-05
45 *730:39 *2593:A2 0.000126585
46 *730:41 *2593:A2 5.79557e-05
47 *731:8 *732:20 0.000100833
48 *731:14 *2593:A2 7.46964e-06
49 *731:14 *2611:A2 2.16941e-05
50 *731:14 *732:20 0.000105701
51 *731:14 *732:29 9.80905e-05
*RES
1 *3012:Q *732:12 14.67 
2 *732:12 *732:20 11.07 
3 *732:20 *2659:A1 9.81 
4 *732:20 *732:29 1.89 
5 *732:29 *2593:A2 15.66 
6 *732:29 *2611:A2 5.22 
7 *732:12 *2660:A1 20.7 
*END

*D_NET *733 0.0113731
*CONN
*I *2663:A1 I *D gf180mcu_fd_sc_mcu7t5v0__aoi21_1
*I *2662:A1 I *D gf180mcu_fd_sc_mcu7t5v0__oai21_1
*I *2611:A1 I *D gf180mcu_fd_sc_mcu7t5v0__nor4_1
*I *2591:A2 I *D gf180mcu_fd_sc_mcu7t5v0__xor2_1
*I *3013:Q O *D gf180mcu_fd_sc_mcu7t5v0__dffq_1
*CAP
1 *2663:A1 0.000196681
2 *2662:A1 0.000185392
3 *2611:A1 0.000114241
4 *2591:A2 0.000753709
5 *3013:Q 0
6 *733:14 0.00139049
7 *733:8 0.00139201
8 *733:4 0.000880761
9 *2591:A2 *2593:A1 0.000436478
10 *2591:A2 *743:30 1.67605e-05
11 *2662:A1 *743:30 2.19007e-05
12 *2317:A1 *733:8 0
13 *2593:A2 *2591:A2 0.00016406
14 *2605:A2 *2611:A1 3.01487e-05
15 *2606:A2 *2611:A1 0
16 *2611:A2 *2611:A1 2.77702e-05
17 *2648:A1 *733:14 0
18 *2652:B *733:14 0.000103446
19 *2655:A1 *2591:A2 2.12098e-05
20 *2655:B *733:14 0.000157023
21 *2658:A2 *733:8 0.00123841
22 *2658:A2 *733:14 0.000182206
23 *2659:A1 *733:14 0.000209386
24 *2659:A2 *733:14 0.000327794
25 *2660:A2 *733:8 0.000104446
26 *2662:A2 *2662:A1 4.45729e-05
27 *2662:B *2662:A1 8.77402e-05
28 *2663:A2 *2663:A1 9.3226e-06
29 *3009:D *733:14 1.20716e-05
30 *3010:D *2591:A2 1.86249e-05
31 *3010:D *2611:A1 0.000215362
32 *3010:D *733:14 0.00102327
33 *3010:CLK *733:14 1.56942e-05
34 *3013:D *2663:A1 0.000164036
35 *3013:D *733:8 0.00033899
36 *480:8 *733:8 1.69848e-05
37 *480:8 *733:14 0.00010449
38 *480:21 *733:8 0.000283329
39 *729:34 *2611:A1 0.000308481
40 *729:34 *733:14 0.000568913
41 *730:39 *2591:A2 4.51432e-05
42 *731:8 *2591:A2 4.59827e-06
43 *731:14 *2591:A2 0.000157131
44 *732:12 *2663:A1 0
*RES
1 *3013:Q *733:4 4.5 
2 *733:4 *733:8 12.33 
3 *733:8 *733:14 11.7 
4 *733:14 *2591:A2 19.08 
5 *733:14 *2611:A1 5.94 
6 *733:8 *2662:A1 10.53 
7 *733:4 *2663:A1 5.94 
*END

*D_NET *734 0.0096089
*CONN
*I *2595:A2 I *D gf180mcu_fd_sc_mcu7t5v0__xor2_1
*I *2613:A3 I *D gf180mcu_fd_sc_mcu7t5v0__nor4_1
*I *2625:A1 I *D gf180mcu_fd_sc_mcu7t5v0__nor2_1
*I *2624:A2 I *D gf180mcu_fd_sc_mcu7t5v0__and4_1
*I *2999:Q O *D gf180mcu_fd_sc_mcu7t5v0__dffq_1
*CAP
1 *2595:A2 0.000877323
2 *2613:A3 0.000156416
3 *2625:A1 0
4 *2624:A2 0.000144845
5 *2999:Q 0
6 *734:38 0.00146254
7 *734:16 0.00086308
8 *734:4 0.00114704
9 *2595:A2 *2590:A2 0.000310861
10 *2595:A2 *2595:A1 7.55765e-06
11 *2595:A2 *2597:A2 0.000355243
12 *2595:A2 *2601:A2 0.00043777
13 *2595:A2 *2602:A1 0.000111294
14 *2595:A2 *736:74 1.17934e-05
15 *2595:A2 *860:18 6.72969e-05
16 *2613:A3 *2597:A2 0.0002012
17 *2613:A3 *735:34 1.0415e-05
18 *2590:A1 *2595:A2 5.29961e-06
19 *2590:C *2595:A2 0
20 *2609:A1 *2595:A2 0.00063331
21 *2609:A3 *2595:A2 2.57385e-05
22 *2615:A1 *2613:A3 0.000140033
23 *2617:A2 *734:16 5.22092e-05
24 *2622:A3 *734:16 0
25 *2622:A3 *734:38 0.000500192
26 *2624:A1 *2624:A2 1.56493e-05
27 *2624:A3 *2624:A2 0.000362773
28 *2624:A3 *734:16 7.39052e-05
29 *2624:A4 *2624:A2 0.000425761
30 *2624:A4 *734:16 0.000117116
31 *2625:A2 *734:16 1.61174e-05
32 *2999:D *734:16 4.10149e-05
33 *3002:D *2624:A2 0
34 *3117:I *734:16 0
35 *445:10 *2595:A2 0.000623069
36 *445:10 *734:38 0.000111961
37 *452:8 *734:16 0.000172967
38 *486:20 *2624:A2 9.3226e-06
39 *486:20 *734:16 2.9185e-05
40 *698:67 *2624:A2 9.3226e-06
41 *723:18 *734:38 0
42 *727:10 *734:16 1.20136e-05
43 *727:10 *734:38 1.25373e-05
44 *727:34 *734:38 5.47237e-05
*RES
1 *2999:Q *734:4 4.5 
2 *734:4 *734:16 14.4 
3 *734:16 *2624:A2 6.57 
4 *734:16 *2625:A1 4.5 
5 *734:4 *734:38 8.64 
6 *734:38 *2613:A3 10.53 
7 *734:38 *2595:A2 18.72 
*END

*D_NET *735 0.0124835
*CONN
*I *2627:A1 I *D gf180mcu_fd_sc_mcu7t5v0__and2_1
*I *2597:A2 I *D gf180mcu_fd_sc_mcu7t5v0__xor2_1
*I *2613:A2 I *D gf180mcu_fd_sc_mcu7t5v0__nor4_1
*I *2632:A3 I *D gf180mcu_fd_sc_mcu7t5v0__and4_1
*I *2628:A1 I *D gf180mcu_fd_sc_mcu7t5v0__nor2_1
*I *3000:Q O *D gf180mcu_fd_sc_mcu7t5v0__dffq_1
*CAP
1 *2627:A1 0
2 *2597:A2 0.000954095
3 *2613:A2 0
4 *2632:A3 0.000213569
5 *2628:A1 0.000166063
6 *3000:Q 0.000456013
7 *735:34 0.00187301
8 *735:19 0.00139213
9 *735:8 0.000425708
10 *735:6 0.000456013
11 *735:34 *736:63 0.000328089
12 *2383:B2 *2628:A1 3.34193e-05
13 *2595:A2 *2597:A2 0.000355243
14 *2609:A2 *2597:A2 0
15 *2609:A3 *2597:A2 8.43025e-06
16 *2613:A3 *2597:A2 0.0002012
17 *2613:A3 *735:34 1.0415e-05
18 *2615:A1 *735:34 0.000134091
19 *2615:A2 *2597:A2 0.000365454
20 *2615:A2 *735:34 0.000499457
21 *2628:A2 *2628:A1 0.000862235
22 *2632:A4 *2632:A3 2.58417e-07
23 *2632:A4 *735:6 0.000195939
24 *2634:A2 *735:6 0
25 *2634:A3 *2632:A3 0.000119909
26 *2644:A1 *735:34 2.76794e-05
27 *3002:D *735:6 0.000729558
28 *3004:D *735:34 0.000142874
29 *3098:I *2632:A3 0.000159648
30 *371:45 *2632:A3 0.000385663
31 *456:67 *735:19 6.18244e-05
32 *456:67 *735:34 9.78578e-05
33 *456:91 *735:34 0.00038462
34 *458:12 *735:6 1.0415e-05
35 *458:14 *735:6 3.12451e-05
36 *460:6 *735:6 0.000156498
37 *486:20 *2628:A1 0.000664126
38 *486:20 *735:19 0.000538918
39 *698:16 *2628:A1 4.17866e-05
40 *722:22 *2628:A1 0
41 *722:22 *735:19 0
42 *722:22 *735:34 0
*RES
1 *3000:Q *735:6 9.45 
2 *735:6 *735:8 4.5 
3 *735:8 *2628:A1 12.15 
4 *735:8 *735:19 2.25 
5 *735:19 *2632:A3 11.61 
6 *735:19 *735:34 13.86 
7 *735:34 *2613:A2 4.5 
8 *735:34 *2597:A2 21.06 
9 *735:6 *2627:A1 4.5 
*END

*D_NET *736 0.0138252
*CONN
*I *2632:A2 I *D gf180mcu_fd_sc_mcu7t5v0__and4_1
*I *2590:B2 I *D gf180mcu_fd_sc_mcu7t5v0__oai221_1
*I *2598:B2 I *D gf180mcu_fd_sc_mcu7t5v0__aoi221_1
*I *2613:A1 I *D gf180mcu_fd_sc_mcu7t5v0__nor4_1
*I *2633:A1 I *D gf180mcu_fd_sc_mcu7t5v0__aoi21_1
*I *2630:A1 I *D gf180mcu_fd_sc_mcu7t5v0__oai21_1
*I *2631:A1 I *D gf180mcu_fd_sc_mcu7t5v0__aoi21_1
*I *3001:Q O *D gf180mcu_fd_sc_mcu7t5v0__dffq_1
*CAP
1 *2632:A2 0
2 *2590:B2 6.56209e-05
3 *2598:B2 0
4 *2613:A1 0
5 *2633:A1 0
6 *2630:A1 3.52081e-05
7 *2631:A1 3.90963e-05
8 *3001:Q 8.71679e-05
9 *736:74 0.000546748
10 *736:63 0.00180117
11 *736:51 0.00167409
12 *736:36 0.000700212
13 *736:21 0.000600799
14 *736:10 0.000345697
15 *2590:B2 *2590:A2 0.000382884
16 *736:36 *2633:B 5.34355e-05
17 *736:51 *2633:B 9.02061e-05
18 *736:51 *737:19 0.000195875
19 *736:63 *2294:I 2.23818e-05
20 *736:63 *2601:A1 0
21 *736:63 *2612:A1 0.000351763
22 *736:63 *2612:A3 1.06861e-05
23 *736:63 *2641:A1 2.03599e-06
24 *736:63 *738:22 5.75484e-05
25 *736:63 *738:28 2.67823e-05
26 *736:63 *738:57 3.19991e-05
27 *736:74 *2601:A1 0
28 *2595:A2 *736:74 1.17934e-05
29 *2598:B1 *2590:B2 0.000591262
30 *2603:A2 *2590:B2 0.000109332
31 *2603:A2 *736:74 8.56272e-05
32 *2604:A2 *736:74 0.000110922
33 *2609:A1 *2590:B2 0.000194905
34 *2609:A1 *736:74 5.13763e-05
35 *2614:A1 *736:63 2.65444e-06
36 *2614:A2 *736:63 6.08466e-05
37 *2614:A3 *736:63 8.77402e-05
38 *2615:A2 *736:63 0.000365454
39 *2615:A2 *736:74 0.000469308
40 *2629:A1 *736:51 0
41 *2629:A2 *736:10 8.43025e-06
42 *2630:A2 *736:10 0.000312562
43 *2630:B *2630:A1 3.77882e-05
44 *2630:B *736:36 0.000132776
45 *2634:A3 *736:51 0.000310666
46 *2637:A3 *736:63 0
47 *2638:A2 *736:63 0.000194779
48 *2639:A2 *736:63 0.000105483
49 *3001:D *736:10 0.000137004
50 *3002:D *736:36 0
51 *3002:D *736:51 5.30888e-06
52 *3004:D *736:63 0.000119952
53 *3098:I *736:51 0.000102368
54 *224:10 *736:74 3.19635e-05
55 *371:45 *736:51 9.04462e-05
56 *371:45 *736:63 8.99346e-05
57 *445:10 *736:74 0.00156025
58 *457:25 *736:63 0
59 *460:25 *2631:A1 8.68281e-06
60 *460:25 *736:10 6.13096e-05
61 *460:25 *736:21 1.27919e-05
62 *463:10 *736:63 0.000886727
63 *466:19 *736:63 2.52908e-05
64 *735:34 *736:63 0.000328089
*RES
1 *3001:Q *736:10 15.03 
2 *736:10 *2631:A1 4.77 
3 *736:10 *736:21 1.8 
4 *736:21 *2630:A1 4.95 
5 *736:21 *736:36 3.06 
6 *736:36 *2633:A1 4.5 
7 *736:36 *736:51 12.51 
8 *736:51 *736:63 21.06 
9 *736:63 *2613:A1 4.5 
10 *736:63 *736:74 10.26 
11 *736:74 *2598:B2 9 
12 *736:74 *2590:B2 11.25 
13 *736:51 *2632:A2 4.5 
*END

*D_NET *737 0.00944654
*CONN
*I *2600:A1 I *D gf180mcu_fd_sc_mcu7t5v0__xor2_1
*I *2612:A4 I *D gf180mcu_fd_sc_mcu7t5v0__nor4_1
*I *2632:A1 I *D gf180mcu_fd_sc_mcu7t5v0__and4_1
*I *2633:B I *D gf180mcu_fd_sc_mcu7t5v0__aoi21_1
*I *3002:Q O *D gf180mcu_fd_sc_mcu7t5v0__dffq_1
*CAP
1 *2600:A1 0.000666258
2 *2612:A4 0
3 *2632:A1 0
4 *2633:B 0.000234474
5 *3002:Q 0.000204558
6 *737:30 0.00114856
7 *737:19 0.000686893
8 *737:8 0.000643622
9 *2600:A1 *2294:I 0.000182319
10 *2600:A1 *2601:A1 0.000227067
11 *2600:A1 *739:12 0.000421851
12 *2600:A1 *739:14 0.000196987
13 *737:30 *2638:B 0.000432683
14 *737:30 *738:22 4.0534e-05
15 *737:30 *738:28 8.38872e-05
16 *737:30 *739:14 0.000224872
17 *2608:A3 *2600:A1 0.000409974
18 *2614:A1 *2600:A1 1.62478e-05
19 *2630:B *2633:B 1.79237e-05
20 *2630:B *737:8 0.000268962
21 *2638:A2 *737:30 7.01955e-06
22 *2644:A1 *2600:A1 6.93366e-05
23 *3004:D *2600:A1 0.000102859
24 *3004:D *737:30 0.000696149
25 *3117:I *2600:A1 6.78662e-05
26 *371:45 *737:19 0.000219095
27 *371:45 *737:30 0.000320771
28 *456:8 *737:19 9.9874e-05
29 *456:8 *737:30 2.44125e-05
30 *456:10 *737:8 0.00014044
31 *456:10 *737:19 3.72424e-05
32 *456:16 *737:8 0.000183652
33 *463:10 *737:30 2.92596e-05
34 *722:22 *737:30 0.000895229
35 *723:18 *737:30 0.000106147
36 *736:36 *2633:B 5.34355e-05
37 *736:51 *2633:B 9.02061e-05
38 *736:51 *737:19 0.000195875
*RES
1 *3002:Q *737:8 7.02 
2 *737:8 *2633:B 6.12 
3 *737:8 *737:19 2.25 
4 *737:19 *2632:A1 4.5 
5 *737:19 *737:30 10.8 
6 *737:30 *2612:A4 9 
7 *737:30 *2600:A1 16.02 
*END

*D_NET *738 0.00974569
*CONN
*I *2637:A2 I *D gf180mcu_fd_sc_mcu7t5v0__and3_1
*I *2294:I I *D gf180mcu_fd_sc_mcu7t5v0__clkinv_1
*I *2612:A3 I *D gf180mcu_fd_sc_mcu7t5v0__nor4_1
*I *2638:A1 I *D gf180mcu_fd_sc_mcu7t5v0__aoi21_1
*I *2635:A1 I *D gf180mcu_fd_sc_mcu7t5v0__oai21_1
*I *2636:A1 I *D gf180mcu_fd_sc_mcu7t5v0__aoi21_1
*I *3003:Q O *D gf180mcu_fd_sc_mcu7t5v0__dffq_1
*CAP
1 *2637:A2 4.66843e-06
2 *2294:I 0.00108631
3 *2612:A3 5.5194e-05
4 *2638:A1 4.83633e-05
5 *2635:A1 0.000235337
6 *2636:A1 7.55876e-05
7 *3003:Q 0.000240929
8 *738:57 0.0012277
9 *738:28 0.000479589
10 *738:22 0.000323267
11 *738:20 0.000386595
12 *738:14 0.000439749
13 *2294:I *2592:A1 0
14 *2294:I *2612:A1 6.06649e-05
15 *2294:I *739:12 0.000379934
16 *2294:I *739:14 0.000160805
17 *2294:I *740:27 1.93042e-05
18 *2294:I *740:31 8.21709e-06
19 *2294:I *741:25 3.11591e-05
20 *738:20 *2637:A1 0.000687564
21 *738:22 *2638:B 0.000359469
22 *738:57 *2638:B 8.99346e-05
23 *738:57 *739:14 0.000252247
24 *2600:A1 *2294:I 0.000182319
25 *2608:A2 *2294:I 8.16464e-05
26 *2635:B *2635:A1 0.000255131
27 *2635:B *738:14 0
28 *2636:B *2635:A1 0.000822641
29 *2637:A3 *2637:A2 9.85004e-05
30 *2637:A3 *738:14 3.01487e-05
31 *2638:A2 *2638:A1 3.09926e-05
32 *2638:A2 *738:28 0.000291797
33 *2639:A2 *2612:A3 1.06861e-05
34 *2644:A1 *2294:I 0.000220381
35 *2644:A2 *2294:I 3.53802e-05
36 *3004:D *2638:A1 0.000222026
37 *3004:D *738:20 1.49262e-05
38 *3004:D *738:28 4.52708e-05
39 *3099:I *2294:I 0.000164758
40 *466:19 *2294:I 0
41 *466:23 *738:14 7.96333e-06
42 *698:96 *2635:A1 1.07374e-05
43 *698:96 *2636:A1 0.00023286
44 *698:96 *738:28 6.11189e-05
45 *736:63 *2294:I 2.23818e-05
46 *736:63 *2612:A3 1.06861e-05
47 *736:63 *738:22 5.75484e-05
48 *736:63 *738:28 2.67823e-05
49 *736:63 *738:57 3.19991e-05
50 *737:30 *738:22 4.0534e-05
51 *737:30 *738:28 8.38872e-05
*RES
1 *3003:Q *738:14 6.75 
2 *738:14 *738:20 7.2 
3 *738:20 *738:22 1.35 
4 *738:22 *738:28 6.48 
5 *738:28 *2636:A1 5.4 
6 *738:28 *2635:A1 7.74 
7 *738:22 *2638:A1 9.63 
8 *738:20 *738:57 0.99 
9 *738:57 *2612:A3 9.27 
10 *738:57 *2294:I 17.46 
11 *738:14 *2637:A2 4.77 
*END

*D_NET *739 0.0075163
*CONN
*I *2601:A1 I *D gf180mcu_fd_sc_mcu7t5v0__xor2_1
*I *2612:A2 I *D gf180mcu_fd_sc_mcu7t5v0__nor4_1
*I *2637:A1 I *D gf180mcu_fd_sc_mcu7t5v0__and3_1
*I *2638:B I *D gf180mcu_fd_sc_mcu7t5v0__aoi21_1
*I *3004:Q O *D gf180mcu_fd_sc_mcu7t5v0__dffq_1
*CAP
1 *2601:A1 0.0008119
2 *2612:A2 0
3 *2637:A1 7.55939e-05
4 *2638:B 7.50799e-05
5 *3004:Q 9.76633e-05
6 *739:14 0.000180499
7 *739:12 9.06325e-05
8 *739:6 0.000970371
9 *2601:A1 *2600:A2 9.89629e-06
10 *739:6 *2612:A1 3.19557e-05
11 *739:12 *2612:A1 4.93615e-06
12 *2294:I *739:12 0.000379934
13 *2294:I *739:14 0.000160805
14 *2600:A1 *2601:A1 0.000227067
15 *2600:A1 *739:12 0.000421851
16 *2600:A1 *739:14 0.000196987
17 *2604:A2 *2601:A1 0.000142874
18 *2608:A3 *2601:A1 2.65444e-06
19 *2614:A1 *2601:A1 0.000628116
20 *2614:A3 *2601:A1 6.08466e-05
21 *2639:A2 *2637:A1 0.000674964
22 *2644:A1 *2601:A1 0
23 *3004:D *2637:A1 0
24 *3004:D *2638:B 0.000157039
25 *3117:I *2601:A1 6.78662e-05
26 *466:23 *2637:A1 0
27 *736:63 *2601:A1 0
28 *736:74 *2601:A1 0
29 *737:30 *2638:B 0.000432683
30 *737:30 *739:14 0.000224872
31 *738:20 *2637:A1 0.000687564
32 *738:22 *2638:B 0.000359469
33 *738:57 *2638:B 8.99346e-05
34 *738:57 *739:14 0.000252247
*RES
1 *3004:Q *739:6 5.13 
2 *739:6 *739:12 5.94 
3 *739:12 *739:14 1.17 
4 *739:14 *2638:B 10.62 
5 *739:14 *2637:A1 11.07 
6 *739:12 *2612:A2 9 
7 *739:6 *2601:A1 11.07 
*END

*D_NET *740 0.00905065
*CONN
*I *2592:A1 I *D gf180mcu_fd_sc_mcu7t5v0__xor2_1
*I *2642:A1 I *D gf180mcu_fd_sc_mcu7t5v0__aoi21_1
*I *2640:A1 I *D gf180mcu_fd_sc_mcu7t5v0__oai21_1
*I *2641:A1 I *D gf180mcu_fd_sc_mcu7t5v0__aoi21_1
*I *2612:A1 I *D gf180mcu_fd_sc_mcu7t5v0__nor4_1
*I *2643:A2 I *D gf180mcu_fd_sc_mcu7t5v0__and3_1
*I *3005:Q O *D gf180mcu_fd_sc_mcu7t5v0__dffq_1
*CAP
1 *2592:A1 0.000691069
2 *2642:A1 0
3 *2640:A1 0
4 *2641:A1 0.000270283
5 *2612:A1 0.00021268
6 *2643:A2 1.00326e-05
7 *3005:Q 0.000412437
8 *740:66 0.000944472
9 *740:31 0.000677744
10 *740:27 0.000393573
11 *740:25 0.000507073
12 *740:14 0.000477347
13 *2641:A1 *741:25 0
14 *2643:A2 *2643:A1 9.85004e-05
15 *740:25 *2643:A1 0.000249406
16 *740:25 *741:25 0.000498377
17 *740:27 *741:12 0
18 *740:27 *741:25 2.88577e-05
19 *740:31 *741:12 0
20 *740:66 *741:25 0.000100095
21 *2294:I *2592:A1 0
22 *2294:I *2612:A1 6.06649e-05
23 *2294:I *740:27 1.93042e-05
24 *2294:I *740:31 8.21709e-06
25 *2608:A4 *2592:A1 3.12451e-05
26 *2609:A4 *2592:A1 0.000454485
27 *2640:A2 *2612:A1 3.6437e-05
28 *2640:A2 *2641:A1 8.38699e-05
29 *2640:A2 *740:31 3.60134e-05
30 *2641:B *2641:A1 0.000235448
31 *2642:A2 *2643:A2 9.04462e-05
32 *2642:A2 *740:14 5.60661e-06
33 *2642:A2 *740:25 0.000755891
34 *2642:A2 *740:66 0.000627577
35 *2644:A2 *2592:A1 2.08301e-05
36 *2644:A2 *740:66 1.0415e-05
37 *2644:A3 *740:14 0
38 *3006:D *740:66 0.000129013
39 *3007:D *740:14 0
40 *3099:I *2592:A1 0
41 *3100:I *2592:A1 0
42 *457:36 *740:31 0
43 *457:47 *740:14 9.83962e-05
44 *457:47 *740:66 0
45 *466:19 *2612:A1 2.84815e-05
46 *466:23 *2641:A1 0.000160154
47 *466:29 *740:14 9.39061e-05
48 *470:19 *740:14 0.000101615
49 *728:10 *740:14 0
50 *736:63 *2612:A1 0.000351763
51 *736:63 *2641:A1 2.03599e-06
52 *739:6 *2612:A1 3.19557e-05
53 *739:12 *2612:A1 4.93615e-06
*RES
1 *3005:Q *740:14 16.65 
2 *740:14 *2643:A2 4.77 
3 *740:14 *740:25 6.57 
4 *740:25 *740:27 1.35 
5 *740:27 *740:31 1.17 
6 *740:31 *2612:A1 11.07 
7 *740:31 *2641:A1 11.61 
8 *740:27 *2640:A1 9 
9 *740:25 *740:66 7.38 
10 *740:66 *2642:A1 4.5 
11 *740:66 *2592:A1 9.63 
*END

*D_NET *741 0.00638783
*CONN
*I *2610:A4 I *D gf180mcu_fd_sc_mcu7t5v0__nor4_1
*I *2599:A2 I *D gf180mcu_fd_sc_mcu7t5v0__xor2_1
*I *2642:B I *D gf180mcu_fd_sc_mcu7t5v0__aoi21_1
*I *2643:A1 I *D gf180mcu_fd_sc_mcu7t5v0__and3_1
*I *3006:Q O *D gf180mcu_fd_sc_mcu7t5v0__dffq_1
*CAP
1 *2610:A4 1.38193e-05
2 *2599:A2 0.00072532
3 *2642:B 0
4 *2643:A1 0.000110146
5 *3006:Q 0.000122415
6 *741:25 0.00103672
7 *741:12 0.000557776
8 *2599:A2 *2599:A1 1.61174e-05
9 *2599:A2 *3097:I 7.26205e-05
10 *2294:I *741:25 3.11591e-05
11 *2608:A1 *2610:A4 0.000307423
12 *2608:A4 *2610:A4 0.000307423
13 *2640:B *2643:A1 6.1299e-06
14 *2640:B *741:12 1.23715e-05
15 *2640:B *741:25 8.18228e-05
16 *2641:A1 *741:25 0
17 *2641:B *2643:A1 0
18 *2641:B *741:12 7.10237e-05
19 *2642:A2 *741:25 0.00066358
20 *2643:A2 *2643:A1 9.85004e-05
21 *2644:A2 *741:25 0.000636185
22 *2644:A3 *741:25 5.05634e-06
23 *3100:I *2599:A2 9.38111e-05
24 *457:36 *741:12 0.000238643
25 *457:47 *2599:A2 0
26 *457:47 *741:12 0.000303031
27 *728:32 *2599:A2 0
28 *740:25 *2643:A1 0.000249406
29 *740:25 *741:25 0.000498377
30 *740:27 *741:12 0
31 *740:27 *741:25 2.88577e-05
32 *740:31 *741:12 0
33 *740:66 *741:25 0.000100095
*RES
1 *3006:Q *741:12 15.03 
2 *741:12 *2643:A1 5.49 
3 *741:12 *741:25 9.18 
4 *741:25 *2642:B 9 
5 *741:25 *2599:A2 13.68 
6 *2599:A2 *2610:A4 18.81 
*END

*D_NET *742 0.00861637
*CONN
*I *2596:A2 I *D gf180mcu_fd_sc_mcu7t5v0__xor2_1
*I *2645:A1 I *D gf180mcu_fd_sc_mcu7t5v0__nor2_1
*I *2610:A3 I *D gf180mcu_fd_sc_mcu7t5v0__nor4_1
*I *2651:A3 I *D gf180mcu_fd_sc_mcu7t5v0__and4_1
*I *2646:A1 I *D gf180mcu_fd_sc_mcu7t5v0__and2_1
*I *3007:Q O *D gf180mcu_fd_sc_mcu7t5v0__dffq_1
*CAP
1 *2596:A2 0
2 *2645:A1 0.000286692
3 *2610:A3 0
4 *2651:A3 4.60163e-05
5 *2646:A1 0.000387075
6 *3007:Q 6.32486e-05
7 *742:49 0.000663816
8 *742:36 0.000776233
9 *742:12 0.000469844
10 *742:10 0.000499111
11 *2645:A1 *2596:A1 0.000129056
12 *2645:A1 *2605:A1 0.000486049
13 *2605:A2 *2645:A1 5.79792e-06
14 *2606:A1 *742:49 0
15 *2606:A2 *742:49 0
16 *2606:A3 *2645:A1 0
17 *2608:A4 *2645:A1 0.000194264
18 *2608:A4 *742:49 0
19 *2610:A2 *742:36 8.77159e-05
20 *2610:A2 *742:49 1.61174e-05
21 *2614:A2 *742:49 0.000179602
22 *2646:A2 *2646:A1 0.000390015
23 *2647:A2 *2645:A1 6.93035e-05
24 *2647:A2 *2646:A1 0
25 *2647:A2 *2651:A3 0.000269245
26 *2647:A2 *742:36 0.000328743
27 *2647:A2 *742:49 0.000308415
28 *2648:A1 *742:10 8.22657e-05
29 *2649:A2 *2646:A1 2.14748e-05
30 *2651:A4 *742:36 6.34901e-05
31 *2655:A2 *742:36 0
32 *3008:D *2646:A1 0
33 *3008:CLK *2646:A1 0
34 *457:47 *2646:A1 0.000435339
35 *457:47 *742:10 0.000365635
36 *457:47 *742:12 0.000295931
37 *470:32 *2646:A1 3.33106e-05
38 *474:12 *742:10 0.000164036
39 *475:49 *742:36 0.000260454
40 *699:8 *742:10 2.82424e-05
41 *699:8 *742:36 0.000670345
42 *699:21 *2646:A1 0.000133786
43 *699:21 *742:12 7.48093e-05
44 *728:25 *2646:A1 3.1493e-05
45 *728:25 *2651:A3 0.000269245
46 *728:32 *2651:A3 3.01487e-05
*RES
1 *3007:Q *742:10 10.44 
2 *742:10 *742:12 0.81 
3 *742:12 *2646:A1 13.14 
4 *742:12 *2651:A3 9.81 
5 *742:10 *742:36 9.09 
6 *742:36 *2610:A3 4.5 
7 *742:36 *742:49 12.24 
8 *742:49 *2645:A1 7.83 
9 *742:49 *2596:A2 4.5 
*END

*D_NET *743 0.0211484
*CONN
*I *2815:A1 I *D gf180mcu_fd_sc_mcu7t5v0__nor3_1
*I *2340:A1 I *D gf180mcu_fd_sc_mcu7t5v0__or2_1
*I *2364:A1 I *D gf180mcu_fd_sc_mcu7t5v0__nand2_1
*I *2821:A1 I *D gf180mcu_fd_sc_mcu7t5v0__nor3_1
*I *2316:A1 I *D gf180mcu_fd_sc_mcu7t5v0__nand2_1
*I *3192:Z O *D gf180mcu_fd_sc_mcu7t5v0__dlyb_1
*CAP
1 *2815:A1 8.64367e-05
2 *2340:A1 0
3 *2364:A1 0.000813976
4 *2821:A1 1.19756e-05
5 *2316:A1 5.19984e-05
6 *3192:Z 0.00303529
7 *743:68 0.000966757
8 *743:62 0.000510445
9 *743:47 0.000809446
10 *743:30 0.00361353
11 *2316:A1 *2594:A1 0.000168938
12 *2316:A1 *753:27 2.48332e-05
13 *2364:A1 *2364:A2 0.000762009
14 *2364:A1 *2833:A1 0.000370348
15 *2815:A1 *2815:A2 0.000217251
16 *2821:A1 *756:352 9.20679e-05
17 *743:30 *2593:A1 0.000227633
18 *743:30 *2829:B2 0.000415958
19 *743:30 *2869:B2 0.000738105
20 *743:30 *2896:A1 9.04462e-05
21 *743:30 *2905:C 0.000135171
22 *743:30 *2910:C 5.24446e-05
23 *743:30 *3187:I 0
24 *743:30 *756:414 0.000344002
25 *743:47 *2869:B2 0.000165459
26 *743:47 *753:27 4.51438e-05
27 *743:47 *758:16 0.000565638
28 *743:62 *758:16 2.61608e-05
29 *2316:A2 *743:68 9.34521e-05
30 *2341:A1 *743:47 0.000775224
31 *2589:A1 *743:30 0
32 *2591:A2 *743:30 1.67605e-05
33 *2593:A2 *743:30 0.000161479
34 *2607:A2 *743:30 0.0010099
35 *2608:A1 *743:30 0.000365454
36 *2657:A1 *743:30 2.16454e-05
37 *2657:A2 *743:30 3.75247e-05
38 *2657:A3 *743:30 0.000185153
39 *2658:A3 *743:30 1.75631e-05
40 *2662:A1 *743:30 2.19007e-05
41 *2662:A2 *743:30 3.58674e-05
42 *2662:B *743:30 0
43 *2810:A3 *743:47 0.000404736
44 *2817:A2 *743:62 0
45 *2829:A2 *743:68 9.2472e-05
46 *2832:B2 *2364:A1 9.30289e-05
47 *2869:A1 *743:30 0.000107788
48 *2871:A1 *743:47 0.000333774
49 *2876:A2 *2316:A1 0.000113254
50 *2876:A2 *743:47 0.000100647
51 *2894:A2 *743:30 3.28691e-05
52 *2910:A2 *743:30 4.13326e-05
53 *3011:D *743:30 7.87915e-05
54 *3059:D *743:30 2.44787e-05
55 *3059:CLK *743:30 0
56 *3064:D *743:30 3.65287e-05
57 *3132:I *2821:A1 9.20679e-05
58 *209:20 *743:30 0.000549038
59 *241:12 *743:68 0.000106536
60 *247:54 *2364:A1 0
61 *247:54 *743:62 9.61049e-05
62 *247:67 *2364:A1 0.000104427
63 *248:8 *2364:A1 0.000129885
64 *248:10 *2364:A1 3.42783e-05
65 *264:12 *743:68 0.000117791
66 *265:10 *743:47 0.00049503
67 *282:10 *2364:A1 3.07288e-06
68 *283:14 *2364:A1 1.69842e-06
69 *595:28 *2815:A1 1.80546e-05
70 *597:22 *743:47 0.000100235
71 *599:16 *2815:A1 0.000108618
72 *599:16 *743:68 0.000109884
73 *605:20 *743:47 7.64396e-05
74 *605:20 *743:62 9.71118e-05
75 *664:46 *743:30 3.73774e-06
76 *699:77 *743:30 2.71524e-05
77 *701:26 *743:30 7.43298e-06
78 *702:66 *2364:A1 0.000326756
79 *702:66 *743:62 0
80 *731:14 *743:30 0
*RES
1 *3192:Z *743:30 34.02 
2 *743:30 *2316:A1 9.81 
3 *743:30 *743:47 12.15 
4 *743:47 *2821:A1 13.77 
5 *743:47 *743:62 6.57 
6 *743:62 *743:68 6.3 
7 *743:68 *2364:A1 29.79 
8 *743:68 *2340:A1 4.5 
9 *743:62 *2815:A1 9.99 
*END

*D_NET *744 0.0212683
*CONN
*I *2893:A1 I *D gf180mcu_fd_sc_mcu7t5v0__aoi21_1
*I *2367:I1 I *D gf180mcu_fd_sc_mcu7t5v0__mux2_2
*I *2347:A1 I *D gf180mcu_fd_sc_mcu7t5v0__oai21_1
*I *2914:A1 I *D gf180mcu_fd_sc_mcu7t5v0__nor2_1
*I *3193:Z O *D gf180mcu_fd_sc_mcu7t5v0__dlyb_1
*CAP
1 *2893:A1 7.68894e-05
2 *2367:I1 0.00037382
3 *2347:A1 0
4 *2914:A1 0
5 *3193:Z 0.000220326
6 *744:37 0.00169433
7 *744:24 0.00329161
8 *744:14 0.00226832
9 *744:14 *2893:B 1.39839e-05
10 *744:14 *749:22 1.48237e-05
11 *744:14 *750:10 0
12 *744:14 *756:401 3.93198e-05
13 *744:14 *847:14 5.45299e-06
14 *744:24 *2600:A2 9.0191e-06
15 *744:24 *2604:A1 0.000510662
16 *744:24 *2896:A1 7.95083e-05
17 *744:24 *749:22 2.18751e-05
18 *744:24 *749:28 0.0014275
19 *744:24 *756:401 4.84829e-05
20 *744:24 *756:405 0.000829585
21 *744:24 *756:418 3.36364e-05
22 *744:24 *756:420 0.000406021
23 *744:24 *756:422 9.43472e-05
24 *744:24 *756:424 0.000528647
25 *744:24 *756:441 0.000277706
26 *744:24 *847:14 9.26419e-06
27 *744:24 *847:18 5.22588e-06
28 *744:37 *2329:A1 6.18939e-05
29 *744:37 *2361:A1 0.00147407
30 *744:37 *2600:A2 7.53697e-05
31 *744:37 *856:12 0.000118548
32 *2329:A2 *744:37 3.0673e-05
33 *2331:A1 *744:37 9.22107e-05
34 *2347:B *2367:I1 0.000562997
35 *2348:A2 *744:37 1.79237e-05
36 *2363:A1 *744:37 0.000558262
37 *2609:A2 *744:24 0
38 *2900:A2 *744:24 0.000431983
39 *2900:A3 *744:24 0.000301326
40 *2910:A1 *744:24 7.16121e-07
41 *2910:B *744:24 1.57472e-05
42 *2915:A2 *744:37 0.000345225
43 *2916:A2 *744:24 0.000235133
44 *2916:A3 *744:24 0.000302726
45 *2916:A3 *744:37 0.000131389
46 *3070:D *744:37 0
47 *3073:D *744:37 0.00032147
48 *3078:CLK *2367:I1 4.57596e-05
49 *3078:CLK *744:37 2.36813e-05
50 *3115:I *744:37 0.000170743
51 *209:26 *744:24 2.20789e-06
52 *244:61 *2367:I1 0.000655346
53 *267:28 *744:37 0.00162049
54 *284:28 *2367:I1 2.36813e-05
55 *284:34 *2367:I1 0.000391985
56 *664:62 *744:24 8.59404e-05
57 *694:169 *744:37 0.000161242
58 *701:26 *744:24 0.000613055
59 *714:51 *744:37 6.99566e-06
60 *715:37 *744:37 3.42583e-05
61 *715:58 *2367:I1 2.26729e-05
62 *715:58 *744:37 3.98244e-05
63 *720:10 *2367:I1 1.23523e-05
*RES
1 *3193:Z *744:14 10.62 
2 *744:14 *744:24 25.92 
3 *744:24 *2914:A1 4.5 
4 *744:24 *744:37 16.2 
5 *744:37 *2347:A1 4.5 
6 *744:37 *2367:I1 18.81 
7 *744:14 *2893:A1 9.45 
*END

*D_NET *745 0.00104131
*CONN
*I *2483:A1 I *D gf180mcu_fd_sc_mcu7t5v0__nor2_1
*I *3134:Z O *D gf180mcu_fd_sc_mcu7t5v0__dlyc_1
*CAP
1 *2483:A1 0.000458745
2 *3134:Z 0.000458745
3 *2483:A1 *2474:C 7.191e-07
4 *2483:A1 *2499:A1 4.83522e-05
5 *2483:A1 *778:264 7.47471e-05
6 *2483:A2 *2483:A1 0
*RES
1 *3134:Z *2483:A1 11.79 
*END

*D_NET *746 0.00192928
*CONN
*I *2469:A1 I *D gf180mcu_fd_sc_mcu7t5v0__oai21_1
*I *3135:Z O *D gf180mcu_fd_sc_mcu7t5v0__dlyc_1
*CAP
1 *2469:A1 0.000456153
2 *3135:Z 0.000456153
3 *2469:A1 *2410:A2 0
4 *2469:A1 *2460:A1 0.000275309
5 *2469:A1 *2469:A2 6.06287e-05
6 *2469:A1 *2843:A1 0
7 *2469:A1 *952:10 0.000305139
8 *2410:B *2469:A1 2.17583e-05
9 *2464:A1 *2469:A1 0.000255645
10 *244:480 *2469:A1 9.84908e-05
11 *244:489 *2469:A1 0
*RES
1 *3135:Z *2469:A1 22.41 
*END

*D_NET *747 0.00142431
*CONN
*I *2389:A1 I *D gf180mcu_fd_sc_mcu7t5v0__nor2_1
*I *3136:Z O *D gf180mcu_fd_sc_mcu7t5v0__dlyc_1
*CAP
1 *2389:A1 0.000533837
2 *3136:Z 0.000533837
3 *2389:A1 *2515:A2 9.85004e-05
4 *2389:A1 *2520:A2 1.96403e-05
5 *2389:A1 *862:23 0.000116325
6 *2392:A2 *2389:A1 4.76605e-05
7 *296:35 *2389:A1 2.31089e-05
8 *296:39 *2389:A1 5.14056e-05
9 *726:16 *2389:A1 0
*RES
1 *3136:Z *2389:A1 12.78 
*END

*D_NET *748 0.000681528
*CONN
*I *2587:A1 I *D gf180mcu_fd_sc_mcu7t5v0__xor2_1
*I *3137:Z O *D gf180mcu_fd_sc_mcu7t5v0__dlyc_1
*CAP
1 *2587:A1 0.000226197
2 *3137:Z 0.000226197
3 *2585:A3 *2587:A1 0
4 *2587:A2 *2587:A1 0.000151417
5 *2588:A2 *2587:A1 7.77173e-05
*RES
1 *3137:Z *2587:A1 11.16 
*END

*D_NET *749 0.0160287
*CONN
*I *2896:A1 I *D gf180mcu_fd_sc_mcu7t5v0__aoi21_1
*I *2349:A1 I *D gf180mcu_fd_sc_mcu7t5v0__nor2_1
*I *2368:I1 I *D gf180mcu_fd_sc_mcu7t5v0__mux2_2
*I *2917:A1 I *D gf180mcu_fd_sc_mcu7t5v0__nor2_1
*I *3194:Z O *D gf180mcu_fd_sc_mcu7t5v0__dlyb_1
*CAP
1 *2896:A1 5.00911e-05
2 *2349:A1 2.22485e-05
3 *2368:I1 0.000599701
4 *2917:A1 0
5 *3194:Z 0.000768888
6 *749:39 0.00180272
7 *749:28 0.00167556
8 *749:22 0.00131378
9 *2368:I1 *2831:A1 1.03992e-05
10 *2368:I1 *751:45 0.00162078
11 *2896:A1 *756:405 5.54143e-05
12 *749:22 *750:10 6.73679e-05
13 *749:22 *750:29 2.83269e-05
14 *749:22 *756:401 0.00077536
15 *749:28 *2327:B 1.9432e-05
16 *749:28 *2605:A1 0.000109643
17 *749:28 *756:405 9.39061e-05
18 *749:28 *847:18 4.28098e-05
19 *749:39 *2310:I 2.38983e-05
20 *749:39 *2605:A1 0.000275587
21 *749:39 *2845:A1 0.00079021
22 *749:39 *2862:B2 0.00057371
23 *749:39 *849:10 0.000486059
24 *2349:A2 *749:39 0
25 *2351:A1 *2349:A1 9.20698e-05
26 *2832:B2 *2368:I1 5.12586e-05
27 *2853:A1 *2368:I1 0.000720229
28 *2876:A1 *749:39 2.23179e-05
29 *2876:B1 *749:39 5.93397e-05
30 *2877:A2 *749:39 1.56942e-05
31 *2894:A2 *749:22 0.000786106
32 *2897:A1 *749:28 0.000136279
33 *2897:A2 *749:28 6.90638e-05
34 *2910:A1 *749:22 7.09292e-05
35 *2910:A2 *2896:A1 5.78854e-06
36 *2910:B *749:22 0.000290089
37 *2917:A2 *749:28 3.12451e-05
38 *2917:A2 *749:39 0.000492242
39 *265:37 *2368:I1 0
40 *266:14 *2368:I1 5.88986e-05
41 *600:16 *749:39 0.000211103
42 *664:46 *2896:A1 2.89427e-06
43 *701:26 *749:22 7.31694e-05
44 *743:30 *2896:A1 9.04462e-05
45 *744:14 *749:22 1.48237e-05
46 *744:24 *2896:A1 7.95083e-05
47 *744:24 *749:22 2.18751e-05
48 *744:24 *749:28 0.0014275
*RES
1 *3194:Z *749:22 24.84 
2 *749:22 *749:28 9.9 
3 *749:28 *2917:A1 4.5 
4 *749:28 *749:39 16.38 
5 *749:39 *2368:I1 24.12 
6 *749:39 *2349:A1 9.27 
7 *749:22 *2896:A1 9.54 
*END

*D_NET *750 0.021822
*CONN
*I *2369:I1 I *D gf180mcu_fd_sc_mcu7t5v0__mux2_2
*I *2352:A1 I *D gf180mcu_fd_sc_mcu7t5v0__nor2_1
*I *2920:A1 I *D gf180mcu_fd_sc_mcu7t5v0__nor2_1
*I *2898:A1 I *D gf180mcu_fd_sc_mcu7t5v0__nor2_1
*I *3195:Z O *D gf180mcu_fd_sc_mcu7t5v0__dlyb_1
*CAP
1 *2369:I1 0.000247583
2 *2352:A1 0.00025226
3 *2920:A1 0
4 *2898:A1 0
5 *3195:Z 0.000306193
6 *750:60 0.00261073
7 *750:29 0.00361774
8 *750:10 0.00181305
9 *750:10 *756:370 0
10 *750:10 *756:380 9.07783e-05
11 *750:29 *2830:A1 0.00010372
12 *750:29 *2869:B2 8.42991e-05
13 *750:29 *2921:A1 8.69474e-05
14 *750:29 *756:370 0
15 *750:29 *853:14 0.000309905
16 *750:29 *857:31 0.000223407
17 *750:60 *2592:A2 0
18 *750:60 *2822:A1 9.49362e-05
19 *750:60 *2822:B2 2.65444e-06
20 *750:60 *2861:A1 0.000905208
21 *750:60 *2868:B 0.000138403
22 *750:60 *2875:A1 0
23 *750:60 *857:25 0.000205026
24 *750:60 *857:31 0.00101539
25 *2327:A2 *750:29 2.54638e-05
26 *2354:A1 *2352:A1 0.000300325
27 *2354:A2 *2369:I1 0
28 *2369:S *2369:I1 3.7795e-05
29 *2820:A1 *750:60 0.000196286
30 *2822:A2 *750:60 0.000507492
31 *2823:A2 *750:60 0.000543506
32 *2823:C *750:60 3.43635e-05
33 *2837:B2 *750:60 0.000423755
34 *2839:A2 *750:60 0
35 *2847:A2 *2352:A1 0.000387282
36 *2854:B1 *750:60 0
37 *2854:C *750:60 0.000121054
38 *2855:A2 *750:60 9.04462e-05
39 *2861:B1 *750:60 1.6462e-05
40 *2863:B *750:60 0.000503516
41 *2875:A2 *750:60 1.39839e-05
42 *2876:A1 *750:29 0
43 *2894:A2 *750:10 1.18477e-05
44 *2894:A2 *750:29 0.000183312
45 *2898:A2 *750:29 7.772e-05
46 *2910:A1 *750:29 0.000278178
47 *2913:A3 *750:29 5.11733e-05
48 *2921:A2 *750:60 3.88477e-05
49 *2922:A2 *750:60 4.30225e-05
50 *3076:D *2352:A1 0.000945386
51 *3076:D *2369:I1 6.54281e-05
52 *3194:I *750:10 0
53 *3195:I *750:10 0
54 *209:20 *750:29 1.70709e-05
55 *209:26 *750:29 0.00343458
56 *247:24 *750:10 1.19491e-05
57 *248:40 *750:60 0.000134014
58 *254:43 *750:60 2.40933e-06
59 *265:47 *750:60 3.22122e-05
60 *283:64 *750:60 6.67857e-05
61 *597:22 *750:60 0
62 *631:16 *750:60 0.000927254
63 *645:22 *2369:I1 0
64 *645:22 *750:60 0
65 *665:59 *750:29 9.51781e-05
66 *744:14 *750:10 0
67 *749:22 *750:10 6.73679e-05
68 *749:22 *750:29 2.83269e-05
*RES
1 *3195:Z *750:10 11.34 
2 *750:10 *2898:A1 9 
3 *750:10 *750:29 19.35 
4 *750:29 *2920:A1 4.5 
5 *750:29 *750:60 38.79 
6 *750:60 *2352:A1 17.73 
7 *750:60 *2369:I1 6.21 
*END

*D_NET *751 0.0171991
*CONN
*I *2901:A1 I *D gf180mcu_fd_sc_mcu7t5v0__nor2_1
*I *2370:I1 I *D gf180mcu_fd_sc_mcu7t5v0__mux2_2
*I *2355:A1 I *D gf180mcu_fd_sc_mcu7t5v0__nor2_1
*I *2327:A1 I *D gf180mcu_fd_sc_mcu7t5v0__aoi21_1
*I *3196:Z O *D gf180mcu_fd_sc_mcu7t5v0__dlyb_1
*CAP
1 *2901:A1 0
2 *2370:I1 0.000235823
3 *2355:A1 0
4 *2327:A1 0.000184383
5 *3196:Z 0.000425494
6 *751:45 0.00294666
7 *751:26 0.0036687
8 *751:18 0.00119897
9 *2370:I1 *782:14 0.000726147
10 *751:18 *2830:A1 4.84662e-05
11 *751:18 *752:26 0.000256672
12 *751:18 *755:12 0.000673219
13 *751:18 *755:29 0.000459075
14 *751:18 *848:14 2.08933e-05
15 *751:26 *2310:I 0.000368855
16 *751:26 *2830:A1 7.41546e-05
17 *751:26 *752:36 6.2083e-06
18 *751:26 *852:32 9.18672e-06
19 *751:26 *853:14 0
20 *2353:A2 *2370:I1 0.000135084
21 *2368:I1 *751:45 0.00162078
22 *2831:B *751:45 0
23 *2840:B2 *751:45 4.21855e-05
24 *2845:A2 *751:45 0
25 *2876:A1 *751:26 1.57095e-05
26 *2903:A2 *751:18 0.000165012
27 *3081:D *751:45 0.000132776
28 *3186:I *2370:I1 8.61061e-05
29 *209:20 *751:18 5.29035e-05
30 *209:20 *751:26 0.00013434
31 *250:18 *751:45 0.000636442
32 *251:30 *2370:I1 0.000334499
33 *253:16 *751:45 1.80883e-05
34 *266:111 *2370:I1 0.000119192
35 *284:16 *751:45 3.07288e-06
36 *664:32 *751:18 0.000212441
37 *664:32 *751:26 0.000155458
38 *665:29 *751:26 0.00119578
39 *665:38 *751:26 0.000412574
40 *665:47 *751:26 0.000130857
41 *689:18 *2370:I1 0.000181963
42 *689:24 *2370:I1 0.000110898
*RES
1 *3196:Z *751:18 18.63 
2 *751:18 *751:26 16.56 
3 *751:26 *2327:A1 14.67 
4 *751:26 *751:45 27.54 
5 *751:45 *2355:A1 4.5 
6 *751:45 *2370:I1 17.28 
7 *751:18 *2901:A1 4.5 
*END

*D_NET *752 0.0265629
*CONN
*I *2904:A1 I *D gf180mcu_fd_sc_mcu7t5v0__nor2_1
*I *2371:I1 I *D gf180mcu_fd_sc_mcu7t5v0__mux2_2
*I *2358:A1 I *D gf180mcu_fd_sc_mcu7t5v0__nor2_1
*I *2329:A1 I *D gf180mcu_fd_sc_mcu7t5v0__nor2_1
*I *3197:Z O *D gf180mcu_fd_sc_mcu7t5v0__dlyb_1
*CAP
1 *2904:A1 0
2 *2371:I1 0.00115466
3 *2358:A1 7.77981e-05
4 *2329:A1 0.000219372
5 *3197:Z 0.000894961
6 *752:61 0.00251981
7 *752:36 0.00204652
8 *752:26 0.00143475
9 *2329:A1 *2915:A1 0.000924848
10 *2329:A1 *755:35 6.05946e-05
11 *752:26 *2830:A1 6.48506e-05
12 *752:26 *2869:B2 3.03882e-05
13 *752:26 *753:12 0.000147793
14 *752:26 *755:12 0.00161267
15 *752:26 *755:29 0.000339709
16 *752:26 *848:14 0.000101182
17 *752:26 *848:18 9.39061e-05
18 *752:26 *852:20 0.00080733
19 *752:36 *2310:I 0.000853578
20 *752:36 *2915:A1 9.39061e-05
21 *752:36 *755:29 0.00278813
22 *752:61 *2338:A1 4.96656e-05
23 *752:61 *2822:A1 0.000114867
24 *752:61 *2870:A1 0.000400702
25 *752:61 *846:23 9.04462e-05
26 *752:61 *859:10 0
27 *2329:A2 *2329:A1 0.000118113
28 *2334:A3 *752:61 0
29 *2337:A2 *752:61 1.92961e-05
30 *2339:A3 *752:61 0.00011053
31 *2354:A1 *2371:I1 0.000653866
32 *2360:A1 *2371:I1 8.93635e-05
33 *2860:A1 *2371:I1 0.0011257
34 *2860:A2 *2371:I1 0
35 *2860:A2 *752:61 2.43595e-05
36 *2869:A1 *752:36 0.000175204
37 *2870:C *2358:A1 0
38 *2870:C *752:61 0.000100097
39 *2876:A1 *2329:A1 6.05988e-05
40 *2876:A1 *752:36 4.77012e-05
41 *2903:A2 *752:26 0.000100657
42 *2903:A3 *752:26 0.000871183
43 *2905:B *752:26 9.19699e-05
44 *2905:B *752:36 0.000464696
45 *3195:I *752:26 0
46 *209:20 *752:26 6.77217e-05
47 *240:8 *752:36 0.000212085
48 *240:14 *752:36 0.000695605
49 *244:61 *2371:I1 0.000226958
50 *244:143 *2329:A1 0.000591253
51 *251:30 *2371:I1 0.000107591
52 *254:60 *752:61 9.04462e-05
53 *254:68 *752:61 9.04462e-05
54 *255:27 *752:36 0.000438611
55 *283:64 *752:61 5.5527e-06
56 *284:28 *2371:I1 9.22e-05
57 *284:34 *2371:I1 0.000386419
58 *284:34 *752:61 1.80969e-05
59 *595:14 *752:26 0.000432716
60 *645:22 *2371:I1 5.89474e-05
61 *665:29 *752:26 0.000122627
62 *665:29 *752:36 0.00104329
63 *665:38 *752:26 0.00016197
64 *686:10 *2371:I1 0.000248583
65 *694:201 *2371:I1 0
66 *721:10 *2371:I1 0.000171188
67 *744:37 *2329:A1 6.18939e-05
68 *751:18 *752:26 0.000256672
69 *751:26 *752:36 6.2083e-06
*RES
1 *3197:Z *752:26 38.88 
2 *752:26 *752:36 13.05 
3 *752:36 *2329:A1 12.6 
4 *752:36 *752:61 14.04 
5 *752:61 *2358:A1 5.13 
6 *752:61 *2371:I1 26.19 
7 *752:26 *2904:A1 9 
*END

*D_NET *753 0.0168261
*CONN
*I *2333:A1 I *D gf180mcu_fd_sc_mcu7t5v0__nand2_1
*I *2361:A1 I *D gf180mcu_fd_sc_mcu7t5v0__nor2_1
*I *2372:I1 I *D gf180mcu_fd_sc_mcu7t5v0__mux2_2
*I *2906:A1 I *D gf180mcu_fd_sc_mcu7t5v0__nor2_1
*I *3198:Z O *D gf180mcu_fd_sc_mcu7t5v0__dlyb_1
*CAP
1 *2333:A1 1.91462e-05
2 *2361:A1 0.000566473
3 *2372:I1 0.000494694
4 *2906:A1 6.82959e-05
5 *3198:Z 0.00055732
6 *753:33 0.00160258
7 *753:27 0.00200628
8 *753:12 0.00207134
9 *2333:A1 *2875:A1 0.000155486
10 *2372:I1 *2375:I1 3.02306e-05
11 *753:12 *2279:I 0.000995562
12 *753:12 *755:12 0.000185676
13 *753:12 *756:364 0
14 *753:12 *848:14 0.00015444
15 *753:12 *850:12 0.000160648
16 *753:27 *2594:A1 0.000154699
17 *753:27 *2854:A1 2.08933e-05
18 *753:27 *2869:B2 2.93044e-05
19 *753:27 *2876:B2 0.000849477
20 *753:27 *849:10 0.000112674
21 *753:27 *850:12 0.000144134
22 *753:27 *857:10 0
23 *753:33 *2854:A1 8.44364e-05
24 *753:33 *2870:A1 0.00052094
25 *753:33 *856:12 8.37143e-05
26 *2316:A1 *753:27 2.48332e-05
27 *2333:A2 *2333:A1 0.000155486
28 *2341:A1 *753:27 8.03845e-05
29 *2372:S *2372:I1 7.55765e-06
30 *2861:B2 *2372:I1 0
31 *2861:B2 *753:33 8.20943e-06
32 *2869:A1 *753:27 0.000203398
33 *2876:A2 *753:27 7.53928e-05
34 *2906:A2 *2906:A1 1.61174e-05
35 *2908:A2 *2906:A1 0.000408267
36 *2908:A2 *753:27 0.000161479
37 *2917:A2 *753:27 0
38 *3070:D *2361:A1 3.29285e-05
39 *3071:D *753:27 0.000159362
40 *3071:CLK *753:27 7.50811e-05
41 *3071:CLK *753:33 0.000155827
42 *3085:D *2372:I1 0.000231442
43 *3131:I *2361:A1 8.96341e-05
44 *209:20 *753:12 0.000141804
45 *254:39 *753:27 0.000167724
46 *266:75 *2361:A1 7.56882e-05
47 *266:75 *2372:I1 0
48 *591:30 *2906:A1 1.7022e-05
49 *664:10 *753:12 0.000222221
50 *664:10 *753:27 2.29722e-05
51 *664:14 *753:27 1.18463e-05
52 *691:25 *2372:I1 0
53 *701:12 *2906:A1 3.55118e-05
54 *701:12 *753:27 0.000134003
55 *701:16 *2906:A1 0.000544961
56 *714:10 *2372:I1 1.71254e-05
57 *714:10 *753:33 0.000266307
58 *714:14 *2372:I1 0.000435972
59 *714:21 *2372:I1 1.77281e-05
60 *715:13 *2361:A1 2.30981e-05
61 *715:37 *2361:A1 7.12273e-05
62 *743:47 *753:27 4.51438e-05
63 *744:37 *2361:A1 0.00147407
64 *752:26 *753:12 0.000147793
*RES
1 *3198:Z *753:12 20.16 
2 *753:12 *2906:A1 6.03 
3 *753:12 *753:27 18.09 
4 *753:27 *753:33 5.31 
5 *753:33 *2372:I1 13.68 
6 *753:33 *2361:A1 14.76 
7 *753:27 *2333:A1 9.45 
*END

*D_NET *754 0.00204651
*CONN
*I *2279:I I *D gf180mcu_fd_sc_mcu7t5v0__clkinv_1
*I *3199:Z O *D gf180mcu_fd_sc_mcu7t5v0__dlyb_1
*CAP
1 *2279:I 0.000221466
2 *3199:Z 0.000221466
3 *2279:I *755:12 4.78445e-05
4 *2810:A1 *2279:I 1.33545e-05
5 *2871:A1 *2279:I 0.000244347
6 *3233:I *2279:I 0.000302466
7 *753:12 *2279:I 0.000995562
*RES
1 *3199:Z *2279:I 12.78 
*END

*D_NET *755 0.0217371
*CONN
*I *2338:A1 I *D gf180mcu_fd_sc_mcu7t5v0__nand2_1
*I *2375:I1 I *D gf180mcu_fd_sc_mcu7t5v0__mux2_2
*I *2384:A1 I *D gf180mcu_fd_sc_mcu7t5v0__aoi22_1
*I *2911:A1 I *D gf180mcu_fd_sc_mcu7t5v0__nor2_1
*I *3200:Z O *D gf180mcu_fd_sc_mcu7t5v0__dlyb_1
*CAP
1 *2338:A1 4.27637e-05
2 *2375:I1 0.000759033
3 *2384:A1 0
4 *2911:A1 0.000235075
5 *3200:Z 0.00109674
6 *755:35 0.00129534
7 *755:29 0.00173714
8 *755:12 0.00248988
9 *2338:A1 *2870:A1 0.000147441
10 *2911:A1 *756:370 4.28063e-05
11 *755:12 *848:14 0
12 *755:12 *850:12 0
13 *755:12 *852:20 2.35868e-05
14 *755:29 *2605:A1 9.78264e-05
15 *755:29 *2822:A1 0.00131136
16 *755:29 *2915:A1 0.00020066
17 *755:29 *848:18 0.00055071
18 *755:35 *2915:A1 0.000786792
19 *2279:I *755:12 4.78445e-05
20 *2329:A1 *755:35 6.05946e-05
21 *2331:A2 *755:35 7.61095e-05
22 *2334:A1 *755:29 7.80963e-05
23 *2334:A1 *755:35 0.00015133
24 *2372:I1 *2375:I1 3.02306e-05
25 *2372:S *2375:I1 0
26 *2374:A2 *2375:I1 0.000229365
27 *2869:A1 *755:29 0.000118359
28 *2869:A1 *755:35 0.000107087
29 *2875:B2 *2375:I1 5.06031e-06
30 *2903:A2 *2911:A1 1.06822e-05
31 *2903:A2 *755:12 0.000209297
32 *2903:A2 *755:29 2.98796e-05
33 *2905:B *755:29 0.000416679
34 *2913:A2 *2911:A1 0.000126258
35 *2913:A3 *2911:A1 1.56779e-05
36 *2917:A2 *755:29 0.000155681
37 *3061:D *755:29 3.01487e-05
38 *3085:D *2375:I1 7.84068e-05
39 *3086:D *2375:I1 7.86261e-05
40 *3196:I *755:12 0
41 *3197:I *755:12 0
42 *3198:I *755:12 0
43 *3199:I *755:12 0
44 *3200:I *755:12 0
45 *3233:I *755:12 4.18632e-05
46 *209:36 *755:35 0.000375216
47 *244:101 *755:35 0.000625725
48 *244:128 *755:35 3.60134e-05
49 *244:143 *755:35 0.000123239
50 *247:24 *2911:A1 0
51 *254:68 *755:35 6.10887e-05
52 *255:12 *755:29 0.000122029
53 *371:22 *2375:I1 1.0415e-05
54 *591:30 *2911:A1 0.00100783
55 *591:30 *755:29 0.000113789
56 *665:38 *755:29 4.71078e-05
57 *665:47 *755:29 1.36885e-05
58 *693:29 *2375:I1 7.191e-07
59 *714:21 *2375:I1 0
60 *723:51 *2375:I1 8.12023e-06
61 *723:51 *755:35 2.6441e-05
62 *723:68 *2375:I1 0.000143146
63 *751:18 *755:12 0.000673219
64 *751:18 *755:29 0.000459075
65 *752:26 *755:12 0.00161267
66 *752:26 *755:29 0.000339709
67 *752:36 *755:29 0.00278813
68 *752:61 *2338:A1 4.96656e-05
69 *753:12 *755:12 0.000185676
*RES
1 *3200:Z *755:12 24.66 
2 *755:12 *2911:A1 7.29 
3 *755:12 *755:29 21.24 
4 *755:29 *755:35 12.24 
5 *755:35 *2384:A1 4.5 
6 *755:35 *2375:I1 10.62 
7 *755:29 *2338:A1 9.45 
*END

*D_NET *756 0.115429
*CONN
*I *2474:C I *D gf180mcu_fd_sc_mcu7t5v0__aoi211_1
*I *2508:C I *D gf180mcu_fd_sc_mcu7t5v0__aoi211_1
*I *2504:C I *D gf180mcu_fd_sc_mcu7t5v0__aoi211_1
*I *2314:I I *D gf180mcu_fd_sc_mcu7t5v0__clkinv_2
*I *2488:C I *D gf180mcu_fd_sc_mcu7t5v0__aoi211_1
*I *2321:A1 I *D gf180mcu_fd_sc_mcu7t5v0__nor2_1
*I *2882:B I *D gf180mcu_fd_sc_mcu7t5v0__aoi21_1
*I *2865:A1 I *D gf180mcu_fd_sc_mcu7t5v0__nor2_1
*I *2849:A1 I *D gf180mcu_fd_sc_mcu7t5v0__nor2_1
*I *2833:A1 I *D gf180mcu_fd_sc_mcu7t5v0__nor2_1
*I *2825:A1 I *D gf180mcu_fd_sc_mcu7t5v0__nor2_1
*I *2908:A1 I *D gf180mcu_fd_sc_mcu7t5v0__nor3_1
*I *2903:A1 I *D gf180mcu_fd_sc_mcu7t5v0__nor3_1
*I *2913:A1 I *D gf180mcu_fd_sc_mcu7t5v0__nor3_1
*I *2900:A1 I *D gf180mcu_fd_sc_mcu7t5v0__nor3_1
*I *2910:C I *D gf180mcu_fd_sc_mcu7t5v0__aoi211_1
*I *2905:C I *D gf180mcu_fd_sc_mcu7t5v0__aoi211_1
*I *2327:B I *D gf180mcu_fd_sc_mcu7t5v0__aoi21_1
*I *2919:A1 I *D gf180mcu_fd_sc_mcu7t5v0__nor3_1
*I *2916:A1 I *D gf180mcu_fd_sc_mcu7t5v0__nor3_1
*I *2383:C I *D gf180mcu_fd_sc_mcu7t5v0__aoi221_1
*I *2385:A1 I *D gf180mcu_fd_sc_mcu7t5v0__nor2_1
*I *2922:A1 I *D gf180mcu_fd_sc_mcu7t5v0__nor3_1
*I *2896:B I *D gf180mcu_fd_sc_mcu7t5v0__aoi21_1
*I *2893:B I *D gf180mcu_fd_sc_mcu7t5v0__aoi21_1
*I *2841:A1 I *D gf180mcu_fd_sc_mcu7t5v0__nor2_1
*I *2857:A1 I *D gf180mcu_fd_sc_mcu7t5v0__nor2_1
*I *2510:C I *D gf180mcu_fd_sc_mcu7t5v0__aoi211_1
*I *2873:A1 I *D gf180mcu_fd_sc_mcu7t5v0__nor2_1
*I *2494:C I *D gf180mcu_fd_sc_mcu7t5v0__aoi211_1
*I *2502:C I *D gf180mcu_fd_sc_mcu7t5v0__aoi211_1
*I *2486:C I *D gf180mcu_fd_sc_mcu7t5v0__aoi211_1
*I *2500:C I *D gf180mcu_fd_sc_mcu7t5v0__aoi211_1
*I *2484:C I *D gf180mcu_fd_sc_mcu7t5v0__aoi211_1
*I *2482:C I *D gf180mcu_fd_sc_mcu7t5v0__aoi211_1
*I *2498:C I *D gf180mcu_fd_sc_mcu7t5v0__aoi211_1
*I *2478:C I *D gf180mcu_fd_sc_mcu7t5v0__aoi211_1
*I *2480:C I *D gf180mcu_fd_sc_mcu7t5v0__aoi211_1
*I *2511:A2 I *D gf180mcu_fd_sc_mcu7t5v0__nor2_1
*I *2512:A2 I *D gf180mcu_fd_sc_mcu7t5v0__or2_1
*I *2496:C I *D gf180mcu_fd_sc_mcu7t5v0__aoi211_1
*I *2889:A1 I *D gf180mcu_fd_sc_mcu7t5v0__nor2_1
*I *2476:C I *D gf180mcu_fd_sc_mcu7t5v0__aoi211_1
*I *2492:C I *D gf180mcu_fd_sc_mcu7t5v0__aoi211_1
*I *2490:C I *D gf180mcu_fd_sc_mcu7t5v0__aoi211_1
*I *2506:C I *D gf180mcu_fd_sc_mcu7t5v0__aoi211_1
*I *2886:B I *D gf180mcu_fd_sc_mcu7t5v0__aoi21_1
*I *3201:Z O *D gf180mcu_fd_sc_mcu7t5v0__buf_2
*CAP
1 *2474:C 0.00106082
2 *2508:C 0.000100583
3 *2504:C 7.32393e-05
4 *2314:I 3.14145e-05
5 *2488:C 0.000299682
6 *2321:A1 0
7 *2882:B 0.000631123
8 *2865:A1 0.000557549
9 *2849:A1 0
10 *2833:A1 0.000121193
11 *2825:A1 0
12 *2908:A1 0
13 *2903:A1 0
14 *2913:A1 1.54287e-05
15 *2900:A1 0
16 *2910:C 2.22794e-05
17 *2905:C 0.000408439
18 *2327:B 0.000242221
19 *2919:A1 0
20 *2916:A1 0.000182719
21 *2383:C 0
22 *2385:A1 0.000263927
23 *2922:A1 8.35983e-05
24 *2896:B 0
25 *2893:B 0.000140588
26 *2841:A1 1.00326e-05
27 *2857:A1 3.44897e-05
28 *2510:C 1.24169e-05
29 *2873:A1 0
30 *2494:C 0
31 *2502:C 0.000178289
32 *2486:C 0
33 *2500:C 0
34 *2484:C 0.00136198
35 *2482:C 0.000213993
36 *2498:C 0
37 *2478:C 0.000278752
38 *2480:C 4.55112e-05
39 *2511:A2 0
40 *2512:A2 9.51459e-05
41 *2496:C 0.000419202
42 *2889:A1 0
43 *2476:C 6.35072e-05
44 *2492:C 0
45 *2490:C 0.000108724
46 *2506:C 4.98834e-05
47 *2886:B 0.000209452
48 *3201:Z 0
49 *756:600 0.00041426
50 *756:598 0.000230261
51 *756:558 0.000714219
52 *756:447 0.00117314
53 *756:441 0.00142732
54 *756:424 0.000684277
55 *756:422 0.000275602
56 *756:420 0.000517333
57 *756:418 0.000766265
58 *756:414 0.000253467
59 *756:405 0.000274772
60 *756:401 0.000424547
61 *756:380 0.000715161
62 *756:370 0.000587545
63 *756:364 0.000933402
64 *756:352 0.00101762
65 *756:348 0.000503917
66 *756:344 0.000844797
67 *756:332 0.00117799
68 *756:313 0.00115051
69 *756:294 0.00103216
70 *756:292 0.00108358
71 *756:255 0.000178289
72 *756:235 0.000498586
73 *756:218 0.000676766
74 *756:209 0.000265342
75 *756:187 0.000567274
76 *756:181 0.000528936
77 *756:179 0.000897251
78 *756:148 0.00123984
79 *756:144 0.00248616
80 *756:134 0.00146465
81 *756:122 0.000429062
82 *756:118 0.000295537
83 *756:116 0.000515513
84 *756:112 0.000492199
85 *756:108 0.000589441
86 *756:104 0.00126853
87 *756:54 0.000453319
88 *756:50 0.000657186
89 *756:44 0.000297097
90 *756:42 0.00130186
91 *756:12 0.000401182
92 *756:4 0.000433946
93 *2314:I *783:107 5.83222e-05
94 *2474:C *2289:I 3.71764e-06
95 *2474:C *778:268 0
96 *2478:C *2826:B2 0.000164219
97 *2478:C *779:18 0.000364897
98 *2478:C *779:30 0
99 *2478:C *909:14 1.97308e-05
100 *2480:C *2827:A1 0.000479291
101 *2482:C *2834:B2 0.000217308
102 *2482:C *951:12 0
103 *2484:C *2302:I 2.4613e-05
104 *2484:C *2834:C2 0.000174506
105 *2488:C *2305:I 9.51953e-05
106 *2488:C *2488:A2 1.37426e-05
107 *2488:C *2858:C1 0
108 *2488:C *778:316 0.00022428
109 *2488:C *778:340 0.000372735
110 *2488:C *778:353 1.39517e-06
111 *2488:C *783:107 0
112 *2496:C *2495:A1 0
113 *2504:C *782:121 3.40506e-05
114 *2510:C *782:79 3.97987e-05
115 *2510:C *783:92 9.84908e-05
116 *2833:A1 *2364:A2 4.6977e-05
117 *2833:A1 *2824:A1 5.0969e-05
118 *2841:A1 *759:40 9.85004e-05
119 *2865:A1 *2848:A1 2.32821e-05
120 *2865:A1 *3220:I 4.86138e-05
121 *2865:A1 *768:14 3.77882e-05
122 *2882:B *2298:I 0.000153839
123 *2882:B *3143:I 5.34584e-05
124 *2882:B *759:36 1.26191e-05
125 *2882:B *784:158 0.000146763
126 *2886:B *2322:A3 0.00117172
127 *2905:C *2829:B2 0.000368092
128 *756:12 *2299:I 0.000391051
129 *756:12 *2322:A3 7.00009e-05
130 *756:12 *2506:A2 9.84908e-05
131 *756:42 *2299:I 0.000449918
132 *756:42 *2506:A2 9.17264e-05
133 *756:42 *778:429 8.68281e-06
134 *756:44 *778:429 2.67007e-05
135 *756:50 *2300:I 0.000382866
136 *756:104 *2299:I 0.000140894
137 *756:104 *2300:I 6.05946e-05
138 *756:104 *2322:A3 0.000128839
139 *756:104 *2503:A1 7.65162e-05
140 *756:104 *2505:A1 0.000364897
141 *756:104 *778:392 6.58085e-05
142 *756:104 *778:429 1.32661e-05
143 *756:108 *2504:A2 1.23607e-05
144 *756:108 *778:392 6.85392e-05
145 *756:112 *2510:A2 0
146 *756:112 *2884:A2 6.24903e-05
147 *756:112 *778:392 7.75213e-05
148 *756:112 *782:89 3.97987e-05
149 *756:112 *783:92 3.83264e-06
150 *756:112 *938:10 8.73651e-05
151 *756:116 *2510:A2 0.00088297
152 *756:116 *778:392 7.85077e-06
153 *756:116 *938:10 0.000557083
154 *756:134 *2494:A2 0.000458737
155 *756:144 *2493:A1 3.22122e-05
156 *756:144 *2878:B2 0
157 *756:144 *784:16 1.13218e-05
158 *756:148 *3142:I 1.4382e-06
159 *756:148 *784:16 0.000208441
160 *756:179 *2878:B2 0.000292358
161 *756:179 *778:10 0.000809891
162 *756:179 *778:16 0.000406468
163 *756:179 *918:14 0.000862226
164 *756:181 *2497:A1 0
165 *756:181 *2878:B2 5.52908e-05
166 *756:181 *3147:I 0.000871718
167 *756:181 *778:16 0.00172527
168 *756:181 *958:10 0.000174497
169 *756:187 *2827:A1 0.000928443
170 *756:187 *2878:B2 4.78571e-05
171 *756:187 *3181:I 0.000187305
172 *756:218 *2477:A1 0.000272792
173 *756:218 *2826:A1 1.23715e-05
174 *756:218 *2834:A2 6.74604e-05
175 *756:218 *2879:A1 0.000183662
176 *756:218 *778:38 0.00128531
177 *756:218 *958:10 0.00131211
178 *756:235 *2834:B2 0.000127759
179 *756:294 *2878:C2 0.000119952
180 *756:294 *3143:I 4.095e-05
181 *756:313 *2878:C2 0.000884344
182 *756:313 *2880:B 9.04462e-05
183 *756:313 *3140:I 4.16602e-05
184 *756:313 *759:40 0.000757642
185 *756:313 *782:14 1.18076e-06
186 *756:332 *782:14 0.00023304
187 *756:332 *783:16 0.000425242
188 *756:344 *2824:A1 8.86895e-05
189 *756:344 *2840:A1 8.69576e-05
190 *756:344 *2848:A1 2.36914e-05
191 *756:344 *782:14 8.97319e-05
192 *756:348 *2364:A2 0.000103065
193 *756:348 *2824:A1 0.000151417
194 *756:348 *782:14 1.19491e-05
195 *756:352 *2364:A2 0.000628116
196 *756:352 *758:44 0.000144454
197 *756:352 *782:14 8.44077e-06
198 *756:401 *758:16 0.000297758
199 *756:405 *847:18 8.88526e-06
200 *756:424 *854:10 0.00107063
201 *756:558 *2848:A1 9.65355e-06
202 *756:558 *782:14 0.000217957
203 *756:598 *2305:I 0.000205718
204 *756:598 *2884:A2 0.00015651
205 *756:600 *2305:I 0.000229426
206 *2316:A2 *756:352 0.00113918
207 *2316:A2 *756:364 9.71964e-06
208 *2319:A1 *756:352 5.97457e-06
209 *2321:A2 *756:116 4.99985e-05
210 *2322:A2 *2314:I 6.2979e-05
211 *2323:A3 *756:104 0.000114409
212 *2328:B *2327:B 2.0219e-05
213 *2345:A2 *2496:C 3.01487e-05
214 *2364:A1 *2833:A1 0.000370348
215 *2365:A1 *2833:A1 0
216 *2381:A1 *2496:C 2.78423e-05
217 *2383:B2 *2385:A1 3.60134e-05
218 *2385:A2 *2385:A1 0.000510671
219 *2471:B *2314:I 9.30289e-05
220 *2474:A1 *2474:C 5.97457e-06
221 *2476:A1 *2476:C 1.51153e-05
222 *2476:A1 *2490:C 0.00014341
223 *2476:A1 *756:54 5.95604e-05
224 *2476:A2 *756:54 1.11031e-05
225 *2476:B *756:50 0.000378061
226 *2478:A1 *2478:C 2.40933e-06
227 *2480:A1 *756:187 2.14748e-05
228 *2480:B *2480:C 0.000479291
229 *2480:B *756:187 0.000378118
230 *2483:A1 *2474:C 7.191e-07
231 *2484:A1 *2474:C 7.41234e-06
232 *2484:B *2474:C 0.00146017
233 *2486:B *2502:C 0.000148576
234 *2492:A1 *756:54 4.6613e-06
235 *2492:B *2490:C 1.71254e-05
236 *2492:B *756:50 0
237 *2494:A1 *756:134 0.00032797
238 *2496:A1 *2496:C 1.0415e-05
239 *2500:B *2484:C 2.4439e-05
240 *2502:A1 *2502:C 8.3864e-05
241 *2502:B *756:179 5.99943e-05
242 *2504:A1 *2504:C 1.07374e-05
243 *2504:A1 *2508:C 2.13062e-05
244 *2504:A1 *756:108 2.28831e-05
245 *2506:A1 *2506:C 1.56942e-05
246 *2506:A1 *756:12 0.000204537
247 *2506:A1 *756:104 0.000666705
248 *2506:B *2886:B 6.95119e-05
249 *2506:B *756:104 0.000396859
250 *2508:A1 *756:42 0.000256237
251 *2508:A1 *756:44 0.000229822
252 *2508:B *2508:C 9.17162e-06
253 *2508:B *756:104 7.21425e-05
254 *2510:A1 *2882:B 0
255 *2510:A1 *756:118 0.000109323
256 *2510:A1 *756:292 0.000679419
257 *2510:B *756:116 0.000520467
258 *2511:A1 *2512:A2 9.21285e-05
259 *2621:A1 *756:447 0.00171143
260 *2676:A3 *2474:C 0.000274714
261 *2726:A1 *2474:C 6.81021e-05
262 *2750:B *756:144 1.86887e-06
263 *2750:B *756:148 3.69073e-05
264 *2765:A3 *756:116 7.44548e-05
265 *2810:A3 *756:401 6.62751e-05
266 *2813:A1 *756:364 0.000210458
267 *2821:A1 *756:352 9.20679e-05
268 *2824:A2 *756:344 9.72712e-05
269 *2825:A2 *756:344 5.88182e-05
270 *2825:A2 *756:348 7.47548e-06
271 *2848:A2 *756:344 0.000103691
272 *2848:B2 *756:332 0.000608882
273 *2849:A2 *756:344 0.000153256
274 *2856:B2 *756:332 0.000223401
275 *2864:B2 *756:313 0.000256844
276 *2865:A2 *2865:A1 0.000681989
277 *2871:A1 *756:364 0.000110838
278 *2873:A2 *756:118 0.000133027
279 *2873:A2 *756:122 0.000109332
280 *2881:A1 *756:313 0.000104423
281 *2881:A2 *756:313 2.9185e-05
282 *2881:B *2882:B 5.75428e-06
283 *2882:A2 *2882:B 0.000546589
284 *2887:A2 *2504:C 4.0961e-06
285 *2887:A2 *756:104 4.03682e-05
286 *2887:A2 *756:108 7.21866e-05
287 *2887:A2 *756:112 0.000137908
288 *2889:A2 *2886:B 0.00117107
289 *2889:A2 *756:104 0.00052864
290 *2896:A1 *756:405 5.54143e-05
291 *2897:A2 *756:405 0.000285887
292 *2900:A2 *756:401 0.000171597
293 *2903:A2 *756:370 0.000132129
294 *2905:B *2905:C 0.000345234
295 *2908:A2 *756:352 1.61174e-05
296 *2908:A2 *756:364 0.000352047
297 *2911:A1 *756:370 4.28063e-05
298 *2916:A2 *2916:A1 0.000338217
299 *2916:A2 *756:441 0.000437789
300 *2917:A2 *2327:B 6.95119e-05
301 *2919:A2 *756:420 0.000320271
302 *2919:A2 *756:422 0.000320262
303 *2919:A2 *756:424 0.000182206
304 *2919:A3 *2327:B 0
305 *2922:A3 *2922:A1 0.000154519
306 *2923:D *756:447 0.000223407
307 *2924:D *2385:A1 0.000294431
308 *2924:D *756:447 0.000436469
309 *2954:CLK *2474:C 0.000496776
310 *2955:D *756:54 7.84068e-05
311 *2956:D *2478:C 6.39361e-05
312 *2959:D *2474:C 0.000127736
313 *2959:CLK *2482:C 4.20103e-05
314 *2959:CLK *756:218 0.000175108
315 *2959:CLK *756:235 0.000233873
316 *2964:CLK *756:144 3.99171e-05
317 *2965:CLK *756:148 0.000498052
318 *2968:D *756:179 3.31858e-06
319 *2968:D *756:181 1.87555e-05
320 *2969:D *2504:C 9.30289e-05
321 *2970:D *2506:C 3.54696e-05
322 *2970:D *2886:B 6.95119e-05
323 *2970:D *756:104 0
324 *3030:D *756:144 5.41407e-05
325 *3037:D *2882:B 7.41861e-05
326 *3037:D *756:292 0
327 *3048:CLK *756:344 0.000169515
328 *3049:CLK *756:344 0
329 *3050:D *2841:A1 9.04462e-05
330 *3050:D *756:313 0.000223391
331 *3050:D *756:332 0.00127153
332 *3050:D *756:558 0.000270982
333 *3050:CLK *756:344 0.000480025
334 *3051:D *2865:A1 0.000379464
335 *3051:D *756:558 0.000177559
336 *3051:CLK *2865:A1 5.56393e-05
337 *3052:D *756:313 0.000325546
338 *3053:D *2865:A1 0.000354728
339 *3054:D *756:122 2.76357e-05
340 *3054:D *756:134 3.0177e-06
341 *3054:CLK *2865:A1 2.65444e-06
342 *3057:D *756:44 3.01487e-05
343 *3061:D *756:364 0.000118113
344 *3061:D *756:370 1.10228e-05
345 *3063:D *756:364 0.000115867
346 *3064:D *2905:C 0.000213555
347 *3064:D *2910:C 3.01487e-05
348 *3064:D *756:414 3.44802e-05
349 *3064:D *756:418 5.62747e-05
350 *3064:D *756:420 3.55431e-05
351 *3065:D *2913:A1 8.49143e-05
352 *3065:D *756:380 8.68398e-06
353 *3066:D *2916:A1 0.00037349
354 *3066:CLK *2916:A1 0
355 *3067:D *2327:B 0
356 *3068:D *2922:A1 0.000154519
357 *3068:CLK *756:441 0.00156026
358 *3068:CLK *756:447 1.71254e-05
359 *3074:D *2512:A2 9.84966e-05
360 *3074:D *756:148 0.000165093
361 *3074:CLK *756:148 4.98644e-05
362 *3083:D *756:313 1.79237e-05
363 *3092:I *2385:A1 9.42618e-05
364 *3104:I *756:144 0.000128721
365 *3123:I *756:134 0.000443189
366 *3132:I *756:352 0.000244865
367 *3132:I *756:364 0.000475342
368 *3201:I *756:12 0.00027662
369 *3214:I *2496:C 1.86249e-05
370 *209:20 *2905:C 8.11962e-05
371 *209:20 *756:370 8.9944e-05
372 *209:20 *756:380 1.82302e-05
373 *209:26 *756:418 6.21246e-06
374 *209:26 *756:420 0.000284661
375 *209:26 *756:424 0.000164838
376 *209:26 *756:441 0.000184413
377 *219:10 *2474:C 4.3181e-05
378 *241:12 *756:352 0.000164374
379 *244:49 *756:144 0.000769514
380 *244:186 *756:313 5.05894e-05
381 *247:24 *2893:B 0.000189063
382 *247:24 *2913:A1 9.30128e-05
383 *247:24 *756:364 0.000142195
384 *247:24 *756:370 0.000760031
385 *247:24 *756:380 0.000247152
386 *247:54 *2833:A1 0
387 *248:8 *2833:A1 0.000379025
388 *250:12 *756:116 3.33082e-05
389 *251:30 *2496:C 0.000500384
390 *251:30 *2882:B 0.000406329
391 *251:30 *756:104 0.000541991
392 *251:30 *756:294 0.000339721
393 *251:30 *756:313 3.02812e-05
394 *251:34 *2496:C 2.92051e-05
395 *264:12 *756:352 0.000416321
396 *282:23 *756:352 6.84043e-05
397 *295:63 *756:144 0.00235425
398 *295:63 *756:179 0.000176497
399 *295:96 *2490:C 0.000372597
400 *295:112 *2490:C 0.000382884
401 *295:166 *2484:C 0
402 *371:8 *2512:A2 0.000217216
403 *371:22 *2496:C 6.82913e-05
404 *371:35 *756:447 0.000445253
405 *372:24 *2496:C 0
406 *372:60 *2496:C 4.92543e-05
407 *372:60 *756:148 0
408 *372:68 *756:179 0
409 *372:86 *2474:C 7.70621e-05
410 *372:86 *2484:C 0.000112462
411 *372:86 *756:235 0.000205459
412 *372:208 *756:144 1.69273e-05
413 *486:20 *2385:A1 2.09122e-05
414 *496:24 *2488:C 0.000205479
415 *496:24 *756:598 0.000140944
416 *496:24 *756:600 0.000242359
417 *503:36 *2502:C 3.38463e-05
418 *589:25 *756:344 1.84368e-05
419 *589:33 *756:344 9.85571e-05
420 *589:35 *756:344 0.000133728
421 *590:41 *756:313 0.000164219
422 *590:64 *756:332 0
423 *591:30 *756:364 0.000312109
424 *595:14 *756:364 0
425 *597:22 *756:364 8.5875e-05
426 *605:20 *756:364 5.85613e-05
427 *630:24 *756:134 4.02353e-05
428 *656:14 *2478:C 0.000248147
429 *664:46 *756:405 0.000417214
430 *664:62 *756:405 0.000290134
431 *689:12 *756:313 2.29765e-05
432 *689:24 *2496:C 1.7368e-05
433 *690:34 *2478:C 5.53775e-05
434 *694:223 *756:118 2.29859e-05
435 *694:223 *756:122 2.06244e-05
436 *694:223 *756:292 3.09427e-05
437 *701:26 *756:401 6.96766e-06
438 *702:90 *756:344 0.000313863
439 *703:48 *756:148 5.63942e-05
440 *705:14 *756:144 0.00012136
441 *705:45 *756:134 3.01487e-05
442 *705:91 *2865:A1 6.75054e-06
443 *706:20 *2488:C 1.05145e-05
444 *706:65 *2508:C 3.55544e-05
445 *706:65 *756:104 0.00045633
446 *706:65 *756:108 2.6995e-05
447 *706:78 *756:104 0.000204492
448 *714:55 *756:447 0.000222631
449 *716:21 *2512:A2 4.83522e-05
450 *716:21 *756:148 0
451 *723:8 *756:447 0
452 *723:18 *756:447 0
453 *725:32 *756:447 4.47101e-05
454 *743:30 *2905:C 0.000135171
455 *743:30 *2910:C 5.24446e-05
456 *743:30 *756:414 0.000344002
457 *744:14 *2893:B 1.39839e-05
458 *744:14 *756:401 3.93198e-05
459 *744:24 *756:401 4.84829e-05
460 *744:24 *756:405 0.000829585
461 *744:24 *756:418 3.36364e-05
462 *744:24 *756:420 0.000406021
463 *744:24 *756:422 9.43472e-05
464 *744:24 *756:424 0.000528647
465 *744:24 *756:441 0.000277706
466 *749:22 *756:401 0.00077536
467 *749:28 *2327:B 1.9432e-05
468 *749:28 *756:405 9.39061e-05
469 *750:10 *756:370 0
470 *750:10 *756:380 9.07783e-05
471 *750:29 *756:370 0
472 *753:12 *756:364 0
*RES
1 *3201:Z *756:4 4.5 
2 *756:4 *756:12 11.88 
3 *756:12 *2886:B 17.64 
4 *756:12 *2506:C 4.95 
5 *756:4 *756:42 11.61 
6 *756:42 *756:44 0.63 
7 *756:44 *756:50 12.15 
8 *756:50 *756:54 2.52 
9 *756:54 *2490:C 15.39 
10 *756:54 *2492:C 4.5 
11 *756:50 *2476:C 4.95 
12 *756:44 *2889:A1 4.5 
13 *756:42 *756:104 38.07 
14 *756:104 *756:108 1.62 
15 *756:108 *756:112 2.34 
16 *756:112 *756:116 8.19 
17 *756:116 *756:118 1.17 
18 *756:118 *756:122 5.49 
19 *756:122 *756:134 12.42 
20 *756:134 *756:144 20.43 
21 *756:144 *756:148 5.76 
22 *756:148 *2496:C 16.74 
23 *756:148 *2512:A2 5.94 
24 *756:148 *2511:A2 4.5 
25 *756:144 *756:179 12.15 
26 *756:179 *756:181 5.49 
27 *756:181 *756:187 7.92 
28 *756:187 *2480:C 5.85 
29 *756:187 *2478:C 16.56 
30 *756:181 *756:209 4.5 
31 *756:209 *2498:C 4.5 
32 *756:209 *756:218 10.71 
33 *756:218 *2482:C 10.8 
34 *756:218 *756:235 6.84 
35 *756:235 *2484:C 15.84 
36 *756:235 *2500:C 4.5 
37 *756:179 *756:255 4.5 
38 *756:255 *2486:C 4.5 
39 *756:255 *2502:C 6.12 
40 *756:134 *2494:C 4.5 
41 *756:122 *2873:A1 4.5 
42 *756:118 *2510:C 9.27 
43 *756:116 *756:292 6.39 
44 *756:292 *756:294 2.61 
45 *756:294 *2857:A1 4.77 
46 *756:294 *756:313 17.64 
47 *756:313 *2841:A1 4.77 
48 *756:313 *756:332 19.17 
49 *756:332 *756:344 11.25 
50 *756:344 *756:348 1.44 
51 *756:348 *756:352 6.48 
52 *756:352 *756:364 15.66 
53 *756:364 *756:370 7.56 
54 *756:370 *756:380 7.2 
55 *756:380 *2893:B 5.49 
56 *756:380 *756:401 16.92 
57 *756:401 *756:405 7.47 
58 *756:405 *2896:B 4.5 
59 *756:405 *756:414 1.26 
60 *756:414 *756:418 5.13 
61 *756:418 *756:420 3.87 
62 *756:420 *756:422 0.81 
63 *756:422 *756:424 4.95 
64 *756:424 *2922:A1 9.72 
65 *756:424 *756:441 5.67 
66 *756:441 *756:447 15.48 
67 *756:447 *2385:A1 16.38 
68 *756:447 *2383:C 4.5 
69 *756:441 *2916:A1 11.34 
70 *756:422 *2919:A1 9 
71 *756:420 *2327:B 10.53 
72 *756:418 *2905:C 13.23 
73 *756:414 *2910:C 4.95 
74 *756:401 *2900:A1 9 
75 *756:370 *2913:A1 9.27 
76 *756:364 *2903:A1 4.5 
77 *756:352 *2908:A1 4.5 
78 *756:348 *2825:A1 4.5 
79 *756:344 *2833:A1 15.21 
80 *756:332 *756:558 6.39 
81 *756:558 *2849:A1 4.5 
82 *756:558 *2865:A1 10.26 
83 *756:292 *2882:B 19.26 
84 *756:112 *2321:A1 4.5 
85 *756:108 *756:598 5.85 
86 *756:598 *756:600 1.53 
87 *756:600 *2488:C 12.06 
88 *756:600 *2314:I 9.45 
89 *756:598 *2504:C 9.63 
90 *756:104 *2508:C 5.4 
91 *2484:C *2474:C 27.81 
*END

*D_NET *757 0.00964416
*CONN
*I *2320:A1 I *D gf180mcu_fd_sc_mcu7t5v0__nand2_1
*I *2322:A1 I *D gf180mcu_fd_sc_mcu7t5v0__nand3_1
*I *3202:Z O *D gf180mcu_fd_sc_mcu7t5v0__dlyb_1
*CAP
1 *2320:A1 0.00125434
2 *2322:A1 0.000314209
3 *3202:Z 0
4 *757:6 0.00156855
5 *2320:A1 *2320:A2 0
6 *2320:A1 *2323:A2 8.81508e-05
7 *2320:A1 *2503:A1 0
8 *2320:A1 *3224:I 0.000703535
9 *2320:A1 *759:26 0.000345038
10 *2320:A1 *760:14 0.000382884
11 *2320:A1 *770:30 0.000132232
12 *2320:A1 *925:10 8.76372e-05
13 *2322:A1 *2503:A1 4.39583e-06
14 *2322:A2 *2322:A1 5.18351e-05
15 *2323:A3 *2320:A1 0.00340056
16 *2504:A1 *2322:A1 6.85726e-05
17 *2803:A3 *2320:A1 0.00081331
18 *2889:A2 *2320:A1 0
19 *2971:D *2320:A1 1.17752e-05
20 *251:12 *2322:A1 0.000406719
21 *588:18 *2320:A1 1.04031e-05
*RES
1 *3202:Z *757:6 9 
2 *757:6 *2322:A1 11.52 
3 *757:6 *2320:A1 32.85 
*END

*D_NET *758 0.0178254
*CONN
*I *2364:A2 I *D gf180mcu_fd_sc_mcu7t5v0__nand2_1
*I *2311:I I *D gf180mcu_fd_sc_mcu7t5v0__clkinv_1
*I *2815:A2 I *D gf180mcu_fd_sc_mcu7t5v0__nor3_1
*I *2821:A2 I *D gf180mcu_fd_sc_mcu7t5v0__nor3_1
*I *3203:Z O *D gf180mcu_fd_sc_mcu7t5v0__dlyb_1
*CAP
1 *2364:A2 0.000499625
2 *2311:I 0
3 *2815:A2 0.000111165
4 *2821:A2 0
5 *3203:Z 0.00388881
6 *758:44 0.000806624
7 *758:25 0.000480409
8 *758:18 6.22445e-05
9 *758:16 0.00388881
10 *758:16 *2876:B2 0.000221837
11 *758:16 *852:20 1.39452e-05
12 *758:16 *852:32 6.28015e-05
13 *2319:A1 *2364:A2 0.000332075
14 *2364:A1 *2364:A2 0.000762009
15 *2365:A1 *2364:A2 3.77846e-05
16 *2663:B *758:16 0.000400853
17 *2810:A3 *758:16 0.00111882
18 *2813:A1 *758:25 0.0002318
19 *2813:A1 *758:44 0.000345288
20 *2815:A1 *2815:A2 0.000217251
21 *2815:A3 *2815:A2 1.09982e-05
22 *2825:A2 *2364:A2 5.98937e-05
23 *2832:B2 *2364:A2 2.36813e-05
24 *2833:A1 *2364:A2 4.6977e-05
25 *2871:A2 *758:16 4.54905e-05
26 *2890:A1 *758:16 0.000239704
27 *3058:D *758:16 4.3646e-05
28 *3132:I *758:25 0.000638833
29 *241:12 *2364:A2 5.97457e-06
30 *264:12 *758:44 0.000122836
31 *282:23 *2364:A2 0
32 *282:23 *758:44 0.000566486
33 *283:14 *2364:A2 5.60661e-06
34 *480:21 *758:16 0.000392186
35 *595:14 *758:16 0.000139274
36 *595:28 *2815:A2 0.000129883
37 *595:28 *758:16 0
38 *599:16 *758:44 0
39 *605:20 *758:25 0.000106536
40 *743:47 *758:16 0.000565638
41 *743:62 *758:16 2.61608e-05
42 *756:348 *2364:A2 0.000103065
43 *756:352 *2364:A2 0.000628116
44 *756:352 *758:44 0.000144454
45 *756:401 *758:16 0.000297758
*RES
1 *3203:Z *758:16 45.81 
2 *758:16 *758:18 4.5 
3 *758:18 *2821:A2 4.5 
4 *758:18 *758:25 1.71 
5 *758:25 *2815:A2 14.49 
6 *758:25 *758:44 12.42 
7 *758:44 *2311:I 4.5 
8 *758:44 *2364:A2 18.9 
*END

*D_NET *759 0.037784
*CONN
*I *2804:A1 I *D gf180mcu_fd_sc_mcu7t5v0__nand2_1
*I *2887:A1 I *D gf180mcu_fd_sc_mcu7t5v0__oai21_1
*I *2324:A1 I *D gf180mcu_fd_sc_mcu7t5v0__and2_1
*I *2880:B I *D gf180mcu_fd_sc_mcu7t5v0__aoi21_1
*I *2847:A1 I *D gf180mcu_fd_sc_mcu7t5v0__oai211_1
*I *2852:B I *D gf180mcu_fd_sc_mcu7t5v0__aoi21_1
*I *2831:A1 I *D gf180mcu_fd_sc_mcu7t5v0__oai211_1
*I *2863:A1 I *D gf180mcu_fd_sc_mcu7t5v0__oai211_1
*I *2868:B I *D gf180mcu_fd_sc_mcu7t5v0__aoi21_1
*I *2839:A1 I *D gf180mcu_fd_sc_mcu7t5v0__oai211_1
*I *2823:A1 I *D gf180mcu_fd_sc_mcu7t5v0__oai211_1
*I *3204:Z O *D gf180mcu_fd_sc_mcu7t5v0__dlyb_1
*CAP
1 *2804:A1 0.000593199
2 *2887:A1 9.90497e-05
3 *2324:A1 0
4 *2880:B 0.000201629
5 *2847:A1 0.000133645
6 *2852:B 0.000130302
7 *2831:A1 0.000192956
8 *2863:A1 0
9 *2868:B 0.000135989
10 *2839:A1 3.88426e-05
11 *2823:A1 0.000180119
12 *3204:Z 0
13 *759:153 0.000753294
14 *759:78 0.000437645
15 *759:72 0.000620059
16 *759:68 0.000451423
17 *759:44 0.000286923
18 *759:42 0.000694553
19 *759:40 0.00090555
20 *759:36 0.00167921
21 *759:26 0.00154844
22 *759:4 0.000472885
23 *2804:A1 *760:14 0.000294431
24 *2804:A1 *924:10 0.000165932
25 *2852:B *2837:A1 7.46011e-05
26 *2880:B *3140:I 0.00023711
27 *2887:A1 *924:10 8.429e-05
28 *2887:A1 *924:16 1.18477e-05
29 *759:26 *2872:A1 0.000308353
30 *759:26 *2874:A1 0.000294424
31 *759:26 *2885:A1 4.83522e-05
32 *759:26 *3224:I 0.000337794
33 *759:36 *2298:I 7.083e-05
34 *759:36 *2864:A1 0.000286386
35 *759:36 *3221:I 5.78854e-06
36 *759:36 *3222:I 3.77882e-05
37 *759:36 *784:158 0.000496512
38 *759:72 *2837:A1 0.0001078
39 ACK_O *2804:A1 0
40 ERR_O *2804:A1 3.79e-05
41 *2320:A1 *759:26 0.000345038
42 *2321:A2 *759:36 6.23828e-05
43 *2343:A1 *2831:A1 0.000301325
44 *2350:B *2847:A1 0.000168938
45 *2350:B *759:40 0.00114636
46 *2368:I1 *2831:A1 1.03992e-05
47 *2803:A3 *2804:A1 0.00118092
48 *2804:A2 *2804:A1 2.20289e-05
49 *2806:A1 *759:36 1.04665e-05
50 *2823:C *2868:B 3.38355e-05
51 *2823:C *759:78 2.24475e-05
52 *2831:C *2831:A1 1.56779e-05
53 *2837:B2 *2823:A1 0.000425761
54 *2838:A2 *759:68 0.000188729
55 *2838:B1 *2823:A1 0
56 *2838:B1 *2839:A1 0.000487345
57 *2839:A2 *2823:A1 0.000466036
58 *2839:B *2839:A1 0.000487345
59 *2840:B2 *759:42 1.56256e-05
60 *2841:A1 *759:40 9.85004e-05
61 *2841:A2 *759:40 1.84368e-05
62 *2846:A1 *759:40 0.000365454
63 *2847:A2 *2823:A1 1.45293e-05
64 *2847:A2 *759:42 0.000351852
65 *2847:A2 *759:44 8.50456e-05
66 *2847:B *2847:A1 0.000109323
67 *2847:B *759:42 0.000234092
68 *2853:A1 *2831:A1 2.54656e-05
69 *2853:A1 *2852:B 2.63343e-05
70 *2853:A1 *759:78 5.35249e-05
71 *2862:A1 *2868:B 0.000156399
72 *2863:B *2868:B 0.000270484
73 *2864:A2 *759:36 0.000106536
74 *2864:A2 *759:40 0.000107581
75 *2864:B2 *759:40 0.000123789
76 *2881:A1 *759:40 7.52566e-05
77 *2881:A2 *2880:B 3.97987e-05
78 *2881:B *759:36 0.00108669
79 *2882:A2 *759:36 0.000281927
80 *2882:B *759:36 1.26191e-05
81 *2886:A1 *759:26 0.000941121
82 *2886:A2 *759:26 9.84908e-05
83 *2886:A2 *759:153 0.000427626
84 *2887:B *2804:A1 5.54143e-05
85 *2887:B *2887:A1 0.000164219
86 *3036:D *759:26 0.000792132
87 *3052:D *2880:B 0.000131671
88 *3055:D *759:36 0
89 *3055:CLK *759:36 0.000496785
90 *3056:D *2804:A1 2.5344e-05
91 *3056:D *2887:A1 2.34819e-05
92 *3056:D *759:26 0
93 *3056:CLK *759:26 9.04462e-05
94 *3056:CLK *759:153 0.000397478
95 *3077:CLK *2847:A1 1.52092e-05
96 *3077:CLK *759:42 6.89225e-06
97 *3171:I *2823:A1 0
98 *3211:I *2804:A1 0.000119192
99 *249:27 *759:26 0.00149678
100 *249:27 *759:36 1.73761e-05
101 *250:18 *2823:A1 0.000583199
102 *250:18 *759:42 0.000533419
103 *250:18 *759:44 0.000333274
104 *253:16 *759:36 0.00128046
105 *253:22 *759:68 0.000425198
106 *253:22 *759:72 2.36813e-05
107 *253:24 *759:72 0.000204502
108 *265:37 *2831:A1 1.66988e-05
109 *265:47 *759:78 0.000223399
110 *266:14 *2831:A1 0.000410086
111 *266:27 *2831:A1 0.000178139
112 *266:27 *759:78 0.000387788
113 *267:17 *2868:B 0.000356352
114 *283:27 *759:42 6.35588e-05
115 *283:33 *2852:B 2.57662e-05
116 *283:33 *759:68 1.23558e-05
117 *283:64 *2868:B 4.83522e-05
118 *588:18 *759:26 0.00135638
119 *590:35 *759:36 0.000118548
120 *590:41 *759:36 3.85185e-05
121 *590:41 *759:40 0.000499457
122 *630:24 *2852:B 0.000568125
123 *630:24 *759:68 0.00136503
124 *630:24 *759:72 9.04462e-05
125 *631:16 *2868:B 0.000369079
126 *631:16 *759:78 0.000324589
127 *689:12 *759:40 0
128 *705:8 *759:36 3.60275e-05
129 *705:76 *759:36 3.53507e-05
130 *706:10 *759:36 3.96404e-05
131 *706:111 *759:153 6.02974e-05
132 *750:60 *2868:B 0.000138403
133 *756:313 *2880:B 9.04462e-05
134 *756:313 *759:40 0.000757642
*RES
1 *3204:Z *759:4 4.5 
2 *759:4 *759:26 27.81 
3 *759:26 *759:36 21.51 
4 *759:36 *759:40 10.53 
5 *759:40 *759:42 4.59 
6 *759:42 *759:44 0.99 
7 *759:44 *2823:A1 11.7 
8 *759:44 *2839:A1 10.35 
9 *759:42 *759:68 8.37 
10 *759:68 *759:72 6.03 
11 *759:72 *759:78 7.92 
12 *759:78 *2868:B 16.29 
13 *759:78 *2863:A1 4.5 
14 *759:72 *2831:A1 11.52 
15 *759:68 *2852:B 15.21 
16 *759:40 *2847:A1 10.26 
17 *759:36 *2880:B 15.3 
18 *759:26 *2324:A1 4.5 
19 *759:4 *759:153 5.85 
20 *759:153 *2887:A1 9.99 
21 *759:153 *2804:A1 14.94 
*END

*D_NET *760 0.0136259
*CONN
*I *2323:A1 I *D gf180mcu_fd_sc_mcu7t5v0__nor3_1
*I *2888:A1 I *D gf180mcu_fd_sc_mcu7t5v0__aoi22_1
*I *3215:I I *D gf180mcu_fd_sc_mcu7t5v0__dlyb_1
*I *2803:A1 I *D gf180mcu_fd_sc_mcu7t5v0__nor3_1
*I *3057:Q O *D gf180mcu_fd_sc_mcu7t5v0__dffq_1
*CAP
1 *2323:A1 3.20451e-05
2 *2888:A1 0.000669602
3 *3215:I 8.84824e-05
4 *2803:A1 0
5 *3057:Q 0.000293183
6 *760:25 0.000877135
7 *760:23 0.00032569
8 *760:14 0.000467777
9 *2323:A1 *2320:A2 2.16372e-05
10 *2323:A1 *2323:A2 0.000268422
11 *760:14 *2320:A2 0
12 *760:23 *2323:A2 4.50934e-05
13 *760:25 *2320:A2 0.000183993
14 *760:25 *2322:A3 6.0354e-06
15 *760:25 *2323:A2 0.000166798
16 ACK_O *2888:A1 0.00112127
17 *2320:A1 *760:14 0.000382884
18 *2323:A3 *760:23 0.000682935
19 *2804:A1 *760:14 0.000294431
20 *2886:A1 *2888:A1 0.00114672
21 *2886:A2 *2888:A1 9.17162e-06
22 *3035:D *2888:A1 5.43045e-06
23 *3035:D *3215:I 0.000611791
24 *3035:D *760:25 0.0001981
25 *3036:CLK *2888:A1 9.7293e-05
26 *3056:CLK *2888:A1 0.000912611
27 *3201:I *2323:A1 0.000455766
28 *3201:I *3215:I 0.000604092
29 *3201:I *760:25 0.00145813
30 *3211:I *760:14 0.00013556
31 *249:10 *760:14 0.000881653
32 *252:16 *2888:A1 0.000160103
33 *252:16 *760:23 0.00032821
34 *252:30 *2888:A1 1.61174e-05
35 *588:18 *760:14 6.0283e-05
36 *706:102 *2888:A1 9.31829e-05
37 *706:111 *2888:A1 0.000524243
*RES
1 *3057:Q *760:14 17.55 
2 *760:14 *2803:A1 4.5 
3 *760:14 *760:23 6.93 
4 *760:23 *760:25 3.69 
5 *760:25 *3215:I 10.98 
6 *760:25 *2888:A1 18.09 
7 *760:23 *2323:A1 10.17 
*END

*D_NET *761 0.00201725
*CONN
*I *3216:I I *D gf180mcu_fd_sc_mcu7t5v0__dlyb_1
*I *3155:I I *D gf180mcu_fd_sc_mcu7t5v0__dlyc_1
*I *3048:Q O *D gf180mcu_fd_sc_mcu7t5v0__dffq_1
*CAP
1 *3216:I 0.00035093
2 *3155:I 0.000606032
3 *3048:Q 0.000255102
4 *3155:I *3157:I 0.00022444
5 *3155:I *3217:I 1.77247e-05
6 *3216:I *3217:I 0.000185781
7 DAT_O[0] *3155:I 9.76593e-05
8 DAT_O[0] *3216:I 8.96665e-05
9 DAT_O[1] *3155:I 2.99406e-05
10 *3200:I *3216:I 0.00015997
*RES
1 *3048:Q *3155:I 11.52 
2 *3155:I *3216:I 12.6 
*END

*D_NET *762 0.00260824
*CONN
*I *3217:I I *D gf180mcu_fd_sc_mcu7t5v0__dlyb_1
*I *3157:I I *D gf180mcu_fd_sc_mcu7t5v0__dlyc_1
*I *3049:Q O *D gf180mcu_fd_sc_mcu7t5v0__dffq_1
*CAP
1 *3217:I 0.000453151
2 *3157:I 0.000725843
3 *3049:Q 0.000272692
4 DAT_O[1] *3157:I 0.000728608
5 *3155:I *3157:I 0.00022444
6 *3155:I *3217:I 1.77247e-05
7 *3216:I *3217:I 0.000185781
8 *3233:I *3217:I 0
9 *3234:I *3217:I 0
*RES
1 *3049:Q *3157:I 12.24 
2 *3157:I *3217:I 21.6 
*END

*D_NET *763 0.00153873
*CONN
*I *3218:I I *D gf180mcu_fd_sc_mcu7t5v0__dlyb_1
*I *3153:I I *D gf180mcu_fd_sc_mcu7t5v0__dlyc_1
*I *3050:Q O *D gf180mcu_fd_sc_mcu7t5v0__dffq_1
*CAP
1 *3218:I 0.000373791
2 *3153:I 0.000488739
3 *3050:Q 0.000114947
4 DAT_O[2] *3153:I 0.000444513
5 DAT_O[2] *3218:I 9.2838e-05
6 DAT_O[3] *3218:I 2.38983e-05
*RES
1 *3050:Q *3153:I 10.35 
2 *3153:I *3218:I 12.15 
*END

*D_NET *764 0.00331691
*CONN
*I *3151:I I *D gf180mcu_fd_sc_mcu7t5v0__dlyc_1
*I *3219:I I *D gf180mcu_fd_sc_mcu7t5v0__dlyb_1
*I *3051:Q O *D gf180mcu_fd_sc_mcu7t5v0__dffq_1
*CAP
1 *3151:I 0.000651857
2 *3219:I 0.000169879
3 *3051:Q 0.00030692
4 *764:12 0.00112866
5 *3151:I *3154:I 0.000721371
6 *3151:I *3220:I 0
7 *764:12 *3220:I 0
8 DAT_O[3] *764:12 9.07783e-05
9 DAT_O[4] *3151:I 0.000174158
10 DAT_O[4] *764:12 4.0361e-05
11 DAT_O[5] *3219:I 0
12 DAT_O[7] *3151:I 3.29285e-05
*RES
1 *3051:Q *764:12 15.66 
2 *764:12 *3219:I 14.85 
3 *764:12 *3151:I 10.53 
*END

*D_NET *765 0.00234595
*CONN
*I *3152:I I *D gf180mcu_fd_sc_mcu7t5v0__dlyc_1
*I *3220:I I *D gf180mcu_fd_sc_mcu7t5v0__dlyb_1
*I *3052:Q O *D gf180mcu_fd_sc_mcu7t5v0__dffq_1
*CAP
1 *3152:I 0.000380709
2 *3220:I 0.00102632
3 *3052:Q 0.000645612
4 *3152:I *3150:I 0.000131961
5 *3152:I *3154:I 6.14858e-05
6 *3220:I *3154:I 0
7 DAT_O[5] *3220:I 0
8 *2865:A1 *3220:I 4.86138e-05
9 *2865:A2 *3220:I 1.17934e-05
10 *3053:D *3220:I 3.94564e-05
11 *3054:D *3152:I 0
12 *3151:I *3220:I 0
13 *764:12 *3220:I 0
*RES
1 *3052:Q *3220:I 22.32 
2 *3220:I *3152:I 11.97 
*END

*D_NET *766 0.00815418
*CONN
*I *3154:I I *D gf180mcu_fd_sc_mcu7t5v0__dlyc_1
*I *3221:I I *D gf180mcu_fd_sc_mcu7t5v0__dlyb_1
*I *3053:Q O *D gf180mcu_fd_sc_mcu7t5v0__dffq_1
*CAP
1 *3154:I 0.000419244
2 *3221:I 0.000865688
3 *3053:Q 0.000145562
4 *766:10 0.00143049
5 *3154:I *3150:I 0.00146755
6 *3221:I *2864:A1 0.00011462
7 DAT_O[4] *766:10 9.04462e-05
8 DAT_O[5] *3221:I 0.00211
9 DAT_O[5] *766:10 0.000409038
10 DAT_O[7] *3154:I 4.18632e-05
11 *2805:A1 *3221:I 0
12 *2857:A2 *3221:I 0.000115095
13 *3055:CLK *3221:I 4.45837e-05
14 *3151:I *3154:I 0.000721371
15 *3152:I *3154:I 6.14858e-05
16 *3220:I *3154:I 0
17 *705:76 *3221:I 0.000111349
18 *759:36 *3221:I 5.78854e-06
*RES
1 *3053:Q *766:10 10.44 
2 *766:10 *3221:I 17.1 
3 *766:10 *3154:I 15.21 
*END

*D_NET *767 0.00795854
*CONN
*I *3150:I I *D gf180mcu_fd_sc_mcu7t5v0__dlyc_1
*I *3222:I I *D gf180mcu_fd_sc_mcu7t5v0__dlyb_1
*I *3054:Q O *D gf180mcu_fd_sc_mcu7t5v0__dffq_1
*CAP
1 *3150:I 0.000369643
2 *3222:I 0.000738689
3 *3054:Q 0.000124388
4 *767:8 0.00123272
5 *3150:I *3223:I 0.000657584
6 *3150:I *768:14 0.00117584
7 *3222:I *768:14 0
8 DAT_O[6] *3222:I 0.000894414
9 DAT_O[6] *767:8 0.000218664
10 DAT_O[7] *3150:I 0
11 DAT_O[7] *767:8 0
12 *2805:A1 *3222:I 0.000125038
13 *2882:A1 *3222:I 0.000489771
14 *3054:D *3222:I 0.000272271
15 *3055:D *3222:I 2.221e-05
16 *3152:I *3150:I 0.000131961
17 *3154:I *3150:I 0.00146755
18 *759:36 *3222:I 3.77882e-05
*RES
1 *3054:Q *767:8 10.35 
2 *767:8 *3222:I 16.74 
3 *767:8 *3150:I 15.66 
*END

*D_NET *768 0.00616229
*CONN
*I *3223:I I *D gf180mcu_fd_sc_mcu7t5v0__dlyb_1
*I *3138:I I *D gf180mcu_fd_sc_mcu7t5v0__dlyc_1
*I *3055:Q O *D gf180mcu_fd_sc_mcu7t5v0__dffq_1
*CAP
1 *3223:I 0.000668446
2 *3138:I 0
3 *3055:Q 0.00107368
4 *768:14 0.00174213
5 *3223:I *770:30 1.0415e-05
6 *768:14 *2848:A1 0.000157987
7 DAT_O[7] *3223:I 0
8 *2865:A1 *768:14 3.77882e-05
9 *2872:B2 *768:14 0.000111235
10 *3054:D *768:14 2.18073e-05
11 *3054:CLK *768:14 0.00024528
12 *3150:I *3223:I 0.000657584
13 *3150:I *768:14 0.00117584
14 *3204:I *3223:I 0
15 *3204:I *768:14 0
16 *3222:I *768:14 0
17 *249:10 *3223:I 6.63348e-05
18 *252:16 *3223:I 0.000193761
*RES
1 *3055:Q *768:14 22.95 
2 *768:14 *3138:I 4.5 
3 *768:14 *3223:I 9.9 
*END

*D_NET *769 0.00489435
*CONN
*I *2811:A2 I *D gf180mcu_fd_sc_mcu7t5v0__or3_1
*I *2312:I I *D gf180mcu_fd_sc_mcu7t5v0__clkinv_1
*I *2808:A2 I *D gf180mcu_fd_sc_mcu7t5v0__nand2_1
*I *3205:Z O *D gf180mcu_fd_sc_mcu7t5v0__dlyb_1
*CAP
1 *2811:A2 0
2 *2312:I 0.000386076
3 *2808:A2 0.000425467
4 *3205:Z 0.000282826
5 *769:14 0.000811543
6 *769:12 0.000282826
7 *2312:I *2313:I 3.85331e-05
8 *769:12 *780:6 4.434e-05
9 *769:12 *780:13 9.84908e-05
10 *2317:A1 *2312:I 2.84365e-05
11 *2317:A1 *769:12 3.07722e-05
12 *2318:A3 *2808:A2 0
13 *2656:B *2808:A2 0.000273036
14 *2660:A1 *2808:A2 0
15 *2660:A1 *769:12 0.000166496
16 *2660:B *769:12 9.89629e-06
17 *2661:A1 *2808:A2 4.34467e-06
18 *2811:A3 *2808:A2 0
19 *730:39 *2808:A2 0.000515872
20 *732:12 *2312:I 0.00090947
21 *732:12 *2808:A2 6.6365e-05
22 *732:20 *2808:A2 0.000519563
*RES
1 *3205:Z *769:12 7.2 
2 *769:12 *769:14 4.5 
3 *769:14 *2808:A2 13.14 
4 *769:14 *2312:I 12.24 
5 *769:12 *2811:A2 4.5 
*END

*D_NET *770 0.00990554
*CONN
*I *2323:A2 I *D gf180mcu_fd_sc_mcu7t5v0__nor3_1
*I *2803:A2 I *D gf180mcu_fd_sc_mcu7t5v0__nor3_1
*I *3224:I I *D gf180mcu_fd_sc_mcu7t5v0__dlyb_1
*I *3162:I I *D gf180mcu_fd_sc_mcu7t5v0__dlyc_1
*I *3056:Q O *D gf180mcu_fd_sc_mcu7t5v0__dffq_1
*CAP
1 *2323:A2 0.000310062
2 *2803:A2 0
3 *3224:I 0.000942465
4 *3162:I 5.01681e-05
5 *3056:Q 0
6 *770:30 0.000502797
7 *770:17 0.00145915
8 *770:4 0.000374116
9 *2323:A2 *2320:A2 2.35077e-05
10 *3224:I *2503:A1 1.65425e-05
11 *3224:I *2677:A4 3.87877e-05
12 DAT_O[7] *3162:I 0.00021029
13 DAT_O[7] *770:17 0.000200298
14 ERR_O *770:17 5.95338e-05
15 *2320:A1 *2323:A2 8.81508e-05
16 *2320:A1 *3224:I 0.000703535
17 *2320:A1 *770:30 0.000132232
18 *2323:A1 *2323:A2 0.000268422
19 *2323:A3 *2323:A2 0.000945714
20 *2323:A3 *3224:I 2.95194e-05
21 *2323:A3 *770:17 2.04721e-05
22 *2323:A3 *770:30 0.00113108
23 *2803:A3 *770:30 0.00081331
24 *2888:B2 *3224:I 3.11264e-05
25 *2889:A2 *2323:A2 0
26 *2889:A2 *770:30 0
27 *3223:I *770:30 1.0415e-05
28 *249:10 *3162:I 0.0005023
29 *249:10 *770:17 0.000459031
30 *252:16 *3224:I 0
31 *252:16 *770:30 3.28313e-05
32 *759:26 *3224:I 0.000337794
33 *760:23 *2323:A2 4.50934e-05
34 *760:25 *2323:A2 0.000166798
*RES
1 *3056:Q *770:4 4.5 
2 *770:4 *3162:I 5.85 
3 *770:4 *770:17 7.38 
4 *770:17 *3224:I 15.75 
5 *770:17 *770:30 8.19 
6 *770:30 *2803:A2 4.5 
7 *770:30 *2323:A2 17.28 
*END

*D_NET *771 0.00120603
*CONN
*I *3225:I I *D gf180mcu_fd_sc_mcu7t5v0__dlyb_1
*I *3089:Z O *D gf180mcu_fd_sc_mcu7t5v0__buf_1
*CAP
1 *3225:I 0.000307554
2 *3089:Z 0.000307554
3 *3225:I *3226:I 0
4 *2983:D *3225:I 1.50737e-05
5 *2983:CLK *3225:I 0.000575844
6 *373:114 *3225:I 0
7 *373:123 *3225:I 0
*RES
1 *3089:Z *3225:I 11.61 
*END

*D_NET *772 0.004023
*CONN
*I *3226:I I *D gf180mcu_fd_sc_mcu7t5v0__dlyb_1
*I *3090:Z O *D gf180mcu_fd_sc_mcu7t5v0__buf_1
*CAP
1 *3226:I 0.00078522
2 *3090:Z 0.00078522
3 *3226:I *2541:A1 8.05869e-05
4 bypass_pin_control[0] *3226:I 3.58953e-05
5 *2539:A2 *3226:I 0.000467284
6 *2539:A3 *3226:I 0.000256817
7 *2541:B *3226:I 0.000405702
8 *2542:I *3226:I 0.000112339
9 *2981:D *3226:I 0.000381453
10 *2982:CLK *3226:I 0.000412815
11 *3091:I *3226:I 0.000262125
12 *3225:I *3226:I 0
13 *711:24 *3226:I 0
14 *711:33 *3226:I 3.75437e-05
*RES
1 *3090:Z *3226:I 18.72 
*END

*D_NET *773 0.000290937
*CONN
*I *3227:I I *D gf180mcu_fd_sc_mcu7t5v0__dlyb_1
*I *3091:Z O *D gf180mcu_fd_sc_mcu7t5v0__buf_1
*CAP
1 *3227:I 0.000145468
2 *3091:Z 0.000145468
*RES
1 *3091:Z *3227:I 9.81 
*END

*D_NET *774 0.014962
*CONN
*I *3228:I I *D gf180mcu_fd_sc_mcu7t5v0__dlyb_1
*I *3092:Z O *D gf180mcu_fd_sc_mcu7t5v0__buf_1
*CAP
1 *3228:I 0
2 *3092:Z 0.00234101
3 *774:14 0.00234101
4 *774:14 *2447:A1 3.65607e-05
5 *774:14 *2456:A1 0.000243043
6 *774:14 *2514:A2 0.000159362
7 *774:14 *2520:A4 0.00035696
8 *774:14 *2530:A3 0.000204537
9 *774:14 *3175:I 0
10 *774:14 *3184:I 0
11 *2383:B2 *774:14 0.00144879
12 *2394:A1 *774:14 0.000409673
13 *2449:A1 *774:14 0.00032797
14 *2455:A2 *774:14 0.000290516
15 *2521:A1 *774:14 0
16 *2530:A4 *774:14 0
17 *2533:I *774:14 0
18 *2573:A2 *774:14 0
19 *2573:A3 *774:14 0.000146222
20 *2574:A2 *774:14 0.000147039
21 *2576:A2 *774:14 0.000627181
22 *2579:A2 *774:14 0
23 *2925:CLK *774:14 0.000232503
24 *2991:D *774:14 0.000169515
25 *2992:D *774:14 0.000725771
26 *225:8 *774:14 2.70125e-05
27 *225:10 *774:14 8.66027e-05
28 *225:14 *774:14 3.60134e-05
29 *296:50 *774:14 7.00854e-05
30 *296:62 *774:14 0.00248927
31 *296:70 *774:14 0.000538918
32 *373:50 *774:14 8.05869e-05
33 *375:12 *774:14 0.000224708
34 *378:8 *774:14 0
35 *378:10 *774:14 0
36 *385:24 *774:14 0.000426799
37 *694:41 *774:14 0.000323615
38 *708:100 *774:14 0.000131057
39 *726:16 *774:14 0.000319716
*RES
1 *3092:Z *774:14 45.63 
2 *774:14 *3228:I 4.5 
*END

*D_NET *775 0.0148609
*CONN
*I *3229:I I *D gf180mcu_fd_sc_mcu7t5v0__dlyb_1
*I *3093:Z O *D gf180mcu_fd_sc_mcu7t5v0__buf_1
*CAP
1 *3229:I 0.00233524
2 *3093:Z 0.00233524
3 *3229:I *2399:A1 0
4 *3229:I *2559:A1 0.000302154
5 *3229:I *2566:A1 7.91158e-05
6 *3229:I *2842:B2 0
7 *3229:I *2851:A1 0.00174549
8 *3229:I *3188:I 0.000700576
9 *3229:I *781:47 0.000236231
10 *3229:I *781:53 0.00015862
11 *2431:A1 *3229:I 0.000111446
12 *2431:A2 *3229:I 0
13 *2440:A1 *3229:I 0.00129448
14 *2565:A2 *3229:I 0
15 *2567:A1 *3229:I 6.13169e-05
16 *2567:A3 *3229:I 4.94896e-05
17 *2772:B *3229:I 0
18 *2987:D *3229:I 0.000257969
19 *2989:D *3229:I 3.0341e-05
20 *3039:CLK *3229:I 0.000563776
21 *3093:I *3229:I 3.22122e-05
22 *244:233 *3229:I 0
23 *244:237 *3229:I 0.00158486
24 *244:239 *3229:I 0.000512144
25 *244:241 *3229:I 0.000553459
26 *244:243 *3229:I 0.000288831
27 *244:245 *3229:I 0.000755472
28 *244:251 *3229:I 0.000623176
29 *373:69 *3229:I 9.23938e-05
30 *410:10 *3229:I 4.90355e-05
31 *486:20 *3229:I 7.71821e-06
32 *709:137 *3229:I 0.000100123
33 *726:16 *3229:I 0
*RES
1 *3093:Z *3229:I 48.33 
*END

*D_NET *776 0.000270318
*CONN
*I *3230:I I *D gf180mcu_fd_sc_mcu7t5v0__dlyb_1
*I *3094:Z O *D gf180mcu_fd_sc_mcu7t5v0__buf_1
*CAP
1 *3230:I 0.000135159
2 *3094:Z 0.000135159
3 *373:82 *3230:I 0
*RES
1 *3094:Z *3230:I 9.81 
*END

*D_NET *777 0.00119047
*CONN
*I *3231:I I *D gf180mcu_fd_sc_mcu7t5v0__dlyb_1
*I *3040:Q O *D gf180mcu_fd_sc_mcu7t5v0__dffq_1
*CAP
1 *3231:I 0.000572101
2 *3040:Q 0.000572101
3 trigger_signal_out *3231:I 4.62661e-05
*RES
1 *3040:Q *3231:I 12.96 
*END

*D_NET *778 0.0735961
*CONN
*I *2486:A2 I *D gf180mcu_fd_sc_mcu7t5v0__aoi211_1
*I *2506:A2 I *D gf180mcu_fd_sc_mcu7t5v0__aoi211_1
*I *2507:A2 I *D gf180mcu_fd_sc_mcu7t5v0__nor2_1
*I *2505:A2 I *D gf180mcu_fd_sc_mcu7t5v0__nor2_1
*I *2509:A2 I *D gf180mcu_fd_sc_mcu7t5v0__nor2_1
*I *2510:A2 I *D gf180mcu_fd_sc_mcu7t5v0__aoi211_1
*I *2504:A2 I *D gf180mcu_fd_sc_mcu7t5v0__aoi211_1
*I *2508:A2 I *D gf180mcu_fd_sc_mcu7t5v0__aoi211_1
*I *2503:A2 I *D gf180mcu_fd_sc_mcu7t5v0__nor2_1
*I *2488:A2 I *D gf180mcu_fd_sc_mcu7t5v0__aoi211_1
*I *2493:A2 I *D gf180mcu_fd_sc_mcu7t5v0__nor2_1
*I *2494:A2 I *D gf180mcu_fd_sc_mcu7t5v0__aoi211_1
*I *2487:A2 I *D gf180mcu_fd_sc_mcu7t5v0__nor2_1
*I *2485:A2 I *D gf180mcu_fd_sc_mcu7t5v0__nor2_1
*I *2473:A2 I *D gf180mcu_fd_sc_mcu7t5v0__nor2_1
*I *2474:A2 I *D gf180mcu_fd_sc_mcu7t5v0__aoi211_1
*I *2499:A2 I *D gf180mcu_fd_sc_mcu7t5v0__nor2_1
*I *2481:A2 I *D gf180mcu_fd_sc_mcu7t5v0__nor2_1
*I *2482:A2 I *D gf180mcu_fd_sc_mcu7t5v0__aoi211_1
*I *2465:A2 I *D gf180mcu_fd_sc_mcu7t5v0__nor2_1
*I *2462:A2 I *D gf180mcu_fd_sc_mcu7t5v0__nor2_1
*I *2459:A2 I *D gf180mcu_fd_sc_mcu7t5v0__nor2_1
*I *2468:A2 I *D gf180mcu_fd_sc_mcu7t5v0__nor2_1
*I *2414:A2 I *D gf180mcu_fd_sc_mcu7t5v0__nor2_1
*I *2411:A2 I *D gf180mcu_fd_sc_mcu7t5v0__nor2_1
*I *2417:A2 I *D gf180mcu_fd_sc_mcu7t5v0__nor2_1
*I *2420:A2 I *D gf180mcu_fd_sc_mcu7t5v0__nor2_1
*I *2426:A2 I *D gf180mcu_fd_sc_mcu7t5v0__nor2_1
*I *2423:A2 I *D gf180mcu_fd_sc_mcu7t5v0__nor2_1
*I *2441:A2 I *D gf180mcu_fd_sc_mcu7t5v0__nor2_1
*I *2429:A2 I *D gf180mcu_fd_sc_mcu7t5v0__nor2_1
*I *2444:A2 I *D gf180mcu_fd_sc_mcu7t5v0__nor2_1
*I *2438:A2 I *D gf180mcu_fd_sc_mcu7t5v0__nor2_1
*I *2432:A2 I *D gf180mcu_fd_sc_mcu7t5v0__nor2_1
*I *2435:A2 I *D gf180mcu_fd_sc_mcu7t5v0__nor2_1
*I *2500:A2 I *D gf180mcu_fd_sc_mcu7t5v0__aoi211_1
*I *2497:A2 I *D gf180mcu_fd_sc_mcu7t5v0__nor2_1
*I *2498:A2 I *D gf180mcu_fd_sc_mcu7t5v0__aoi211_1
*I *3212:Z O *D gf180mcu_fd_sc_mcu7t5v0__buf_8
*CAP
1 *2486:A2 0
2 *2506:A2 0.00038904
3 *2507:A2 0
4 *2505:A2 0
5 *2509:A2 3.44897e-05
6 *2510:A2 0.000347938
7 *2504:A2 2.12935e-05
8 *2508:A2 0
9 *2503:A2 0
10 *2488:A2 8.23278e-05
11 *2493:A2 0
12 *2494:A2 0.000323868
13 *2487:A2 6.23293e-05
14 *2485:A2 0
15 *2473:A2 0.000291698
16 *2474:A2 0
17 *2499:A2 0
18 *2481:A2 0
19 *2482:A2 0.000301616
20 *2465:A2 0
21 *2462:A2 0
22 *2459:A2 0
23 *2468:A2 0
24 *2414:A2 0.000372335
25 *2411:A2 0
26 *2417:A2 0
27 *2420:A2 1.9484e-05
28 *2426:A2 0
29 *2423:A2 3.44897e-05
30 *2441:A2 0.000154798
31 *2429:A2 0
32 *2444:A2 0.000193147
33 *2438:A2 0.00010428
34 *2432:A2 8.97837e-05
35 *2435:A2 5.54538e-05
36 *2500:A2 0
37 *2497:A2 0
38 *2498:A2 0
39 *3212:Z 0.000871886
40 *778:429 0.000608492
41 *778:420 0.00064097
42 *778:392 0.000891421
43 *778:377 0.000679974
44 *778:371 0.000601369
45 *778:364 0.000191074
46 *778:353 0.000654508
47 *778:340 0.000607448
48 *778:316 0.000969644
49 *778:312 0.000892449
50 *778:301 0.000996501
51 *778:288 0.000740349
52 *778:268 0.0010967
53 *778:264 0.00101445
54 *778:253 0.000612484
55 *778:133 0.000403659
56 *778:129 0.00013572
57 *778:127 0.00047545
58 *778:110 0.000481193
59 *778:99 0.000551062
60 *778:91 0.000527355
61 *778:89 0.000208753
62 *778:87 0.000417141
63 *778:79 0.000535803
64 *778:77 0.000377336
65 *778:73 0.00150649
66 *778:71 0.00115842
67 *778:65 0.000567202
68 *778:59 0.000573015
69 *778:55 0.000893201
70 *778:53 0.00138792
71 *778:49 0.000431871
72 *778:47 0.00064008
73 *778:38 0.000693521
74 *778:23 0.000623163
75 *778:16 0.000393626
76 *778:10 0.00120091
77 *2432:A2 *868:47 7.77106e-05
78 *2435:A2 *3160:I 8.69474e-05
79 *2438:A2 *2429:A1 0.000276888
80 *2444:A2 *2438:A1 3.26829e-05
81 *2473:A2 *784:69 1.17652e-05
82 *2482:A2 *951:12 6.40324e-06
83 *2487:A2 *2487:A1 3.33106e-05
84 *2506:A2 *2299:I 7.11037e-06
85 *2510:A2 *2765:A1 1.27836e-05
86 *778:10 *2306:I 3.13041e-05
87 *778:10 *2842:B2 0
88 *778:10 *2878:B2 0.000183597
89 *778:10 *3142:I 5.28273e-05
90 *778:10 *779:10 0.000385026
91 *778:10 *942:8 0.00132276
92 *778:16 *2834:A2 9.84908e-05
93 *778:16 *2878:B2 0.000491637
94 *778:23 *2834:A2 0.000526924
95 *778:38 *2302:I 9.85004e-05
96 *778:38 *2307:I 9.3226e-06
97 *778:38 *2477:A1 0.000425752
98 *778:38 *2827:A1 0.0001353
99 *778:38 *2834:A2 0.00047198
100 *778:38 *779:148 8.96667e-05
101 *778:53 *951:12 0
102 *778:55 *2466:A1 0
103 *778:55 *2818:A1 0.000308875
104 *778:55 *951:12 4.8913e-05
105 *778:59 *2465:A1 0.000101163
106 *778:65 *2462:A1 2.70694e-05
107 *778:65 *2465:A1 9.49804e-05
108 *778:65 *2468:A1 9.84908e-05
109 *778:65 *2669:B 0
110 *778:65 *928:21 1.18477e-05
111 *778:71 *2468:A1 0.000398131
112 *778:73 *3167:I 0.000487336
113 *778:79 *2411:A1 6.34901e-05
114 *778:79 *2414:A1 1.03035e-05
115 *778:79 *2417:A1 8.2957e-05
116 *778:87 *2417:A1 3.07932e-05
117 *778:91 *2423:A1 0.0001353
118 *778:99 *2423:A1 0.000177559
119 *778:99 *3160:I 0.000104278
120 *778:127 *2565:A1 0.000545263
121 *778:127 *2566:A1 6.99566e-06
122 *778:133 *2429:A1 0.000320271
123 *778:253 *2499:A1 7.191e-07
124 *778:253 *2834:A1 9.85004e-05
125 *778:264 *2834:A1 0.00113567
126 *778:264 *3134:I 0.0006195
127 *778:268 *2730:B 2.29944e-05
128 *778:268 *784:69 4.03603e-05
129 *778:288 *3134:I 0.000437294
130 *778:301 *2487:A1 0.000221911
131 *778:301 *2676:A1 0.000187771
132 *778:301 *3134:I 0.000210938
133 *778:301 *914:16 0.000176535
134 *778:301 *916:10 0.000273552
135 *778:301 *916:14 0.000716479
136 *778:312 *2858:A2 0
137 *778:312 *2858:C1 0
138 *778:316 *2493:A1 4.74921e-05
139 *778:316 *917:19 0.000162947
140 *778:353 *2858:A2 0.00036411
141 *778:353 *2858:C1 0.000105209
142 *778:353 *2867:A2 3.73774e-06
143 *778:353 *783:107 6.83803e-05
144 *778:364 *2305:I 0
145 *778:364 *2503:A1 0.000293445
146 *778:364 *2858:C1 4.10247e-05
147 *778:377 *2305:I 0.000154129
148 *778:377 *2503:A1 0
149 *778:377 *2867:C1 1.37747e-05
150 *778:377 *782:121 1.19491e-05
151 *778:392 *2305:I 1.44866e-05
152 *778:392 *2503:A1 0
153 *778:392 *2765:A1 1.39839e-05
154 *778:392 *926:16 6.02001e-05
155 *778:420 *2858:C2 0.000131345
156 *778:420 *2867:C1 1.03124e-05
157 *778:420 *940:12 0.000365445
158 *2321:A2 *778:392 0.000107798
159 *2322:A2 *778:353 2.04721e-05
160 *2322:A2 *778:364 2.50624e-05
161 *2387:A1 *778:10 6.88878e-05
162 *2387:A2 *778:10 2.14748e-05
163 *2408:A1 *778:73 0
164 *2413:A1 *778:79 4.33758e-05
165 *2422:A1 *2414:A2 2.9119e-05
166 *2422:A1 *2420:A2 4.83522e-05
167 *2422:A1 *778:79 0.000561378
168 *2422:A1 *778:87 0.000713225
169 *2428:A1 *778:91 5.69319e-05
170 *2428:A1 *778:99 0.000180054
171 *2431:A1 *778:127 0.000487336
172 *2431:A1 *778:129 1.61174e-05
173 *2434:A1 *2432:A2 2.55518e-05
174 *2434:A1 *778:110 3.85778e-05
175 *2437:A1 *778:99 0.000107811
176 *2440:A1 *778:133 3.3721e-05
177 *2446:A1 *778:133 0
178 *2461:A2 *778:65 0.000320262
179 *2467:A1 *778:55 0.00104909
180 *2467:A1 *778:59 0.000109323
181 *2470:A1 *778:73 0.000110619
182 *2472:A1 *778:49 0
183 *2472:A1 *778:53 0
184 *2472:A1 *778:55 0
185 *2472:A1 *778:253 0
186 *2472:A1 *778:301 0.00172815
187 *2472:A1 *778:312 6.28197e-05
188 *2474:A1 *2473:A2 1.32662e-05
189 *2474:A1 *778:268 1.61174e-05
190 *2474:C *778:268 0
191 *2478:A1 *2482:A2 0
192 *2478:B *778:16 1.39839e-05
193 *2478:B *778:23 6.15948e-05
194 *2478:B *778:38 0.000154454
195 *2480:A1 *2482:A2 0.000189245
196 *2480:A1 *778:38 3.12843e-06
197 *2480:A1 *778:47 0
198 *2482:B *778:38 2.38983e-05
199 *2482:B *778:47 4.78445e-05
200 *2483:A1 *778:264 7.47471e-05
201 *2483:A2 *778:264 2.14748e-05
202 *2488:A1 *2488:A2 2.00048e-05
203 *2488:A1 *778:353 2.47509e-05
204 *2488:C *2488:A2 1.37426e-05
205 *2488:C *778:316 0.00022428
206 *2488:C *778:340 0.000372735
207 *2488:C *778:353 1.39517e-06
208 *2494:B *2494:A2 0.000405984
209 *2494:B *778:316 1.07374e-05
210 *2498:B *778:23 0.000294431
211 *2500:A1 *778:38 0.000100224
212 *2500:B *778:253 0.0010809
213 *2504:A1 *2504:A2 3.97987e-05
214 *2504:A1 *778:377 0.000175528
215 *2504:A1 *778:420 0.000217954
216 *2504:B *778:371 1.478e-05
217 *2504:B *778:377 0.000228859
218 *2508:A1 *778:420 0.000947695
219 *2508:A1 *778:429 5.97457e-06
220 *2508:B *778:420 0.000189578
221 *2508:B *778:429 0.000215233
222 *2510:B *2510:A2 6.50202e-06
223 *2534:A1 *778:73 0.00102768
224 *2548:A4 *778:73 0
225 *2548:A4 *778:77 0
226 *2548:A4 *778:79 0
227 *2567:A1 *778:133 3.42509e-05
228 *2567:A2 *778:127 9.53647e-05
229 *2670:A2 *778:59 0
230 *2676:A3 *778:264 0.000384864
231 *2676:A3 *778:288 0.000144947
232 *2676:A3 *778:301 0.000168523
233 *2731:A2 *778:268 0
234 *2887:A2 *2504:A2 3.55118e-05
235 *2887:A2 *778:392 0.000375176
236 *2933:CLK *2414:A2 2.64095e-05
237 *2949:CLK *778:73 0
238 *2951:D *778:55 0.00023712
239 *2951:CLK *778:55 4.6108e-05
240 *2953:D *778:316 2.79586e-05
241 *2954:D *2473:A2 0.000267419
242 *2959:CLK *778:38 4.76218e-05
243 *2959:CLK *778:47 0.000133717
244 *2961:D *778:316 8.20436e-06
245 *2961:CLK *778:316 0.000468501
246 *2967:D *778:38 0.000122256
247 *2967:D *778:49 0
248 *2967:D *778:53 0
249 *2967:D *778:253 0
250 *2971:D *778:420 4.73993e-05
251 *3037:D *2510:A2 9.20698e-05
252 *3057:D *778:429 4.78286e-05
253 *3107:I *2510:A2 2.27885e-05
254 *3112:I *2414:A2 0
255 *3127:I *2414:A2 0.000413576
256 *3127:I *778:79 5.78287e-06
257 *3232:I *778:10 2.26729e-05
258 *227:35 *778:73 0.000286386
259 *251:30 *2510:A2 0
260 *290:14 *778:10 0.000233578
261 *295:10 *778:10 0.000552614
262 *295:76 *2487:A2 2.9119e-05
263 *295:76 *778:301 9.68272e-05
264 *372:86 *778:38 9.84908e-05
265 *385:24 *2435:A2 8.69474e-05
266 *385:24 *2441:A2 0.000763739
267 *385:24 *778:87 0.000241285
268 *385:24 *778:89 5.50498e-05
269 *385:24 *778:91 1.27919e-05
270 *385:24 *778:99 0.00055394
271 *385:24 *778:127 0.00231604
272 *385:26 *778:79 0
273 *496:24 *778:312 0.000823691
274 *496:24 *778:340 0.000416747
275 *499:20 *778:10 3.92172e-06
276 *502:18 *778:10 0
277 *503:106 *778:301 0
278 *503:117 *2473:A2 0.000774989
279 *630:24 *2494:A2 1.39839e-05
280 *645:22 *2494:A2 2.26729e-05
281 *645:22 *778:316 0.000358314
282 *706:20 *778:316 0.000274976
283 *706:20 *778:353 0
284 *706:61 *778:392 0.000164467
285 *706:65 *778:392 0.000528799
286 *710:14 *778:87 0
287 *710:18 *778:87 0
288 *710:18 *778:89 2.32821e-05
289 *710:18 *778:91 1.59267e-05
290 *711:8 *778:73 0.000269941
291 *711:127 *778:73 0
292 *756:12 *2506:A2 9.84908e-05
293 *756:42 *2506:A2 9.17264e-05
294 *756:42 *778:429 8.68281e-06
295 *756:44 *778:429 2.67007e-05
296 *756:104 *778:392 6.58085e-05
297 *756:104 *778:429 1.32661e-05
298 *756:108 *2504:A2 1.23607e-05
299 *756:108 *778:392 6.85392e-05
300 *756:112 *2510:A2 0
301 *756:112 *778:392 7.75213e-05
302 *756:116 *2510:A2 0.00088297
303 *756:116 *778:392 7.85077e-06
304 *756:134 *2494:A2 0.000458737
305 *756:179 *778:10 0.000809891
306 *756:179 *778:16 0.000406468
307 *756:181 *778:16 0.00172527
308 *756:218 *778:38 0.00128531
*RES
1 *3212:Z *778:10 19.62 
2 *778:10 *778:16 10.26 
3 *778:16 *2498:A2 4.5 
4 *778:16 *778:23 1.53 
5 *778:23 *2497:A2 4.5 
6 *778:23 *778:38 16.65 
7 *778:38 *2500:A2 4.5 
8 *778:38 *778:47 5.85 
9 *778:47 *778:49 0.45 
10 *778:49 *778:53 2.61 
11 *778:53 *778:55 8.46 
12 *778:55 *778:59 1.8 
13 *778:59 *778:65 7.56 
14 *778:65 *778:71 1.71 
15 *778:71 *778:73 9.45 
16 *778:73 *778:77 0.72 
17 *778:77 *778:79 2.61 
18 *778:79 *778:87 3.78 
19 *778:87 *778:89 0.99 
20 *778:89 *778:91 1.17 
21 *778:91 *778:99 5.22 
22 *778:99 *2435:A2 5.13 
23 *778:99 *778:110 5.13 
24 *778:110 *2432:A2 9.81 
25 *778:110 *778:127 11.07 
26 *778:127 *778:129 0.27 
27 *778:129 *778:133 5.85 
28 *778:133 *2438:A2 9.81 
29 *778:133 *2444:A2 10.53 
30 *778:129 *2429:A2 4.5 
31 *778:127 *2441:A2 6.57 
32 *778:91 *2423:A2 4.77 
33 *778:89 *2426:A2 4.5 
34 *778:87 *2420:A2 4.77 
35 *778:79 *2417:A2 4.5 
36 *778:77 *2411:A2 4.5 
37 *778:73 *2414:A2 7.2 
38 *778:71 *2468:A2 4.5 
39 *778:65 *2459:A2 4.5 
40 *778:59 *2462:A2 9 
41 *778:55 *2465:A2 9 
42 *778:53 *2482:A2 11.43 
43 *778:49 *2481:A2 9 
44 *778:47 *778:253 8.46 
45 *778:253 *2499:A2 4.5 
46 *778:253 *778:264 9.18 
47 *778:264 *778:268 9.27 
48 *778:268 *2474:A2 4.5 
49 *778:268 *2473:A2 16.56 
50 *778:264 *778:288 1.17 
51 *778:288 *2485:A2 9 
52 *778:288 *778:301 16.38 
53 *778:301 *2487:A2 4.95 
54 *778:301 *778:312 6.75 
55 *778:312 *778:316 11.07 
56 *778:316 *2494:A2 16.47 
57 *778:316 *2493:A2 4.5 
58 *778:312 *778:340 5.67 
59 *778:340 *2488:A2 4.95 
60 *778:340 *778:353 8.28 
61 *778:353 *2503:A2 9 
62 *778:353 *778:364 5.67 
63 *778:364 *2508:A2 4.5 
64 *778:364 *778:371 0.27 
65 *778:371 *778:377 6.48 
66 *778:377 *2504:A2 9.27 
67 *778:377 *778:392 9.54 
68 *778:392 *2510:A2 8.1 
69 *778:392 *2509:A2 4.77 
70 *778:371 *778:420 6.12 
71 *778:420 *2505:A2 4.5 
72 *778:420 *778:429 1.8 
73 *778:429 *2507:A2 4.5 
74 *778:429 *2506:A2 7.74 
75 *778:10 *2486:A2 9 
*END

*D_NET *779 0.035795
*CONN
*I *2477:A2 I *D gf180mcu_fd_sc_mcu7t5v0__nor2_1
*I *2466:A2 I *D gf180mcu_fd_sc_mcu7t5v0__oai21_1
*I *2409:A2 I *D gf180mcu_fd_sc_mcu7t5v0__oai21_1
*I *2469:A2 I *D gf180mcu_fd_sc_mcu7t5v0__oai21_1
*I *2410:A2 I *D gf180mcu_fd_sc_mcu7t5v0__aoi21_1
*I *2460:A2 I *D gf180mcu_fd_sc_mcu7t5v0__oai21_1
*I *2463:A2 I *D gf180mcu_fd_sc_mcu7t5v0__oai21_1
*I *2479:A2 I *D gf180mcu_fd_sc_mcu7t5v0__nor2_1
*I *2480:A2 I *D gf180mcu_fd_sc_mcu7t5v0__aoi211_1
*I *2478:A2 I *D gf180mcu_fd_sc_mcu7t5v0__aoi211_1
*I *2424:A2 I *D gf180mcu_fd_sc_mcu7t5v0__oai21_1
*I *2433:A2 I *D gf180mcu_fd_sc_mcu7t5v0__oai21_1
*I *2418:A2 I *D gf180mcu_fd_sc_mcu7t5v0__oai21_1
*I *2408:A2 I *D gf180mcu_fd_sc_mcu7t5v0__aoi21_1
*I *2407:A2 I *D gf180mcu_fd_sc_mcu7t5v0__oai21_1
*I *2412:A2 I *D gf180mcu_fd_sc_mcu7t5v0__oai21_1
*I *2415:A2 I *D gf180mcu_fd_sc_mcu7t5v0__oai21_1
*I *3213:Z O *D gf180mcu_fd_sc_mcu7t5v0__buf_4
*CAP
1 *2477:A2 0
2 *2466:A2 0.00020113
3 *2409:A2 3.40804e-05
4 *2469:A2 0.000189741
5 *2410:A2 0.000208212
6 *2460:A2 0.000304662
7 *2463:A2 0
8 *2479:A2 6.81481e-05
9 *2480:A2 0
10 *2478:A2 0
11 *2424:A2 0.000463508
12 *2433:A2 0.000102925
13 *2418:A2 0.00015874
14 *2408:A2 0.000338742
15 *2407:A2 0
16 *2412:A2 0
17 *2415:A2 0
18 *3213:Z 0.000606941
19 *779:176 0.000397953
20 *779:163 0.000515709
21 *779:161 0.000354805
22 *779:159 0.000597889
23 *779:148 0.00121088
24 *779:142 0.00153153
25 *779:95 0.000686261
26 *779:84 0.000534954
27 *779:56 0.000723559
28 *779:49 0.000759943
29 *779:36 0.000632818
30 *779:30 0.000784017
31 *779:24 0.000432334
32 *779:18 0.000397489
33 *779:12 0.000462419
34 *779:10 0.00137385
35 *2409:A2 *952:10 1.56779e-05
36 *2424:A2 *2879:C2 2.71593e-05
37 *2433:A2 *2433:A1 2.00514e-05
38 *2479:A2 *2834:A2 0.000416321
39 *779:12 *2479:A1 0.000281718
40 *779:12 *2826:B2 0.000128646
41 *779:18 *2826:B2 0.000279204
42 *779:36 *2818:A1 1.99603e-05
43 *779:49 *2412:A1 0.000453197
44 *779:49 *2818:A1 2.40587e-06
45 *779:95 *2433:A1 2.89427e-06
46 *779:95 *2835:B2 0.000496633
47 *779:142 *2842:C2 0
48 *779:142 *3147:I 0.000834763
49 *779:142 *945:10 0.000169524
50 *779:148 *2463:A1 0
51 *779:148 *2477:A1 0.000241013
52 *779:148 *2818:A1 7.77173e-05
53 *779:148 *2827:A1 0
54 *779:159 *2409:A1 3.53802e-05
55 *779:159 *2818:A1 1.32661e-05
56 *779:161 *2409:A1 0.000154571
57 *779:161 *952:10 1.55424e-05
58 *779:163 *952:10 5.78822e-05
59 *2408:B *2408:A2 0.000318234
60 *2410:B *2410:A2 1.79237e-05
61 *2410:B *779:163 3.0388e-05
62 *2412:B *779:56 4.6613e-06
63 *2415:B *779:30 3.90136e-05
64 *2415:B *779:36 8.09465e-05
65 *2415:B *779:49 2.30981e-05
66 *2415:B *779:84 0.000969778
67 *2416:A1 *779:49 0.000382704
68 *2416:A2 *779:49 0.000591244
69 *2419:A1 *779:36 4.6613e-06
70 *2419:A1 *779:84 1.35695e-05
71 *2419:A2 *779:84 0.000109559
72 *2425:A2 *2424:A2 0.000109323
73 *2434:A2 *2424:A2 0.000623152
74 *2434:A2 *2433:A2 0.000722636
75 *2460:B *2469:A2 2.89427e-06
76 *2463:B *2466:A2 1.77397e-05
77 *2463:B *779:148 0
78 *2463:B *779:159 0.000448049
79 *2464:A1 *2460:A2 0.000233295
80 *2464:A1 *2466:A2 0.000156001
81 *2464:A1 *2469:A2 9.82968e-06
82 *2464:A1 *779:161 0.000254207
83 *2464:A1 *779:163 0.000493963
84 *2464:A2 *779:148 0
85 *2464:A2 *779:159 0.000102753
86 *2466:B *2466:A2 3.38498e-05
87 *2469:A1 *2410:A2 0
88 *2469:A1 *2469:A2 6.06287e-05
89 *2470:A2 *2460:A2 1.86263e-05
90 *2478:A1 *779:30 3.01487e-05
91 *2478:A1 *779:148 0
92 *2478:A1 *779:159 0
93 *2478:B *2479:A2 0.000162645
94 *2478:B *779:24 0.000515801
95 *2478:C *779:18 0.000364897
96 *2478:C *779:30 0
97 *2480:A1 *779:18 0.000133251
98 *2486:A1 *779:10 0.000165741
99 *2819:A2 *779:84 0
100 *2826:B1 *779:24 2.63437e-05
101 *2826:B1 *779:30 5.72134e-05
102 *2836:A1 *779:142 0.00136859
103 *2844:A2 *779:30 0.00016319
104 *2844:A2 *779:36 7.67323e-05
105 *2931:D *2408:A2 0.000757565
106 *2932:D *779:163 0
107 *2933:D *779:56 0
108 *2935:D *779:84 9.90362e-06
109 *2949:CLK *2460:A2 7.59619e-05
110 *2950:D *2466:A2 0.000368109
111 *2952:D *2460:A2 0.000140533
112 *2952:D *2469:A2 0
113 *3112:I *779:56 0
114 *3161:I *2424:A2 2.52908e-05
115 *244:370 *779:95 0
116 *244:387 *2424:A2 0
117 *244:422 *779:84 8.49208e-05
118 *244:463 *2408:A2 2.65444e-06
119 *244:463 *779:56 5.04949e-05
120 *244:480 *2408:A2 0
121 *244:480 *2409:A2 5.97457e-06
122 *244:489 *2409:A2 5.79059e-06
123 *244:513 *779:159 0
124 *295:166 *779:142 0.000294421
125 *372:86 *779:142 6.10987e-05
126 *372:86 *779:148 1.73663e-05
127 *499:20 *779:10 0.000238861
128 *600:51 *2433:A2 0.00090699
129 *600:51 *779:95 0.000139375
130 *600:66 *779:95 0.000288054
131 *600:73 *779:30 1.86452e-05
132 *601:85 *2418:A2 0.000259658
133 *601:85 *779:84 2.26729e-05
134 *601:85 *779:95 9.88969e-05
135 *601:96 *779:30 0.000458746
136 *601:96 *779:36 0.000166798
137 *656:14 *779:10 0.000312219
138 *656:14 *779:12 3.18016e-05
139 *656:14 *779:30 0
140 *689:24 *779:24 2.72817e-05
141 *689:24 *779:49 9.24539e-05
142 *690:34 *779:10 0.000994627
143 *690:34 *779:12 0.000108347
144 *690:34 *779:18 0.000409327
145 *690:34 *779:24 0.000209832
146 *690:34 *779:49 0.000549088
147 *694:29 *2433:A2 0
148 *694:102 *779:30 0.000139796
149 *694:102 *779:84 1.05078e-05
150 *694:102 *779:95 6.69186e-05
151 *712:57 *779:18 0.000356014
152 *712:72 *2424:A2 0
153 *713:12 *779:148 0.000470268
154 *713:18 *779:148 0.000128564
155 *713:46 *2466:A2 7.26673e-05
156 *713:53 *2466:A2 8.77402e-05
157 *778:10 *779:10 0.000385026
158 *778:38 *779:148 8.96667e-05
*RES
1 *3213:Z *779:10 17.82 
2 *779:10 *779:12 1.71 
3 *779:12 *779:18 8.28 
4 *779:18 *779:24 11.07 
5 *779:24 *779:30 7.38 
6 *779:30 *779:36 6.48 
7 *779:36 *2415:A2 4.5 
8 *779:36 *779:49 15.48 
9 *779:49 *2412:A2 4.5 
10 *779:49 *779:56 2.43 
11 *779:56 *2407:A2 4.5 
12 *779:56 *2408:A2 17.19 
13 *779:30 *779:84 8.01 
14 *779:84 *2418:A2 5.76 
15 *779:84 *779:95 2.25 
16 *779:95 *2433:A2 7.2 
17 *779:95 *2424:A2 17.19 
18 *779:24 *2478:A2 4.5 
19 *779:18 *2480:A2 4.5 
20 *779:12 *2479:A2 10.17 
21 *779:10 *779:142 16.38 
22 *779:142 *779:148 12.78 
23 *779:148 *2463:A2 4.5 
24 *779:148 *779:159 7.2 
25 *779:159 *779:161 1.71 
26 *779:161 *779:163 2.79 
27 *779:163 *2460:A2 12.06 
28 *779:163 *779:176 4.5 
29 *779:176 *2410:A2 5.85 
30 *779:176 *2469:A2 5.67 
31 *779:161 *2409:A2 9.27 
32 *779:159 *2466:A2 11.34 
33 *779:142 *2477:A2 9 
*END

*D_NET *780 0.0022638
*CONN
*I *2318:A1 I *D gf180mcu_fd_sc_mcu7t5v0__or3_1
*I *2808:A1 I *D gf180mcu_fd_sc_mcu7t5v0__nand2_1
*I *2811:A1 I *D gf180mcu_fd_sc_mcu7t5v0__or3_1
*I *3206:Z O *D gf180mcu_fd_sc_mcu7t5v0__dlyb_1
*CAP
1 *2318:A1 7.10865e-06
2 *2808:A1 0.000355039
3 *2811:A1 0
4 *3206:Z 6.50035e-05
5 *780:13 0.00058676
6 *780:6 0.000289616
7 *2318:A1 *2317:A4 9.85004e-05
8 *2808:A1 *2807:A1 4.34597e-05
9 *2808:A1 *2807:A2 0
10 *2808:A1 *2807:A3 0
11 *780:6 *2317:A3 7.96333e-06
12 *780:13 *2317:A4 0.000425752
13 *2317:A1 *780:13 0
14 *2318:A2 *2318:A1 2.93938e-05
15 *2318:A2 *2808:A1 2.98938e-05
16 *2318:A2 *780:13 0.000110639
17 *2660:A1 *780:13 6.02091e-06
18 *2811:A3 *780:13 6.58213e-05
19 *732:20 *2808:A1 0
20 *769:12 *780:6 4.434e-05
21 *769:12 *780:13 9.84908e-05
*RES
1 *3206:Z *780:6 5.13 
2 *780:6 *2811:A1 4.5 
3 *780:6 *780:13 2.25 
4 *780:13 *2808:A1 15.57 
5 *780:13 *2318:A1 4.77 
*END

*D_NET *781 0.0333617
*CONN
*I *2396:A2 I *D gf180mcu_fd_sc_mcu7t5v0__oai21_1
*I *2390:A2 I *D gf180mcu_fd_sc_mcu7t5v0__oai21_1
*I *2393:A2 I *D gf180mcu_fd_sc_mcu7t5v0__oai21_1
*I *2399:A2 I *D gf180mcu_fd_sc_mcu7t5v0__oai21_1
*I *2442:A2 I *D gf180mcu_fd_sc_mcu7t5v0__oai21_1
*I *2457:A2 I *D gf180mcu_fd_sc_mcu7t5v0__oai21_1
*I *2405:A2 I *D gf180mcu_fd_sc_mcu7t5v0__oai21_1
*I *2402:A2 I *D gf180mcu_fd_sc_mcu7t5v0__oai21_1
*I *2445:A2 I *D gf180mcu_fd_sc_mcu7t5v0__oai21_1
*I *2451:A2 I *D gf180mcu_fd_sc_mcu7t5v0__oai21_1
*I *2448:A2 I *D gf180mcu_fd_sc_mcu7t5v0__oai21_1
*I *2454:A2 I *D gf180mcu_fd_sc_mcu7t5v0__oai21_1
*I *2421:A2 I *D gf180mcu_fd_sc_mcu7t5v0__oai21_1
*I *2436:A2 I *D gf180mcu_fd_sc_mcu7t5v0__oai21_1
*I *2427:A2 I *D gf180mcu_fd_sc_mcu7t5v0__oai21_1
*I *2430:A2 I *D gf180mcu_fd_sc_mcu7t5v0__oai21_1
*I *2439:A2 I *D gf180mcu_fd_sc_mcu7t5v0__oai21_1
*I *3232:Z O *D gf180mcu_fd_sc_mcu7t5v0__buf_4
*CAP
1 *2396:A2 0
2 *2390:A2 0.000229992
3 *2393:A2 0.000101414
4 *2399:A2 0
5 *2442:A2 0
6 *2457:A2 0
7 *2405:A2 0.000205992
8 *2402:A2 2.97323e-05
9 *2445:A2 0
10 *2451:A2 0
11 *2448:A2 0
12 *2454:A2 0.000170316
13 *2421:A2 0
14 *2436:A2 0.000241428
15 *2427:A2 0
16 *2430:A2 0
17 *2439:A2 0.000393953
18 *3232:Z 0.000853839
19 *781:170 0.000613081
20 *781:162 0.00100857
21 *781:128 0.000439444
22 *781:93 0.000260564
23 *781:85 0.000549803
24 *781:83 0.000503021
25 *781:67 0.00100432
26 *781:60 0.00135839
27 *781:53 0.000853229
28 *781:47 0.000720378
29 *781:45 0.000508709
30 *781:43 0.000417099
31 *781:37 0.000426658
32 *781:31 0.00200332
33 *781:14 0.00222141
34 *2390:A2 *2390:A1 7.15592e-05
35 *2390:A2 *886:8 5.47155e-05
36 *2393:A2 *886:8 2.17099e-05
37 *2402:A2 *2402:A1 0.000283705
38 *2439:A2 *2835:A1 1.70787e-05
39 *2439:A2 *3176:I 9.37535e-05
40 *2454:A2 *2454:A1 3.90248e-05
41 *781:14 *2835:A1 4.8913e-05
42 *781:14 *2842:B2 1.64102e-05
43 *781:14 *3176:I 8.58089e-05
44 *781:37 *2442:A1 0.000204492
45 *781:37 *2879:C2 0.00011375
46 *781:43 *2851:A1 0.000284536
47 *781:43 *2879:C2 3.87363e-05
48 *781:45 *2851:A1 0.000155376
49 *781:47 *2851:A1 0.000114555
50 *781:60 *2430:A1 0.000205482
51 *781:60 *2435:A1 0
52 *781:60 *2866:C1 9.84776e-05
53 *781:60 *890:8 7.20334e-05
54 *781:67 *2421:A1 1.0415e-05
55 *781:67 *2426:A1 0
56 *781:67 *2843:C2 0
57 *781:67 *2941:D 0.000294421
58 *781:67 *890:8 0.000172267
59 *781:85 *2454:A1 4.33781e-05
60 *781:85 *2859:C1 0.00048829
61 *781:85 *2866:C1 4.33369e-05
62 *781:85 *896:8 0.000150089
63 *781:85 *899:12 1.0415e-05
64 *781:93 *2448:A1 0.000382875
65 *781:93 *2851:C1 6.26041e-05
66 *781:93 *898:10 9.04462e-05
67 *781:93 *899:12 0.000205103
68 *781:128 *2879:C2 0.000135063
69 *781:162 *2396:A1 0.000183662
70 *781:162 *2835:A1 6.81917e-05
71 *781:170 *2393:A1 0.000484242
72 *781:170 *2396:A1 1.0415e-05
73 *781:170 *2814:B2 0
74 *2380:A2 *781:14 0.000779065
75 *2391:A1 *2390:A2 3.21686e-05
76 *2391:A2 *2390:A2 0.00015547
77 *2394:A2 *2393:A2 0.00015547
78 *2394:A2 *781:170 0.000186725
79 *2399:B *781:162 0.000261818
80 *2400:A1 *2393:A2 2.64352e-05
81 *2400:A1 *781:170 7.85405e-05
82 *2403:A1 *781:128 8.69576e-05
83 *2403:A2 *2402:A2 0.000283705
84 *2403:A2 *781:128 2.18454e-05
85 *2405:B *781:128 2.65444e-06
86 *2412:B *781:67 0
87 *2422:A2 *2436:A2 0.000336819
88 *2427:B *781:60 1.64006e-05
89 *2428:A2 *781:60 0.000294431
90 *2431:A2 *781:53 0.000107554
91 *2431:A2 *781:60 0.000294421
92 *2440:A1 *2405:A2 0
93 *2440:A1 *781:128 0.000329542
94 *2443:A2 *781:37 3.55118e-05
95 *2443:A2 *781:43 0.000879843
96 *2443:A2 *781:45 0.000427492
97 *2443:A2 *781:47 0.000219114
98 *2446:A2 *781:85 0.000264683
99 *2449:A2 *2454:A2 0.00069849
100 *2621:A1 *781:14 4.01532e-05
101 *2682:A2 *781:14 7.55765e-06
102 *2767:A2 *781:14 0.000737008
103 *2767:A3 *781:14 0.000737018
104 *2768:A1 *781:14 5.22248e-06
105 *2827:A2 *2439:A2 0
106 *2860:A2 *781:37 0.00023141
107 *2929:D *781:128 2.00619e-05
108 *2930:CLK *781:93 9.49471e-06
109 *2943:D *2405:A2 4.67368e-05
110 *2943:D *781:128 9.28914e-05
111 *3094:I *781:37 0.00142637
112 *3094:I *781:162 0.000718082
113 *3118:I *2454:A2 0.000224777
114 *3126:I *2390:A2 1.56674e-05
115 *3126:I *2393:A2 1.54403e-05
116 *3229:I *781:47 0.000236231
117 *3229:I *781:53 0.00015862
118 *244:105 *2390:A2 0.0001102
119 *244:233 *781:162 0.000150498
120 *244:233 *781:170 4.6613e-06
121 *244:277 *781:93 0.000164228
122 *244:332 *781:37 1.51153e-05
123 *244:332 *781:43 5.78854e-06
124 *244:339 *781:37 7.55765e-06
125 *244:370 *2439:A2 0.000367588
126 *296:35 *781:14 6.13096e-05
127 *499:20 *781:14 9.85004e-05
128 *503:8 *781:14 0.000614846
129 *503:10 *781:14 0.000364412
130 *597:38 *781:14 0
131 *601:16 *781:37 1.67927e-05
132 *601:16 *781:162 0.000113189
133 *694:13 *2439:A2 0
134 *694:13 *781:14 0
135 *694:29 *2439:A2 3.77135e-05
136 *694:102 *2439:A2 0.000206412
137 *709:25 *2390:A2 3.31858e-06
138 *709:71 *2405:A2 0.000351682
*RES
1 *3232:Z *781:14 19.26 
2 *781:14 *2439:A2 12.78 
3 *781:14 *781:31 14.31 
4 *781:31 *781:37 9.9 
5 *781:37 *781:43 7.02 
6 *781:43 *781:45 1.17 
7 *781:45 *781:47 3.15 
8 *781:47 *781:53 6.3 
9 *781:53 *2430:A2 4.5 
10 *781:53 *781:60 5.13 
11 *781:60 *2427:A2 4.5 
12 *781:60 *781:67 5.13 
13 *781:67 *2436:A2 6.39 
14 *781:67 *2421:A2 4.5 
15 *781:47 *781:83 4.77 
16 *781:83 *781:85 4.77 
17 *781:85 *781:93 10.8 
18 *781:93 *2454:A2 6.93 
19 *781:93 *2448:A2 4.5 
20 *781:85 *2451:A2 4.5 
21 *781:83 *2445:A2 4.5 
22 *781:45 *2402:A2 9.81 
23 *781:43 *781:128 6.93 
24 *781:128 *2405:A2 15.57 
25 *781:128 *2457:A2 4.5 
26 *781:37 *2442:A2 4.5 
27 *781:31 *2399:A2 9 
28 *781:31 *781:162 11.16 
29 *781:162 *781:170 7.29 
30 *781:170 *2393:A2 9.9 
31 *781:170 *2390:A2 11.16 
32 *781:162 *2396:A2 4.5 
*END

*D_NET *782 0.0463561
*CONN
*I *2850:C1 I *D gf180mcu_fd_sc_mcu7t5v0__aoi222_1
*I *2867:C1 I *D gf180mcu_fd_sc_mcu7t5v0__aoi222_1
*I *2858:C1 I *D gf180mcu_fd_sc_mcu7t5v0__aoi222_1
*I *2884:A2 I *D gf180mcu_fd_sc_mcu7t5v0__oai31_1
*I *2883:A2 I *D gf180mcu_fd_sc_mcu7t5v0__nor3_1
*I *2878:C1 I *D gf180mcu_fd_sc_mcu7t5v0__aoi222_1
*I *2842:C1 I *D gf180mcu_fd_sc_mcu7t5v0__aoi222_1
*I *2814:C1 I *D gf180mcu_fd_sc_mcu7t5v0__aoi222_1
*I *2826:C1 I *D gf180mcu_fd_sc_mcu7t5v0__aoi222_1
*I *2834:C1 I *D gf180mcu_fd_sc_mcu7t5v0__aoi222_1
*I *3233:Z O *D gf180mcu_fd_sc_mcu7t5v0__clkbuf_3
*CAP
1 *2850:C1 0
2 *2867:C1 0.000290719
3 *2858:C1 0.000404509
4 *2884:A2 0.000802005
5 *2883:A2 0
6 *2878:C1 0
7 *2842:C1 9.06971e-05
8 *2814:C1 0.00010306
9 *2826:C1 2.38176e-05
10 *2834:C1 0.000850516
11 *3233:Z 0.00172597
12 *782:121 0.000912867
13 *782:117 0.000304518
14 *782:89 0.000920168
15 *782:79 0.00128271
16 *782:72 0.00126683
17 *782:50 0.000393457
18 *782:20 0.00093016
19 *782:18 0.00142451
20 *782:14 0.00308413
21 *2814:C1 *2842:C2 1.86887e-06
22 *2834:C1 *2479:A1 0.000522035
23 *2834:C1 *2826:B2 0.000273663
24 *2834:C1 *2826:C2 0.000226823
25 *2842:C1 *783:28 0.000601531
26 *2858:C1 *2305:I 2.82084e-05
27 *2858:C1 *2858:A2 0.000835387
28 *2884:A2 *2764:A2 1.35718e-05
29 *2884:A2 *2850:C2 1.67748e-05
30 *2884:A2 *2884:A1 0.000159379
31 *2884:A2 *784:158 2.54454e-05
32 *2884:A2 *947:10 8.46222e-05
33 *782:14 *2356:A1 0.000695914
34 *782:14 *2824:A1 0.000164262
35 *782:14 *2832:A1 0.000167534
36 *782:14 *2840:A1 0.000223407
37 *782:14 *2848:A1 5.79059e-06
38 *782:14 *783:24 0.000226823
39 *782:18 *783:24 0.000185702
40 *782:20 *2826:C2 7.03219e-05
41 *782:50 *2842:C2 8.20894e-05
42 *782:72 *2878:B2 9.84908e-05
43 *782:72 *783:80 7.09972e-05
44 *782:72 *783:92 6.44696e-05
45 *782:79 *2471:A1 3.84753e-06
46 *782:79 *2765:A1 7.15751e-05
47 *782:79 *2878:B2 3.2326e-06
48 *782:79 *783:92 0.000495611
49 *782:89 *2850:A1 0.000440674
50 *782:89 *2884:A1 0.000143204
51 *782:89 *783:92 4.6613e-06
52 *782:89 *783:96 1.39839e-05
53 *782:89 *783:100 0.000312562
54 *782:117 *783:92 2.89427e-06
55 *782:117 *783:96 5.78854e-06
56 *2353:A2 *782:14 0.000482897
57 *2370:I1 *782:14 0.000726147
58 *2471:B *782:79 0
59 *2478:B *2834:C1 0.00131665
60 *2488:C *2858:C1 0
61 *2496:A2 *782:18 0.000178791
62 *2504:A1 *782:121 0
63 *2504:B *2867:C1 1.76743e-05
64 *2504:B *782:121 3.17297e-05
65 *2504:C *782:121 3.40506e-05
66 *2508:A1 *2867:C1 0.000201324
67 *2510:C *782:79 3.97987e-05
68 *2834:B1 *2834:C1 3.55118e-05
69 *2836:A1 *2826:C1 8.49143e-05
70 *2836:A1 *2834:C1 0.0008362
71 *2836:A1 *782:50 4.90892e-05
72 *2844:A2 *2842:C1 0.000149697
73 *2849:A2 *782:14 2.05784e-05
74 *2867:B1 *2867:C1 0.00050936
75 *2867:B1 *782:121 0.000813828
76 *2878:B1 *782:14 0.000145212
77 *2878:B1 *782:72 0.000730905
78 *2887:A2 *2884:A2 0.000404503
79 *2969:D *2884:A2 1.66092e-05
80 *2969:D *782:121 1.90569e-05
81 *3036:D *2884:A2 0
82 *3048:D *782:14 0.000987527
83 *3048:CLK *782:14 2.37143e-05
84 *3050:D *782:14 0.000617234
85 *3050:CLK *782:14 7.77173e-05
86 *3083:CLK *782:18 0.000241954
87 *3123:I *782:79 0.00040142
88 *3202:I *2884:A2 0
89 *3234:I *782:14 0.000179252
90 *244:51 *782:18 0.00052864
91 *244:61 *782:18 0.00115377
92 *244:186 *782:14 0.000245369
93 *244:186 *782:18 0.00113577
94 *252:30 *2884:A2 0.000169515
95 *282:23 *782:14 0.000119182
96 *295:10 *782:18 0.000219956
97 *372:86 *2834:C1 0.000273521
98 *496:24 *2884:A2 0.00190839
99 *502:84 *2884:A2 1.03692e-05
100 *589:73 *782:14 0
101 *590:41 *782:14 0
102 *590:49 *782:14 4.76885e-05
103 *597:26 *782:18 1.40526e-05
104 *597:32 *2814:C1 0.000360299
105 *597:32 *782:18 4.66941e-05
106 *597:32 *782:20 3.54228e-06
107 *597:32 *782:50 0.000241825
108 *599:22 *782:79 0.000150113
109 *599:22 *782:117 2.00709e-05
110 *599:22 *782:121 3.55118e-05
111 *630:24 *782:14 5.02137e-05
112 *630:24 *782:72 0
113 *630:24 *782:79 0
114 *656:14 *782:18 0
115 *688:12 *782:14 0.000276542
116 *688:12 *782:72 0.00035784
117 *689:12 *782:14 0.00032233
118 *689:18 *782:14 3.81667e-05
119 *689:24 *782:14 1.86249e-05
120 *689:24 *782:20 0
121 *690:34 *2834:C1 0.000219114
122 *690:34 *782:18 0.00546581
123 *690:34 *782:20 0.000303031
124 *702:90 *782:14 3.12524e-05
125 *703:31 *782:18 0.000316263
126 *703:35 *782:18 0.000323747
127 *705:45 *782:79 0.000255084
128 *706:20 *2858:C1 0.000163342
129 *756:112 *2884:A2 6.24903e-05
130 *756:112 *782:89 3.97987e-05
131 *756:313 *782:14 1.18076e-06
132 *756:332 *782:14 0.00023304
133 *756:344 *782:14 8.97319e-05
134 *756:348 *782:14 1.19491e-05
135 *756:352 *782:14 8.44077e-06
136 *756:558 *782:14 0.000217957
137 *756:598 *2884:A2 0.00015651
138 *778:312 *2858:C1 0
139 *778:353 *2858:C1 0.000105209
140 *778:364 *2858:C1 4.10247e-05
141 *778:377 *2867:C1 1.37747e-05
142 *778:377 *782:121 1.19491e-05
143 *778:420 *2867:C1 1.03124e-05
*RES
1 *3233:Z *782:14 32.85 
2 *782:14 *782:18 25.47 
3 *782:18 *782:20 0.81 
4 *782:20 *2834:C1 20.25 
5 *782:20 *2826:C1 9.27 
6 *782:18 *782:50 6.39 
7 *782:50 *2814:C1 5.49 
8 *782:50 *2842:C1 15.03 
9 *782:14 *782:72 3.06 
10 *782:72 *2878:C1 4.5 
11 *782:72 *782:79 9.45 
12 *782:79 *782:89 10.71 
13 *782:89 *2883:A2 4.5 
14 *782:89 *2884:A2 22.59 
15 *782:79 *782:117 0.72 
16 *782:117 *782:121 2.52 
17 *782:121 *2858:C1 17.28 
18 *782:121 *2867:C1 7.83 
19 *782:117 *2850:C1 4.5 
*END

*D_NET *783 0.0449351
*CONN
*I *2878:A2 I *D gf180mcu_fd_sc_mcu7t5v0__aoi222_1
*I *2883:A1 I *D gf180mcu_fd_sc_mcu7t5v0__nor3_1
*I *2884:A1 I *D gf180mcu_fd_sc_mcu7t5v0__oai31_1
*I *2867:A2 I *D gf180mcu_fd_sc_mcu7t5v0__aoi222_1
*I *2858:A2 I *D gf180mcu_fd_sc_mcu7t5v0__aoi222_1
*I *2850:A2 I *D gf180mcu_fd_sc_mcu7t5v0__aoi222_1
*I *2842:A2 I *D gf180mcu_fd_sc_mcu7t5v0__aoi222_1
*I *2814:A2 I *D gf180mcu_fd_sc_mcu7t5v0__aoi222_1
*I *2826:A2 I *D gf180mcu_fd_sc_mcu7t5v0__aoi222_1
*I *2834:A2 I *D gf180mcu_fd_sc_mcu7t5v0__aoi222_1
*I *3234:Z O *D gf180mcu_fd_sc_mcu7t5v0__clkbuf_3
*CAP
1 *2878:A2 0
2 *2883:A1 3.44897e-05
3 *2884:A1 0.000305943
4 *2867:A2 0.000398716
5 *2858:A2 0.000354548
6 *2850:A2 0
7 *2842:A2 0
8 *2814:A2 0.000192508
9 *2826:A2 5.52048e-05
10 *2834:A2 0.00128033
11 *3234:Z 0.000348196
12 *783:107 0.00102894
13 *783:100 0.000438339
14 *783:96 0.000507703
15 *783:92 0.00118453
16 *783:80 0.00134146
17 *783:30 0.00141212
18 *783:28 0.000442909
19 *783:24 0.000959946
20 *783:16 0.00136484
21 *2814:A2 *2814:A1 0.000164363
22 *2814:A2 *2814:B2 1.07374e-05
23 *2826:A2 *2479:A1 1.43879e-05
24 *2834:A2 *2479:A1 0
25 *2834:A2 *2826:A1 0.000423195
26 *2834:A2 *2834:B2 0.000138736
27 *2834:A2 *2879:A1 0
28 *2834:A2 *944:8 9.85004e-05
29 *2834:A2 *958:10 0.000227323
30 *2867:A2 *2491:A1 4.6613e-06
31 *2884:A1 *2850:A1 3.06929e-05
32 *2884:A1 *2850:C2 0.00225631
33 *2884:A1 *2872:A1 0
34 *2884:A1 *3146:I 3.06929e-05
35 *2884:A1 *947:10 0.00024316
36 *783:16 *2356:A1 2.17099e-05
37 *783:28 *2842:B2 0.000171937
38 *783:92 *2765:A1 0.000289482
39 *783:92 *2765:A2 0.000356014
40 *783:92 *2878:B2 0.000153256
41 *783:92 *784:135 0.000320153
42 *783:92 *938:10 7.62412e-05
43 *783:92 *941:6 0.000159481
44 *783:100 *2850:A1 0.00022283
45 *783:100 *2850:C2 0.000247379
46 *2314:I *783:107 5.83222e-05
47 *2322:A2 *2867:A2 6.06563e-05
48 *2322:A2 *783:107 0.000106663
49 *2350:B *783:16 4.843e-05
50 *2353:A2 *783:24 0.00059633
51 *2471:B *783:107 0.000248441
52 *2472:A1 *2858:A2 1.18076e-06
53 *2478:B *2834:A2 0.000200109
54 *2479:A2 *2834:A2 0.000416321
55 *2488:A1 *783:107 9.81648e-05
56 *2488:C *783:107 0
57 *2496:A2 *783:24 9.22066e-05
58 *2496:B *783:24 0.000536348
59 *2498:A1 *2834:A2 0.000284927
60 *2510:B *783:92 7.28469e-05
61 *2510:C *783:92 9.84908e-05
62 *2819:A1 *2814:A2 2.38983e-05
63 *2826:B1 *2826:A2 2.89427e-06
64 *2826:B1 *2834:A2 1.4382e-06
65 *2828:A1 *2826:A2 0.00034797
66 *2828:A1 *2834:A2 0.00034797
67 *2836:A1 *2826:A2 0.000216103
68 *2840:B2 *783:16 0
69 *2842:C1 *783:28 0.000601531
70 *2844:A2 *2834:A2 1.36965e-05
71 *2844:A2 *783:28 0.000143153
72 *2844:A2 *783:30 4.10145e-05
73 *2848:B2 *783:16 7.10862e-05
74 *2858:C1 *2858:A2 0.000835387
75 *2867:B1 *2867:A2 8.78944e-05
76 *2883:A3 *2884:A1 0.00240813
77 *2884:A2 *2884:A1 0.000159379
78 *2884:A3 *2884:A1 0.000247389
79 *2884:B *2884:A1 4.77403e-05
80 *2886:A1 *2884:A1 9.85004e-05
81 *2886:A2 *2884:A1 9.85004e-05
82 *2959:CLK *2834:A2 9.07783e-05
83 *2963:D *2867:A2 1.966e-05
84 *2972:D *783:92 0.000589913
85 *3036:D *2884:A1 0
86 *3050:D *783:16 0.000362638
87 *3077:D *783:16 0.000147309
88 *3089:I *783:28 0.000152505
89 *3186:I *783:16 0.000213957
90 *3186:I *783:80 0.000188947
91 *244:51 *783:24 4.26733e-05
92 *244:61 *783:24 6.15707e-05
93 *251:30 *783:16 0.000205859
94 *251:30 *783:80 0.000546356
95 *251:30 *783:92 0
96 *252:30 *2884:A1 1.50885e-05
97 *284:16 *783:16 0.000913
98 *295:10 *783:24 9.96525e-05
99 *295:166 *2834:A2 9.85004e-05
100 *372:86 *2834:A2 0.00049408
101 *496:24 *783:100 0.000159253
102 *502:18 *783:24 2.85793e-05
103 *502:84 *783:92 5.12535e-05
104 *503:36 *783:24 0.000275527
105 *597:26 *783:24 0.00640381
106 *597:32 *2814:A2 9.63532e-06
107 *599:44 *2834:A2 2.00195e-05
108 *599:54 *2834:A2 2.82325e-05
109 *630:24 *783:107 3.55118e-05
110 *656:14 *783:80 0
111 *656:14 *783:92 0
112 *688:12 *783:80 0.000185534
113 *688:12 *783:92 5.97457e-06
114 *689:18 *783:16 0.000671226
115 *689:24 *2834:A2 4.9506e-05
116 *689:24 *783:16 0.000417911
117 *689:24 *783:24 0.000277639
118 *689:24 *783:28 0.000699433
119 *689:24 *783:30 0.000125111
120 *690:17 *783:24 0.000666696
121 *703:31 *783:24 0.000508459
122 *703:35 *783:24 0.000491343
123 *756:112 *783:92 3.83264e-06
124 *756:218 *2834:A2 6.74604e-05
125 *756:332 *783:16 0.000425242
126 *778:16 *2834:A2 9.84908e-05
127 *778:23 *2834:A2 0.000526924
128 *778:38 *2834:A2 0.00047198
129 *778:312 *2858:A2 0
130 *778:353 *2858:A2 0.00036411
131 *778:353 *2867:A2 3.73774e-06
132 *778:353 *783:107 6.83803e-05
133 *782:14 *783:24 0.000226823
134 *782:18 *783:24 0.000185702
135 *782:72 *783:80 7.09972e-05
136 *782:72 *783:92 6.44696e-05
137 *782:79 *783:92 0.000495611
138 *782:89 *2884:A1 0.000143204
139 *782:89 *783:92 4.6613e-06
140 *782:89 *783:96 1.39839e-05
141 *782:89 *783:100 0.000312562
142 *782:117 *783:92 2.89427e-06
143 *782:117 *783:96 5.78854e-06
*RES
1 *3234:Z *783:16 19.62 
2 *783:16 *783:24 28.62 
3 *783:24 *783:28 8.55 
4 *783:28 *783:30 0.81 
5 *783:30 *2834:A2 31.86 
6 *783:30 *2826:A2 9.99 
7 *783:28 *2814:A2 10.62 
8 *783:24 *2842:A2 4.5 
9 *783:16 *783:80 2.79 
10 *783:80 *783:92 11.16 
11 *783:92 *783:96 4.77 
12 *783:96 *783:100 6.75 
13 *783:100 *2850:A2 4.5 
14 *783:100 *783:107 2.61 
15 *783:107 *2858:A2 16.83 
16 *783:107 *2867:A2 7.47 
17 *783:96 *2884:A1 17.82 
18 *783:92 *2883:A1 4.77 
19 *783:80 *2878:A2 4.5 
*END

*D_NET *784 0.0550291
*CONN
*I *2764:A2 I *D gf180mcu_fd_sc_mcu7t5v0__and3_1
*I *2762:A2 I *D gf180mcu_fd_sc_mcu7t5v0__and3_1
*I *2763:A2 I *D gf180mcu_fd_sc_mcu7t5v0__and3_1
*I *2765:A2 I *D gf180mcu_fd_sc_mcu7t5v0__and3_1
*I *2745:B I *D gf180mcu_fd_sc_mcu7t5v0__oai21_1
*I *2734:B I *D gf180mcu_fd_sc_mcu7t5v0__oai21_1
*I *2721:B I *D gf180mcu_fd_sc_mcu7t5v0__oai21_1
*I *2686:B I *D gf180mcu_fd_sc_mcu7t5v0__oai21_1
*I *2730:B I *D gf180mcu_fd_sc_mcu7t5v0__oai21_1
*I *2754:B I *D gf180mcu_fd_sc_mcu7t5v0__oai21_1
*I *2758:B I *D gf180mcu_fd_sc_mcu7t5v0__oai21_1
*I *3214:Z O *D gf180mcu_fd_sc_mcu7t5v0__buf_4
*CAP
1 *2764:A2 4.43e-05
2 *2762:A2 0
3 *2763:A2 0.000737089
4 *2765:A2 3.32393e-05
5 *2745:B 0.000114908
6 *2734:B 0.000377112
7 *2721:B 0.000187165
8 *2686:B 0.00105953
9 *2730:B 6.30859e-05
10 *2754:B 7.21089e-05
11 *2758:B 0.000672837
12 *3214:Z 0.00119151
13 *784:170 0.00204344
14 *784:158 0.00237981
15 *784:135 0.00177337
16 *784:116 0.00114116
17 *784:69 0.00174749
18 *784:52 0.00113653
19 *784:46 0.00147003
20 *784:42 0.000927862
21 *784:29 0.000266201
22 *784:16 0.00196613
23 *2686:B *911:10 0.000192228
24 *2686:B *930:62 0.00019033
25 *2721:B *2721:A1 0.000415026
26 *2721:B *934:58 0.000267419
27 *2734:B *915:12 8.67097e-05
28 *2745:B *2745:A1 1.9093e-05
29 *2745:B *917:30 7.949e-05
30 *2758:B *2757:A1 2.35868e-05
31 *2763:A2 *2322:A3 3.98158e-05
32 *2763:A2 *2763:A1 3.97987e-05
33 *2763:A2 *3145:I 2.72937e-05
34 *2763:A2 *3148:I 5.30751e-05
35 *2763:A2 *923:12 0.000436469
36 *2763:A2 *923:16 9.85004e-05
37 *2763:A2 *925:27 0
38 *784:46 *915:12 0.000932523
39 *784:52 *2730:A1 0.000536348
40 *784:52 *913:19 0.000781644
41 *784:52 *913:21 0.000237101
42 *784:69 *2473:A1 4.90456e-05
43 *784:116 *2674:A1 8.49208e-05
44 *784:116 *2674:A3 1.16291e-05
45 *784:116 *2747:A2 8.65898e-05
46 *784:116 *917:36 0.000591874
47 *784:135 *917:36 9.39061e-05
48 *784:158 *2298:I 5.60661e-06
49 *784:158 *2677:A1 0.000246608
50 *784:158 *2765:A1 0.000742695
51 *784:158 *2872:A1 0
52 *784:158 *3139:I 0.000402423
53 *784:158 *3146:I 0
54 *784:158 *926:8 1.27836e-05
55 *784:170 *923:16 2.08301e-05
56 *784:170 *949:10 1.31826e-05
57 *2348:A1 *784:16 2.88229e-05
58 *2348:A2 *784:16 6.1578e-05
59 *2473:A2 *784:69 1.17652e-05
60 *2474:B *784:69 0.000536348
61 *2476:A1 *2686:B 0.00279203
62 *2476:A1 *784:52 0
63 *2476:A1 *784:69 0.00135328
64 *2486:B *2758:B 0.000255759
65 *2488:B *784:135 0
66 *2675:A3 *2758:B 0.000168028
67 *2675:A4 *2754:B 0.00052864
68 *2679:A2 *2758:B 0.000201539
69 *2710:A1 *2686:B 0.000791913
70 *2720:B2 *2721:B 0.000327716
71 *2738:A2 *784:46 0
72 *2738:A2 *784:52 0.000452453
73 *2738:C *784:46 0.000518142
74 *2747:A3 *2745:B 9.88521e-05
75 *2749:B1 *784:16 0.000713554
76 *2750:A1 *784:16 5.30888e-06
77 *2750:A2 *784:16 0.000215392
78 *2752:I *2758:B 0.000109556
79 *2754:A2 *2754:B 0.000164219
80 *2755:A1 *2758:B 0.000111446
81 *2755:A2 *2758:B 7.54325e-05
82 *2759:A2 *2758:B 0.00109887
83 *2763:A3 *2763:A2 0.000110083
84 *2763:A3 *784:170 0.000140719
85 *2765:A3 *2765:A2 0.000347906
86 *2765:A3 *784:135 0.000161479
87 *2847:A2 *784:16 4.32092e-05
88 *2882:B *784:158 0.000146763
89 *2884:A2 *2764:A2 1.35718e-05
90 *2884:A2 *784:158 2.54454e-05
91 *2886:A1 *2763:A2 7.73538e-05
92 *2887:A2 *2764:A2 0.000147005
93 *2887:A2 *784:158 0.000142139
94 *2953:D *784:135 0
95 *3020:D *2686:B 0.000148661
96 *3020:CLK *2686:B 7.76619e-05
97 *3023:D *2686:B 0.000455766
98 *3023:D *784:69 0.000708285
99 *3025:CLK *2730:B 0.000216299
100 *3025:CLK *784:69 0.000297533
101 *3026:D *2734:B 8.68281e-06
102 *3026:CLK *2734:B 4.58451e-05
103 *3030:D *784:16 2.26729e-05
104 *3033:CLK *2758:B 4.2405e-05
105 *3035:D *2763:A2 0.000165831
106 *3037:D *784:158 0.000141235
107 *3056:D *2763:A2 1.37934e-05
108 *3074:D *784:16 3.24779e-05
109 *3201:I *2763:A2 0.000486234
110 *3214:I *784:16 9.30128e-05
111 *10:20 *2734:B 0
112 *10:20 *784:46 0
113 *10:55 *784:16 0.000688181
114 *10:55 *784:116 3.99899e-05
115 *253:16 *784:158 0.000408906
116 *372:60 *784:16 0
117 *372:103 *2686:B 0.000735021
118 *372:105 *2686:B 0.000435991
119 *372:107 *2686:B 0.000135666
120 *372:115 *2686:B 0.000446041
121 *372:208 *784:16 0.000460856
122 *372:208 *784:29 0.000271625
123 *372:208 *784:42 8.95825e-05
124 *372:208 *784:46 0.000161268
125 *496:24 *784:116 0
126 *496:24 *784:158 0.000273915
127 *502:26 *2758:B 0.000126715
128 *502:67 *784:158 3.55431e-05
129 *502:84 *784:135 0.00018615
130 *502:84 *784:158 1.30271e-05
131 *502:111 *784:170 1.39839e-05
132 *502:191 *784:52 8.429e-05
133 *502:191 *784:69 0
134 *503:158 *2686:B 0.000269353
135 *538:10 *784:52 0.000226227
136 *543:6 *2745:B 3.01487e-05
137 *543:25 *784:135 5.26484e-05
138 *549:12 *2754:B 9.39061e-05
139 *549:29 *784:16 0.000335957
140 *549:29 *784:29 0.000591199
141 *552:16 *2758:B 0.000305845
142 *599:18 *784:135 0.000242359
143 *599:18 *784:158 0.000157224
144 *599:38 *784:135 0.00146937
145 *599:44 *784:116 0.000757521
146 *599:44 *784:135 0.00117993
147 *704:10 *2754:B 1.61217e-05
148 *704:10 *2758:B 0.000176289
149 *704:34 *784:29 2.08301e-05
150 *704:34 *784:42 7.16036e-05
151 *704:34 *784:46 0.00111885
152 *704:43 *784:46 0.000247231
153 *704:47 *784:52 8.56798e-05
154 *704:91 *784:52 3.10415e-05
155 *706:12 *784:135 0.00027498
156 *706:16 *784:135 2.54722e-05
157 *711:66 *2686:B 3.06117e-05
158 *756:144 *784:16 1.13218e-05
159 *756:148 *784:16 0.000208441
160 *759:36 *784:158 0.000496512
161 *778:268 *2730:B 2.29944e-05
162 *778:268 *784:69 4.03603e-05
163 *783:92 *2765:A2 0.000356014
164 *783:92 *784:135 0.000320153
*RES
1 *3214:Z *784:16 25.74 
2 *784:16 *2758:B 22.77 
3 *784:16 *784:29 1.89 
4 *784:29 *2754:B 14.85 
5 *784:29 *784:42 0.81 
6 *784:42 *784:46 7.56 
7 *784:46 *784:52 14.85 
8 *784:52 *2730:B 5.13 
9 *784:52 *784:69 12.24 
10 *784:69 *2686:B 27.36 
11 *784:69 *2721:B 11.16 
12 *784:46 *2734:B 7.02 
13 *784:42 *784:116 17.19 
14 *784:116 *2745:B 9.81 
15 *784:116 *784:135 13.86 
16 *784:135 *2765:A2 5.49 
17 *784:135 *784:158 24.03 
18 *784:158 *784:170 19.17 
19 *784:170 *2763:A2 19.62 
20 *784:170 *2762:A2 4.5 
21 *784:158 *2764:A2 9.45 
*END

*D_NET *785 0.000670529
*CONN
*I *2667:A1 I *D gf180mcu_fd_sc_mcu7t5v0__nor2_1
*I *2315:ZN O *D gf180mcu_fd_sc_mcu7t5v0__clkinv_1
*CAP
1 *2667:A1 0.000243656
2 *2315:ZN 0.000243656
3 *2383:B2 *2667:A1 0
4 *2626:A1 *2667:A1 5.74621e-06
5 *2667:A2 *2667:A1 1.0415e-05
6 *3117:I *2667:A1 0.000167055
*RES
1 *2315:ZN *2667:A1 10.98 
*END

*D_NET *786 0.000697695
*CONN
*I *2687:A2 I *D gf180mcu_fd_sc_mcu7t5v0__aoi21_1
*I *2684:ZN O *D gf180mcu_fd_sc_mcu7t5v0__clkinv_1
*CAP
1 *2687:A2 0.000208563
2 *2684:ZN 0.000208563
3 *2687:A2 *2692:A3 0.000238712
4 *3016:D *2687:A2 2.37509e-05
5 *372:123 *2687:A2 1.81062e-05
6 *711:57 *2687:A2 0
7 *711:66 *2687:A2 0
*RES
1 *2684:ZN *2687:A2 19.89 
*END

*D_NET *787 0.0049268
*CONN
*I *2874:A1 I *D gf180mcu_fd_sc_mcu7t5v0__nand2_1
*I *3138:Z O *D gf180mcu_fd_sc_mcu7t5v0__dlyc_1
*CAP
1 *2874:A1 0.0005142
2 *3138:Z 0.0005142
3 *2874:A1 *2848:A1 0.0017629
4 *2874:A1 *2872:A1 1.00177e-05
5 *2874:A1 *2885:A1 2.71701e-05
6 *2805:A2 *2874:A1 0.000768307
7 *2806:A1 *2874:A1 0.000425761
8 *2882:A1 *2874:A1 0.000203958
9 *2885:A2 *2874:A1 0.000213967
10 *249:27 *2874:A1 7.12242e-07
11 *252:30 *2874:A1 2.91742e-05
12 *588:18 *2874:A1 9.26498e-05
13 *589:19 *2874:A1 6.9357e-05
14 *759:26 *2874:A1 0.000294424
*RES
1 *3138:Z *2874:A1 17.28 
*END

*D_NET *788 0.00143276
*CONN
*I *2301:I I *D gf180mcu_fd_sc_mcu7t5v0__clkinv_1
*I *3139:Z O *D gf180mcu_fd_sc_mcu7t5v0__dlyc_1
*CAP
1 *2301:I 0.000279901
2 *3139:Z 0.000279901
3 *2301:I *2322:A3 0.000409214
4 *2322:A2 *2301:I 3.99898e-05
5 *2504:A1 *2301:I 4.74921e-05
6 *2508:B *2301:I 3.07839e-05
7 *251:12 *2301:I 0.000229573
8 *706:65 *2301:I 0.000115907
*RES
1 *3139:Z *2301:I 12.06 
*END

*D_NET *789 0.000785197
*CONN
*I *2304:I I *D gf180mcu_fd_sc_mcu7t5v0__clkinv_1
*I *3140:Z O *D gf180mcu_fd_sc_mcu7t5v0__dlyc_1
*CAP
1 *2304:I 5.93416e-05
2 *3140:Z 5.93416e-05
3 *2304:I *2878:B2 0.000130165
4 *705:10 *2304:I 0.000427025
5 *705:14 *2304:I 0.000109323
*RES
1 *3140:Z *2304:I 19.35 
*END

*D_NET *790 0.00178047
*CONN
*I *2303:I I *D gf180mcu_fd_sc_mcu7t5v0__clkinv_1
*I *3141:Z O *D gf180mcu_fd_sc_mcu7t5v0__dlyc_1
*CAP
1 *2303:I 0.00030578
2 *3141:Z 0.00030578
3 *2303:I *2501:A1 1.18477e-05
4 *2303:I *2878:B2 3.21843e-05
5 *2303:I *945:10 0.000275309
6 *2960:D *2303:I 1.85234e-05
7 *2960:CLK *2303:I 0.000449911
8 *656:14 *2303:I 0.000381132
*RES
1 *3141:Z *2303:I 21.87 
*END

*D_NET *791 0.00358157
*CONN
*I *2313:I I *D gf180mcu_fd_sc_mcu7t5v0__clkinv_1
*I *2807:A1 I *D gf180mcu_fd_sc_mcu7t5v0__or4_1
*I *3207:Z O *D gf180mcu_fd_sc_mcu7t5v0__dlyb_1
*CAP
1 *2313:I 0.00081097
2 *2807:A1 0.000291447
3 *3207:Z 0
4 *791:6 0.00110242
5 *2807:A1 *2317:A4 0.000142874
6 *2807:A1 *2807:A2 4.05659e-05
7 *2312:I *2313:I 3.85331e-05
8 *2318:A2 *2313:I 3.08806e-05
9 *2318:A2 *2807:A1 1.849e-05
10 *2808:A1 *2807:A1 4.34597e-05
11 *3205:I *2313:I 0.000213046
12 *3206:I *2313:I 0.000289201
13 *3207:I *2313:I 0.000436478
14 *3208:I *2313:I 3.60189e-05
15 *247:24 *2807:A1 5.54944e-05
16 *732:12 *2313:I 3.16918e-05
*RES
1 *3207:Z *791:6 9 
2 *791:6 *2807:A1 11.43 
3 *791:6 *2313:I 16.02 
*END

*D_NET *792 0.00042524
*CONN
*I *2306:I I *D gf180mcu_fd_sc_mcu7t5v0__clkinv_1
*I *3142:Z O *D gf180mcu_fd_sc_mcu7t5v0__dlyc_1
*CAP
1 *2306:I 0.000173438
2 *3142:Z 0.000173438
3 *2306:I *942:8 7.55765e-06
4 *502:18 *2306:I 3.95023e-05
5 *778:10 *2306:I 3.13041e-05
*RES
1 *3142:Z *2306:I 10.26 
*END

*D_NET *793 0.00339709
*CONN
*I *2298:I I *D gf180mcu_fd_sc_mcu7t5v0__clkinv_1
*I *3143:Z O *D gf180mcu_fd_sc_mcu7t5v0__dlyc_1
*CAP
1 *2298:I 0.000578411
2 *3143:Z 0.000578411
3 *2298:I *2872:A1 5.34517e-05
4 *2510:A1 *2298:I 0.000404299
5 *2873:A2 *2298:I 2.36152e-06
6 *2881:B *2298:I 0.000739854
7 *2882:A1 *2298:I 9.51606e-05
8 *2882:A2 *2298:I 0.000546589
9 *2882:B *2298:I 0.000153839
10 *3055:D *2298:I 2.72633e-05
11 *705:8 *2298:I 0.000141012
12 *759:36 *2298:I 7.083e-05
13 *784:158 *2298:I 5.60661e-06
*RES
1 *3143:Z *2298:I 24.21 
*END

*D_NET *794 0.00150798
*CONN
*I *2302:I I *D gf180mcu_fd_sc_mcu7t5v0__clkinv_1
*I *3144:Z O *D gf180mcu_fd_sc_mcu7t5v0__dlyc_1
*CAP
1 *2302:I 0.000220236
2 *3144:Z 0.000220236
3 *2302:I *2834:B2 0.000569434
4 *2302:I *2834:C2 0.000213904
5 *2302:I *944:8 6.46011e-06
6 *2484:C *2302:I 2.4613e-05
7 *2500:A1 *2302:I 3.01487e-05
8 *2834:B1 *2302:I 1.06822e-05
9 *2959:CLK *2302:I 2.08301e-05
10 *2967:D *2302:I 6.2083e-06
11 *599:54 *2302:I 8.67249e-05
12 *778:38 *2302:I 9.85004e-05
*RES
1 *3144:Z *2302:I 20.43 
*END

*D_NET *795 0.00168247
*CONN
*I *2300:I I *D gf180mcu_fd_sc_mcu7t5v0__clkinv_1
*I *3145:Z O *D gf180mcu_fd_sc_mcu7t5v0__dlyc_1
*CAP
1 *2300:I 0.000118077
2 *3145:Z 0.000118077
3 *2300:I *2507:A1 0.000244819
4 *2506:A1 *2300:I 8.03845e-05
5 *2889:A2 *2300:I 0.000598962
6 *3057:D *2300:I 7.86922e-05
7 *756:50 *2300:I 0.000382866
8 *756:104 *2300:I 6.05946e-05
*RES
1 *3145:Z *2300:I 20.79 
*END

*D_NET *796 0.00141704
*CONN
*I *2305:I I *D gf180mcu_fd_sc_mcu7t5v0__clkinv_1
*I *3146:Z O *D gf180mcu_fd_sc_mcu7t5v0__dlyc_1
*CAP
1 *2305:I 0.000294128
2 *3146:Z 0.000294128
3 *2305:I *2503:A1 0
4 *2488:C *2305:I 9.51953e-05
5 *2858:C1 *2305:I 2.82084e-05
6 *2887:A2 *2305:I 0.000101624
7 *756:598 *2305:I 0.000205718
8 *756:600 *2305:I 0.000229426
9 *778:364 *2305:I 0
10 *778:377 *2305:I 0.000154129
11 *778:392 *2305:I 1.44866e-05
*RES
1 *3146:Z *2305:I 21.33 
*END

*D_NET *797 0.00284402
*CONN
*I *2307:I I *D gf180mcu_fd_sc_mcu7t5v0__clkinv_1
*I *3147:Z O *D gf180mcu_fd_sc_mcu7t5v0__dlyc_1
*CAP
1 *2307:I 0.000196405
2 *3147:Z 0.000196405
3 *2307:I *2827:A1 0.00164651
4 *2480:A1 *2307:I 0.000198568
5 *2482:A1 *2307:I 0
6 *2958:D *2307:I 7.58723e-05
7 *2959:CLK *2307:I 0.00052094
8 *778:38 *2307:I 9.3226e-06
*RES
1 *3147:Z *2307:I 22.5 
*END

*D_NET *798 0.00252578
*CONN
*I *2299:I I *D gf180mcu_fd_sc_mcu7t5v0__clkinv_1
*I *3148:Z O *D gf180mcu_fd_sc_mcu7t5v0__dlyc_1
*CAP
1 *2299:I 0.000442262
2 *3148:Z 0.000442262
3 *2299:I *2322:A3 0.000415045
4 *2506:A1 *2299:I 0.000133934
5 *2506:A2 *2299:I 7.11037e-06
6 *2506:B *2299:I 1.68677e-06
7 *3201:I *2299:I 0.000101615
8 *756:12 *2299:I 0.000391051
9 *756:42 *2299:I 0.000449918
10 *756:104 *2299:I 0.000140894
*RES
1 *3148:Z *2299:I 22.5 
*END

*D_NET *799 0.000316304
*CONN
*I *2308:I I *D gf180mcu_fd_sc_mcu7t5v0__clkinv_1
*I *3149:Z O *D gf180mcu_fd_sc_mcu7t5v0__dlyc_1
*CAP
1 *2308:I 0.000158152
2 *3149:Z 0.000158152
3 *2474:A1 *2308:I 0
*RES
1 *3149:Z *2308:I 9.99 
*END

*D_NET *800 0.00339143
*CONN
*I *2872:A1 I *D gf180mcu_fd_sc_mcu7t5v0__aoi22_1
*I *3150:Z O *D gf180mcu_fd_sc_mcu7t5v0__dlyc_1
*CAP
1 *2872:A1 0.0007911
2 *3150:Z 0.0007911
3 *2872:A1 *2885:A1 0.000378798
4 *2298:I *2872:A1 5.34517e-05
5 *2321:A2 *2872:A1 0.000185705
6 *2805:A2 *2872:A1 5.30888e-06
7 *2806:A1 *2872:A1 2.10982e-05
8 *2874:A1 *2872:A1 1.00177e-05
9 *2882:A1 *2872:A1 6.93035e-05
10 *2884:A1 *2872:A1 0
11 *2884:A3 *2872:A1 0
12 *2884:B *2872:A1 3.356e-05
13 *2885:A2 *2872:A1 2.65444e-06
14 *249:27 *2872:A1 0.000681736
15 *253:16 *2872:A1 3.54696e-05
16 *590:10 *2872:A1 2.37695e-05
17 *759:26 *2872:A1 0.000308353
18 *784:158 *2872:A1 0
*RES
1 *3150:Z *2872:A1 24.93 
*END

*D_NET *801 0.00665731
*CONN
*I *2848:A1 I *D gf180mcu_fd_sc_mcu7t5v0__aoi22_1
*I *3151:Z O *D gf180mcu_fd_sc_mcu7t5v0__dlyc_1
*CAP
1 *2848:A1 0.000588817
2 *3151:Z 0.000588817
3 *2849:A2 *2848:A1 0.000282246
4 *2865:A1 *2848:A1 2.32821e-05
5 *2874:A1 *2848:A1 0.0017629
6 *2874:A2 *2848:A1 5.51279e-05
7 *3051:CLK *2848:A1 0.000507492
8 *3054:CLK *2848:A1 0.000927891
9 *588:18 *2848:A1 2.26729e-05
10 *589:23 *2848:A1 0.000296469
11 *589:25 *2848:A1 0.000948545
12 *705:91 *2848:A1 0.00045592
13 *756:344 *2848:A1 2.36914e-05
14 *756:558 *2848:A1 9.65355e-06
15 *768:14 *2848:A1 0.000157987
16 *782:14 *2848:A1 5.79059e-06
*RES
1 *3151:Z *2848:A1 19.62 
*END

*D_NET *802 0.00186211
*CONN
*I *2317:A2 I *D gf180mcu_fd_sc_mcu7t5v0__or4_1
*I *2807:A2 I *D gf180mcu_fd_sc_mcu7t5v0__or4_1
*I *3208:Z O *D gf180mcu_fd_sc_mcu7t5v0__dlyb_1
*CAP
1 *2317:A2 0.000348333
2 *2807:A2 0.000155105
3 *3208:Z 0
4 *802:4 0.000503438
5 *2317:A2 *2317:A3 0.000369185
6 *2807:A2 *2807:A3 0.000445479
7 *2807:A2 *813:8 0
8 *2807:A1 *2807:A2 4.05659e-05
9 *2808:A1 *2807:A2 0
10 *3207:I *2317:A2 0
11 *3208:I *2317:A2 0
*RES
1 *3208:Z *802:4 4.5 
2 *802:4 *2807:A2 14.85 
3 *802:4 *2317:A2 7.47 
*END

*D_NET *803 0.00426378
*CONN
*I *2856:A1 I *D gf180mcu_fd_sc_mcu7t5v0__aoi22_1
*I *3152:Z O *D gf180mcu_fd_sc_mcu7t5v0__dlyc_1
*CAP
1 *2856:A1 0.000728767
2 *3152:Z 0.000728767
3 DAT_O[6] *2856:A1 0.000169515
4 *2856:B2 *2856:A1 7.191e-07
5 *2857:A2 *2856:A1 0.00124489
6 *2872:A2 *2856:A1 0.000102859
7 *2872:B2 *2856:A1 7.50811e-05
8 *2873:A2 *2856:A1 0.000229929
9 *2881:B *2856:A1 1.68605e-05
10 *2882:A1 *2856:A1 0.000213967
11 *3054:D *2856:A1 0.000565804
12 *3055:D *2856:A1 2.88199e-05
13 *589:19 *2856:A1 0.000132514
14 *589:23 *2856:A1 0
15 *589:25 *2856:A1 0
16 *590:10 *2856:A1 2.52908e-05
17 *689:12 *2856:A1 0
*RES
1 *3152:Z *2856:A1 26.1 
*END

*D_NET *804 0.00120218
*CONN
*I *2840:A1 I *D gf180mcu_fd_sc_mcu7t5v0__aoi22_1
*I *3153:Z O *D gf180mcu_fd_sc_mcu7t5v0__dlyc_1
*CAP
1 *2840:A1 0.000381344
2 *3153:Z 0.000381344
3 *2832:A2 *2840:A1 0
4 *2848:B2 *2840:A1 2.78423e-05
5 *3049:D *2840:A1 0
6 *3177:I *2840:A1 2.70026e-05
7 *3234:I *2840:A1 7.42874e-05
8 *756:344 *2840:A1 8.69576e-05
9 *782:14 *2840:A1 0.000223407
*RES
1 *3153:Z *2840:A1 20.52 
*END

*D_NET *805 0.00482256
*CONN
*I *2864:A1 I *D gf180mcu_fd_sc_mcu7t5v0__aoi22_1
*I *3154:Z O *D gf180mcu_fd_sc_mcu7t5v0__dlyc_1
*CAP
1 *2864:A1 0.0011959
2 *3154:Z 0.0011959
3 DAT_O[5] *2864:A1 0.000319702
4 *2865:A2 *2864:A1 0.000308999
5 *2872:B2 *2864:A1 0.000117518
6 *3221:I *2864:A1 0.00011462
7 *247:80 *2864:A1 0.000718704
8 *590:35 *2864:A1 0.000127736
9 *590:41 *2864:A1 1.61174e-05
10 *705:61 *2864:A1 0.000164228
11 *705:76 *2864:A1 0.000256745
12 *759:36 *2864:A1 0.000286386
*RES
1 *3154:Z *2864:A1 38.97 
*END

*D_NET *806 0.00160681
*CONN
*I *2824:A1 I *D gf180mcu_fd_sc_mcu7t5v0__aoi22_1
*I *3155:Z O *D gf180mcu_fd_sc_mcu7t5v0__dlyc_1
*CAP
1 *2824:A1 0.000372988
2 *3155:Z 0.000372988
3 *2824:A1 *2832:A1 0
4 *2824:A2 *2824:A1 1.61174e-05
5 *2825:A2 *2824:A1 0.000164053
6 *2833:A1 *2824:A1 5.0969e-05
7 *3049:D *2824:A1 0.000125726
8 *248:8 *2824:A1 4.78068e-05
9 *702:81 *2824:A1 5.17969e-05
10 *756:344 *2824:A1 8.86895e-05
11 *756:348 *2824:A1 0.000151417
12 *782:14 *2824:A1 0.000164262
*RES
1 *3155:Z *2824:A1 21.87 
*END

*D_NET *807 0.00112486
*CONN
*I *2799:A1 I *D gf180mcu_fd_sc_mcu7t5v0__aoi21_1
*I *3156:Z O *D gf180mcu_fd_sc_mcu7t5v0__dlyc_1
*CAP
1 *2799:A1 0.000441527
2 *3156:Z 0.000441527
3 *2799:A2 *2799:A1 1.07374e-05
4 *2799:B *2799:A1 1.07374e-05
5 *371:83 *2799:A1 3.22122e-05
6 *708:20 *2799:A1 0.000116486
7 *722:22 *2799:A1 0
8 *722:33 *2799:A1 7.16298e-05
*RES
1 *3156:Z *2799:A1 21.33 
*END

*D_NET *808 0.00290929
*CONN
*I *2832:A1 I *D gf180mcu_fd_sc_mcu7t5v0__aoi22_1
*I *3157:Z O *D gf180mcu_fd_sc_mcu7t5v0__dlyc_1
*CAP
1 *2832:A1 0.000404622
2 *3157:Z 0.000404622
3 *2824:A1 *2832:A1 0
4 *2832:A2 *2832:A1 6.98229e-05
5 *3048:D *2832:A1 0.00037349
6 *3049:D *2832:A1 0.000990719
7 *3077:CLK *2832:A1 3.37908e-05
8 *3234:I *2832:A1 0.000327505
9 *702:81 *2832:A1 0.000137179
10 *782:14 *2832:A1 0.000167534
*RES
1 *3157:Z *2832:A1 23.4 
*END

*D_NET *809 0.00230277
*CONN
*I *2426:A1 I *D gf180mcu_fd_sc_mcu7t5v0__nor2_1
*I *3158:Z O *D gf180mcu_fd_sc_mcu7t5v0__dlyc_1
*CAP
1 *2426:A1 0.000678923
2 *3158:Z 0.000678923
3 *2426:A1 *2436:A1 0.000431976
4 *2426:A1 *2941:D 1.50702e-05
5 *2422:A2 *2426:A1 0.000169908
6 *2425:A1 *2426:A1 0
7 *2437:A1 *2426:A1 0
8 *2437:A2 *2426:A1 0.00032797
9 *3161:I *2426:A1 0
10 *781:67 *2426:A1 0
*RES
1 *3158:Z *2426:A1 23.4 
*END

*D_NET *810 0.000863051
*CONN
*I *2938:D I *D gf180mcu_fd_sc_mcu7t5v0__dffq_1
*I *3159:Z O *D gf180mcu_fd_sc_mcu7t5v0__dlyc_1
*CAP
1 *2938:D 0.00040885
2 *3159:Z 0.00040885
3 *2938:D *2435:A1 0
4 *2428:A1 *2938:D 4.53515e-05
*RES
1 *3159:Z *2938:D 11.7 
*END

*D_NET *811 0.0019302
*CONN
*I *2435:A1 I *D gf180mcu_fd_sc_mcu7t5v0__nor2_1
*I *3160:Z O *D gf180mcu_fd_sc_mcu7t5v0__dlyc_1
*CAP
1 *2435:A1 0.000370166
2 *3160:Z 0.000370166
3 *2428:A2 *2435:A1 0.000351718
4 *2434:A1 *2435:A1 0
5 *2938:D *2435:A1 0
6 *3094:I *2435:A1 0
7 *3159:I *2435:A1 0.000838147
8 *781:60 *2435:A1 0
*RES
1 *3160:Z *2435:A1 22.14 
*END

*D_NET *812 0.00167441
*CONN
*I *2941:D I *D gf180mcu_fd_sc_mcu7t5v0__dffq_1
*I *3161:Z O *D gf180mcu_fd_sc_mcu7t5v0__dlyc_1
*CAP
1 *2941:D 0.000154203
2 *3161:Z 0.000154203
3 *2425:A1 *2941:D 0.000893051
4 *2426:A1 *2941:D 1.50702e-05
5 *3161:I *2941:D 0.00016346
6 *781:67 *2941:D 0.000294421
*RES
1 *3161:Z *2941:D 21.06 
*END

*D_NET *813 0.00391917
*CONN
*I *2317:A4 I *D gf180mcu_fd_sc_mcu7t5v0__or4_1
*I *2807:A4 I *D gf180mcu_fd_sc_mcu7t5v0__or4_1
*I *3209:Z O *D gf180mcu_fd_sc_mcu7t5v0__dlyb_1
*CAP
1 *2317:A4 0.000166979
2 *2807:A4 0.00041366
3 *3209:Z 7.42935e-05
4 *813:8 0.000654932
5 *2317:A4 *2317:A3 0.000955358
6 *2317:A4 *824:6 0.000540332
7 *2807:A4 *2591:A1 0
8 *2807:A4 *2807:A3 0
9 *2318:A1 *2317:A4 9.85004e-05
10 *2807:A1 *2317:A4 0.000142874
11 *2807:A2 *813:8 0
12 *3058:D *2807:A4 0
13 *247:24 *2317:A4 0.000183652
14 *247:24 *2807:A4 0.000177559
15 *591:30 *2807:A4 8.52804e-05
16 *780:13 *2317:A4 0.000425752
*RES
1 *3209:Z *813:8 9.45 
2 *813:8 *2807:A4 12.24 
3 *813:8 *2317:A4 13.05 
*END

*D_NET *814 0.00164739
*CONN
*I *2885:A1 I *D gf180mcu_fd_sc_mcu7t5v0__nand2_1
*I *3162:Z O *D gf180mcu_fd_sc_mcu7t5v0__dlyc_1
*CAP
1 *2885:A1 0.000314782
2 *3162:Z 0.000314782
3 *2872:A1 *2885:A1 0.000378798
4 *2874:A1 *2885:A1 2.71701e-05
5 *2884:B *2885:A1 3.21834e-05
6 *2886:A1 *2885:A1 0.000220914
7 *2886:A2 *2885:A1 4.10396e-06
8 *249:27 *2885:A1 0.000167534
9 *252:30 *2885:A1 0.00013877
10 *588:18 *2885:A1 0
11 *759:26 *2885:A1 4.83522e-05
*RES
1 *3162:Z *2885:A1 13.14 
*END

*D_NET *815 0.000395682
*CONN
*I *2281:I I *D gf180mcu_fd_sc_mcu7t5v0__clkinv_1
*I *3163:Z O *D gf180mcu_fd_sc_mcu7t5v0__dlyc_1
*CAP
1 *2281:I 0.000197841
2 *3163:Z 0.000197841
*RES
1 *3163:Z *2281:I 10.35 
*END

*D_NET *816 0.0011538
*CONN
*I *2785:A1 I *D gf180mcu_fd_sc_mcu7t5v0__nand2_1
*I *3164:Z O *D gf180mcu_fd_sc_mcu7t5v0__dlyc_1
*CAP
1 *2785:A1 0.000306776
2 *3164:Z 0.000306776
3 *2785:A1 *2786:A1 0.000173347
4 *2785:A1 *961:8 0.000169524
5 *2781:A2 *2785:A1 0
6 *2785:A2 *2785:A1 0
7 *2788:A2 *2785:A1 0.000108767
8 *570:16 *2785:A1 6.77031e-05
9 *572:6 *2785:A1 2.09122e-05
*RES
1 *3164:Z *2785:A1 20.88 
*END

*D_NET *817 0.00142553
*CONN
*I *2424:A1 I *D gf180mcu_fd_sc_mcu7t5v0__oai21_1
*I *3165:Z O *D gf180mcu_fd_sc_mcu7t5v0__dlyc_1
*CAP
1 *2424:A1 0.000511782
2 *3165:Z 0.000511782
3 *2424:A1 *2851:A1 4.6984e-06
4 *2424:A1 *2866:A1 0.00036506
5 *2937:D *2424:A1 0
6 *597:65 *2424:A1 3.22122e-05
*RES
1 *3165:Z *2424:A1 13.14 
*END

*D_NET *818 0.000253567
*CONN
*I *2439:A1 I *D gf180mcu_fd_sc_mcu7t5v0__oai21_1
*I *3166:Z O *D gf180mcu_fd_sc_mcu7t5v0__dlyc_1
*CAP
1 *2439:A1 0.000122802
2 *3166:Z 0.000122802
3 *2439:A1 *892:8 7.96333e-06
*RES
1 *3166:Z *2439:A1 9.99 
*END

*D_NET *819 0.00175924
*CONN
*I *2537:A1 I *D gf180mcu_fd_sc_mcu7t5v0__nor2_1
*I *2296:I I *D gf180mcu_fd_sc_mcu7t5v0__clkinv_1
*I *3167:Z O *D gf180mcu_fd_sc_mcu7t5v0__dlyc_1
*CAP
1 *2537:A1 0.00014839
2 *2296:I 0.000247576
3 *3167:Z 0.000291864
4 *819:10 0.000687829
5 *2296:I *3167:I 0.000123964
6 *2537:A1 *2540:A1 2.22139e-05
7 *2537:A1 *884:10 0
8 *819:10 *884:10 0
9 *819:10 *885:6 0
10 *2536:A2 *2296:I 0
11 *2537:A2 *2296:I 7.77511e-05
12 *2537:A2 *2537:A1 4.90636e-05
13 *2537:A2 *819:10 7.92852e-05
14 *2538:A1 *819:10 2.1228e-05
15 *2539:A2 *2296:I 1.00788e-05
*RES
1 *3167:Z *819:10 6.57 
2 *819:10 *2296:I 14.94 
3 *819:10 *2537:A1 5.49 
*END

*D_NET *820 0.000700678
*CONN
*I *2412:A1 I *D gf180mcu_fd_sc_mcu7t5v0__oai21_1
*I *3168:Z O *D gf180mcu_fd_sc_mcu7t5v0__dlyc_1
*CAP
1 *2412:A1 1.76982e-05
2 *3168:Z 1.76982e-05
3 *2416:A1 *2412:A1 0.000212085
4 *779:49 *2412:A1 0.000453197
*RES
1 *3168:Z *2412:A1 19.17 
*END

*D_NET *821 0.00138851
*CONN
*I *2430:A1 I *D gf180mcu_fd_sc_mcu7t5v0__oai21_1
*I *3169:Z O *D gf180mcu_fd_sc_mcu7t5v0__dlyc_1
*CAP
1 *2430:A1 5.30598e-05
2 *3169:Z 5.30598e-05
3 *2430:A1 *2866:C1 0.000782491
4 *2431:A2 *2430:A1 0.000294421
5 *781:60 *2430:A1 0.000205482
*RES
1 *3169:Z *2430:A1 11.07 
*END

*D_NET *822 0.000523243
*CONN
*I *2939:D I *D gf180mcu_fd_sc_mcu7t5v0__dffq_1
*I *3170:Z O *D gf180mcu_fd_sc_mcu7t5v0__dlyc_1
*CAP
1 *2939:D 0.000261621
2 *3170:Z 0.000261621
*RES
1 *3170:Z *2939:D 10.8 
*END

*D_NET *823 0.000577867
*CONN
*I *2367:I0 I *D gf180mcu_fd_sc_mcu7t5v0__mux2_2
*I *3171:Z O *D gf180mcu_fd_sc_mcu7t5v0__dlyc_1
*CAP
1 *2367:I0 7.28726e-05
2 *3171:Z 7.28726e-05
3 *250:18 *2367:I0 0.000370036
4 *686:10 *2367:I0 6.20854e-05
*RES
1 *3171:Z *2367:I0 18.99 
*END

*D_NET *824 0.00435811
*CONN
*I *2807:A3 I *D gf180mcu_fd_sc_mcu7t5v0__or4_1
*I *2317:A3 I *D gf180mcu_fd_sc_mcu7t5v0__or4_1
*I *3210:Z O *D gf180mcu_fd_sc_mcu7t5v0__dlyb_1
*CAP
1 *2807:A3 0.000139968
2 *2317:A3 0.000157746
3 *3210:Z 0.0005531
4 *824:6 0.000850815
5 *2317:A2 *2317:A3 0.000369185
6 *2317:A4 *2317:A3 0.000955358
7 *2317:A4 *824:6 0.000540332
8 *2807:A2 *2807:A3 0.000445479
9 *2807:A4 *2807:A3 0
10 *2808:A1 *2807:A3 0
11 *247:24 *824:6 0.000338163
12 *780:6 *2317:A3 7.96333e-06
*RES
1 *3210:Z *824:6 9.45 
2 *824:6 *2317:A3 7.38 
3 *824:6 *2807:A3 15.03 
*END

*D_NET *825 0.00185796
*CONN
*I *2456:A1 I *D gf180mcu_fd_sc_mcu7t5v0__nor2_1
*I *3172:Z O *D gf180mcu_fd_sc_mcu7t5v0__dlyc_1
*CAP
1 *2456:A1 0.000319003
2 *3172:Z 0.000319003
3 *2456:A1 *2530:A1 0.000436469
4 *2456:A1 *880:27 0.000436469
5 *2533:I *2456:A1 0.000103976
6 *774:14 *2456:A1 0.000243043
*RES
1 *3172:Z *2456:A1 21.6 
*END

*D_NET *826 0.000857702
*CONN
*I *2350:A1 I *D gf180mcu_fd_sc_mcu7t5v0__oai21_1
*I *3173:Z O *D gf180mcu_fd_sc_mcu7t5v0__dlyc_1
*CAP
1 *2350:A1 0.000167167
2 *3173:Z 0.000167167
3 *2350:A1 *2846:B2 6.34901e-05
4 *2864:B2 *2350:A1 0.000190262
5 *2881:A1 *2350:A1 0.000161479
6 *265:37 *2350:A1 0.000108137
*RES
1 *3173:Z *2350:A1 19.8 
*END

*D_NET *827 0.000452639
*CONN
*I *2466:A1 I *D gf180mcu_fd_sc_mcu7t5v0__oai21_1
*I *3174:Z O *D gf180mcu_fd_sc_mcu7t5v0__dlyc_1
*CAP
1 *2466:A1 0.000176807
2 *3174:Z 0.000176807
3 *2466:A1 *2818:A1 6.3006e-05
4 *244:513 *2466:A1 3.60189e-05
5 *778:55 *2466:A1 0
*RES
1 *3174:Z *2466:A1 19.53 
*END

*D_NET *828 0.00464523
*CONN
*I *2522:A1 I *D gf180mcu_fd_sc_mcu7t5v0__oai21_1
*I *2395:A1 I *D gf180mcu_fd_sc_mcu7t5v0__nor2_1
*I *3175:Z O *D gf180mcu_fd_sc_mcu7t5v0__dlyc_1
*CAP
1 *2522:A1 0.000649248
2 *2395:A1 0.000236326
3 *3175:Z 0.000332001
4 *828:10 0.00121758
5 *2394:A1 *2522:A1 0
6 *2397:A1 *2395:A1 0
7 *2400:A1 *2395:A1 0.000429245
8 *2400:A1 *828:10 0.000228675
9 *2519:A3 *2522:A1 1.0415e-05
10 *2522:B *2522:A1 0.000218465
11 *2523:I *2522:A1 0.000152367
12 *3110:I *2395:A1 0.000120329
13 *3125:I *2522:A1 0
14 *3126:I *2395:A1 0
15 *3126:I *828:10 0
16 *296:39 *828:10 0
17 *296:50 *828:10 4.10656e-05
18 *375:12 *2522:A1 1.67605e-05
19 *375:16 *2522:A1 2.09122e-05
20 *377:14 *2522:A1 0.000279846
21 *378:8 *2522:A1 3.72498e-05
22 *378:10 *2522:A1 6.2083e-06
23 *694:35 *2395:A1 4.16005e-05
24 *708:6 *2522:A1 3.98088e-05
25 *708:8 *2522:A1 0.000567131
*RES
1 *3175:Z *828:10 11.88 
2 *828:10 *2395:A1 12.51 
3 *828:10 *2522:A1 23.49 
*END

*D_NET *829 0.00115424
*CONN
*I *2433:A1 I *D gf180mcu_fd_sc_mcu7t5v0__oai21_1
*I *3176:Z O *D gf180mcu_fd_sc_mcu7t5v0__dlyc_1
*CAP
1 *2433:A1 0.00037232
2 *3176:Z 0.00037232
3 *2433:A2 *2433:A1 2.00514e-05
4 *2434:A2 *2433:A1 0.000185737
5 *244:370 *2433:A1 6.46011e-06
6 *694:29 *2433:A1 2.1087e-05
7 *694:102 *2433:A1 0.000173373
8 *779:95 *2433:A1 2.89427e-06
*RES
1 *3176:Z *2433:A1 12.51 
*END

*D_NET *830 0.00197517
*CONN
*I *2356:A1 I *D gf180mcu_fd_sc_mcu7t5v0__oai21_1
*I *3177:Z O *D gf180mcu_fd_sc_mcu7t5v0__dlyc_1
*CAP
1 *2356:A1 0.000166782
2 *3177:Z 0.000166782
3 *2350:B *2356:A1 0.000288831
4 *2356:B *2356:A1 0.000226143
5 *2357:A1 *2356:A1 0
6 *2370:S *2356:A1 0.000282246
7 *2845:B2 *2356:A1 0
8 *3050:D *2356:A1 4.22217e-05
9 *244:186 *2356:A1 6.08431e-05
10 *689:18 *2356:A1 2.36954e-05
11 *782:14 *2356:A1 0.000695914
12 *783:16 *2356:A1 2.17099e-05
*RES
1 *3177:Z *2356:A1 20.88 
*END

*D_NET *831 0.00091222
*CONN
*I *2418:A1 I *D gf180mcu_fd_sc_mcu7t5v0__oai21_1
*I *3178:Z O *D gf180mcu_fd_sc_mcu7t5v0__dlyc_1
*CAP
1 *2418:A1 0.00010856
2 *3178:Z 0.00010856
3 *2836:A2 *2418:A1 4.34691e-05
4 *244:370 *2418:A1 0.000426485
5 *244:376 *2418:A1 0.000161838
6 *601:85 *2418:A1 6.33076e-05
*RES
1 *3178:Z *2418:A1 19.53 
*END

*D_NET *832 0.000853305
*CONN
*I *2421:A1 I *D gf180mcu_fd_sc_mcu7t5v0__oai21_1
*I *3179:Z O *D gf180mcu_fd_sc_mcu7t5v0__dlyc_1
*CAP
1 *2421:A1 0.000346437
2 *3179:Z 0.000346437
3 *2412:B *2421:A1 0.000150016
4 *781:67 *2421:A1 1.0415e-05
*RES
1 *3179:Z *2421:A1 11.7 
*END

*D_NET *833 0.000752809
*CONN
*I *2936:D I *D gf180mcu_fd_sc_mcu7t5v0__dffq_1
*I *3180:Z O *D gf180mcu_fd_sc_mcu7t5v0__dlyc_1
*CAP
1 *2936:D 0.00018966
2 *3180:Z 0.00018966
3 *2422:A2 *2936:D 0.00037349
*RES
1 *3180:Z *2936:D 10.8 
*END

*D_NET *834 0.00140893
*CONN
*I *2415:A1 I *D gf180mcu_fd_sc_mcu7t5v0__oai21_1
*I *3181:Z O *D gf180mcu_fd_sc_mcu7t5v0__dlyc_1
*CAP
1 *2415:A1 0.000431534
2 *3181:Z 0.000431534
3 *2415:A1 *2818:A1 0
4 *2956:CLK *2415:A1 0.000213046
5 *3114:I *2415:A1 0.000278196
6 *694:102 *2415:A1 4.18257e-05
7 *694:138 *2415:A1 1.27919e-05
*RES
1 *3181:Z *2415:A1 12.69 
*END

*D_NET *835 0.00927983
*CONN
*I *2320:A2 I *D gf180mcu_fd_sc_mcu7t5v0__nand2_1
*I *2322:A3 I *D gf180mcu_fd_sc_mcu7t5v0__nand3_1
*I *3211:Z O *D gf180mcu_fd_sc_mcu7t5v0__dlyb_1
*CAP
1 *2320:A2 0.000420942
2 *2322:A3 0.00101825
3 *3211:Z 0.000119979
4 *835:8 0.00155917
5 *2320:A2 *925:10 0.000331329
6 ACK_O *835:8 9.3226e-06
7 *2299:I *2322:A3 0.000415045
8 *2301:I *2322:A3 0.000409214
9 *2320:A1 *2320:A2 0
10 *2323:A1 *2320:A2 2.16372e-05
11 *2323:A2 *2320:A2 2.35077e-05
12 *2323:A3 *2320:A2 0.000117194
13 *2506:A1 *2322:A3 0.000247389
14 *2506:B *2322:A3 4.26496e-05
15 *2508:B *2322:A3 5.64467e-05
16 *2763:A2 *2322:A3 3.98158e-05
17 *2886:B *2322:A3 0.00117172
18 *2889:A2 *2320:A2 0.000152792
19 *2889:A2 *2322:A3 0.000998551
20 *3035:D *2322:A3 0.000265849
21 *3035:D *835:8 0.000286386
22 *3201:I *2322:A3 3.77483e-05
23 *3211:I *2320:A2 0.000133717
24 *252:16 *2320:A2 3.81737e-05
25 *706:65 *2322:A3 0.00050482
26 *706:78 *2322:A3 0.000469308
27 *756:12 *2322:A3 7.00009e-05
28 *756:104 *2322:A3 0.000128839
29 *760:14 *2320:A2 0
30 *760:25 *2320:A2 0.000183993
31 *760:25 *2322:A3 6.0354e-06
*RES
1 *3211:Z *835:8 9.99 
2 *835:8 *2322:A3 22.32 
3 *835:8 *2320:A2 14.4 
*END

*D_NET *836 0.000114966
*CONN
*I *2444:A1 I *D gf180mcu_fd_sc_mcu7t5v0__nor2_1
*I *3182:Z O *D gf180mcu_fd_sc_mcu7t5v0__dlyc_1
*CAP
1 *2444:A1 5.74829e-05
2 *3182:Z 5.74829e-05
*RES
1 *3182:Z *2444:A1 9.45 
*END

*D_NET *837 0.00104639
*CONN
*I *2944:D I *D gf180mcu_fd_sc_mcu7t5v0__dffq_1
*I *3183:Z O *D gf180mcu_fd_sc_mcu7t5v0__dlyc_1
*CAP
1 *2944:D 0.000290182
2 *3183:Z 0.000290182
3 *2944:D *2866:C1 0
4 *2446:A2 *2944:D 0.000466026
*RES
1 *3183:Z *2944:D 20.16 
*END

*D_NET *838 0.000640883
*CONN
*I *2583:B I *D gf180mcu_fd_sc_mcu7t5v0__aoi21_1
*I *2453:A1 I *D gf180mcu_fd_sc_mcu7t5v0__nor2_1
*I *3184:Z O *D gf180mcu_fd_sc_mcu7t5v0__dlyc_1
*CAP
1 *2583:B 0.000240513
2 *2453:A1 1.72449e-05
3 *3184:Z 2.87414e-05
4 *838:6 0.000286499
5 *2583:B *3184:I 5.50184e-05
6 *2450:A2 *2583:B 0
7 *2585:A3 *2583:B 7.55765e-06
8 *2586:A2 *2583:B 5.30888e-06
*RES
1 *3184:Z *838:6 4.77 
2 *838:6 *2453:A1 4.77 
3 *838:6 *2583:B 6.12 
*END

*D_NET *839 0.000821761
*CONN
*I *2368:I0 I *D gf180mcu_fd_sc_mcu7t5v0__mux2_2
*I *3185:Z O *D gf180mcu_fd_sc_mcu7t5v0__dlyc_1
*CAP
1 *2368:I0 6.45134e-05
2 *3185:Z 6.45134e-05
3 *2368:I0 *2846:B2 0.000195949
4 *2881:A1 *2368:I0 0.000496785
*RES
1 *3185:Z *2368:I0 10.35 
*END

*D_NET *840 0.000252725
*CONN
*I *2353:A1 I *D gf180mcu_fd_sc_mcu7t5v0__oai21_1
*I *3186:Z O *D gf180mcu_fd_sc_mcu7t5v0__dlyc_1
*CAP
1 *2353:A1 4.45022e-05
2 *3186:Z 4.45022e-05
3 *2354:A2 *2353:A1 5.29035e-05
4 *3082:D *2353:A1 0.000110818
*RES
1 *3186:Z *2353:A1 9.81 
*END

*D_NET *841 0.00129471
*CONN
*I *2895:A1 I *D gf180mcu_fd_sc_mcu7t5v0__nand2_1
*I *3187:Z O *D gf180mcu_fd_sc_mcu7t5v0__dlyc_1
*CAP
1 *2895:A1 0.000227914
2 *3187:Z 0.000227914
3 *2895:A1 *2594:A1 0.000463049
4 *2895:A1 *2596:A1 0.000301196
5 *2895:A1 *2605:A1 5.85233e-05
6 *2895:A2 *2895:A1 1.61174e-05
*RES
1 *3187:Z *2895:A1 12.24 
*END

*D_NET *842 0.00452594
*CONN
*I *2402:A1 I *D gf180mcu_fd_sc_mcu7t5v0__oai21_1
*I *3188:Z O *D gf180mcu_fd_sc_mcu7t5v0__dlyc_1
*CAP
1 *2402:A1 0.00048886
2 *3188:Z 0.00048886
3 *2402:A1 *2859:A1 0.00125293
4 *2402:A1 *905:12 0.000960242
5 *2402:A2 *2402:A1 0.000283705
6 *2403:A1 *2402:A1 3.96404e-05
7 *2403:A2 *2402:A1 8.25831e-05
8 *2405:B *2402:A1 0.00073861
9 *2440:A1 *2402:A1 2.67352e-05
10 *709:71 *2402:A1 0.00016377
*RES
1 *3188:Z *2402:A1 25.83 
*END

*D_NET *843 0.000593198
*CONN
*I *2282:I I *D gf180mcu_fd_sc_mcu7t5v0__clkinv_1
*I *3189:Z O *D gf180mcu_fd_sc_mcu7t5v0__dlyc_1
*CAP
1 *2282:I 0.000156625
2 *3189:Z 0.000156625
3 *2282:I *962:31 3.22466e-06
4 *2788:B *2282:I 2.956e-05
5 *2789:A1 *2282:I 0
6 *2791:A1 *2282:I 3.20728e-05
7 *2792:A2 *2282:I 0.000204409
8 *2792:A3 *2282:I 1.06822e-05
*RES
1 *3189:Z *2282:I 10.26 
*END

*D_NET *844 0.000483967
*CONN
*I *2297:I I *D gf180mcu_fd_sc_mcu7t5v0__clkinv_1
*I *3190:Z O *D gf180mcu_fd_sc_mcu7t5v0__dlyc_1
*CAP
1 *2297:I 0.000241984
2 *3190:Z 0.000241984
3 *711:127 *2297:I 0
4 *713:26 *2297:I 0
*RES
1 *3190:Z *2297:I 10.62 
*END

*D_NET *845 0.00413864
*CONN
*I *2442:A1 I *D gf180mcu_fd_sc_mcu7t5v0__oai21_1
*I *3191:Z O *D gf180mcu_fd_sc_mcu7t5v0__dlyc_1
*CAP
1 *2442:A1 0.000269953
2 *3191:Z 0.000269953
3 *2442:A1 *2827:C1 0.000146022
4 *2442:A1 *2879:C2 4.0961e-06
5 *2868:A1 *2442:A1 0.00144935
6 *244:339 *2442:A1 0.00026179
7 *600:16 *2442:A1 0.00150664
8 *600:20 *2442:A1 1.08206e-05
9 *601:16 *2442:A1 1.5526e-05
10 *781:37 *2442:A1 0.000204492
*RES
1 *3191:Z *2442:A1 24.21 
*END

*D_NET *846 0.00982672
*CONN
*I *2822:A1 I *D gf180mcu_fd_sc_mcu7t5v0__aoi22_1
*I *2915:A1 I *D gf180mcu_fd_sc_mcu7t5v0__nor2_1
*I *2604:A1 I *D gf180mcu_fd_sc_mcu7t5v0__xor2_1
*I *3066:Q O *D gf180mcu_fd_sc_mcu7t5v0__dffq_1
*CAP
1 *2822:A1 0.000544007
2 *2915:A1 4.83343e-05
3 *2604:A1 0.00043262
4 *3066:Q 0
5 *846:23 0.00112456
6 *846:4 0.000964842
7 *2604:A1 *2600:A2 0.000255073
8 *2822:A1 *2822:B2 0.000161541
9 *2822:A1 *2861:A1 1.85285e-05
10 *2822:A1 *857:10 3.0177e-06
11 *2822:A1 *857:25 3.38355e-05
12 *846:23 *2592:A2 0
13 *846:23 *2870:A1 0.000554353
14 *846:23 *858:6 0.000131469
15 *846:23 *858:10 0.000142062
16 *2329:A1 *2915:A1 0.000924848
17 *2334:A1 *2822:A1 0.000844723
18 *2337:A2 *2822:A1 1.56137e-05
19 *2337:A2 *846:23 4.04767e-05
20 *2604:A2 *2604:A1 9.85004e-05
21 *2916:A3 *2604:A1 8.96665e-05
22 *255:12 *2822:A1 3.67526e-05
23 *255:14 *2822:A1 9.05569e-05
24 *255:37 *846:23 6.76969e-05
25 *744:24 *2604:A1 0.000510662
26 *750:60 *2822:A1 9.49362e-05
27 *752:36 *2915:A1 9.39061e-05
28 *752:61 *2822:A1 0.000114867
29 *752:61 *846:23 9.04462e-05
30 *755:29 *2822:A1 0.00131136
31 *755:29 *2915:A1 0.00020066
32 *755:35 *2915:A1 0.000786792
*RES
1 *3066:Q *846:4 4.5 
2 *846:4 *2604:A1 17.64 
3 *846:4 *846:23 4.77 
4 *846:23 *2915:A1 16.11 
5 *846:23 *2822:A1 20.25 
*END

*D_NET *847 0.0203202
*CONN
*I *2899:A1 I *D gf180mcu_fd_sc_mcu7t5v0__nor2_1
*I *2838:B2 I *D gf180mcu_fd_sc_mcu7t5v0__aoi22_1
*I *2602:A1 I *D gf180mcu_fd_sc_mcu7t5v0__xor2_1
*I *3060:Q O *D gf180mcu_fd_sc_mcu7t5v0__dffq_1
*CAP
1 *2899:A1 0
2 *2838:B2 0.00276661
3 *2602:A1 0.000361042
4 *3060:Q 0.000660004
5 *847:18 0.00436856
6 *847:14 0.00190091
7 *2602:A1 *2595:A1 2.67353e-05
8 *2602:A1 *2599:A1 0.00034994
9 *2602:A1 *2822:B2 0.000302978
10 *2838:B2 *2822:B2 0.000607659
11 *847:14 *860:14 0
12 *847:18 *2593:A1 3.72498e-05
13 *847:18 *851:8 0.000115149
14 *2590:A1 *2602:A1 0.000235076
15 *2595:A2 *2602:A1 0.000111294
16 *2602:A2 *2602:A1 1.07374e-05
17 *2607:A3 *2602:A1 0
18 *2607:A4 *2602:A1 6.4558e-06
19 *2609:A3 *2602:A1 0
20 *2609:A3 *847:18 1.78063e-05
21 *2645:A2 *2602:A1 0
22 *2838:B1 *2838:B2 0.000315987
23 *2876:A1 *2838:B2 9.92405e-05
24 *2897:A1 *847:18 0.000136279
25 *2897:A2 *847:18 6.13693e-05
26 *2900:A3 *847:18 6.0354e-06
27 *3060:D *847:18 0
28 *3069:CLK *2838:B2 0.00045656
29 *3193:I *847:14 2.84815e-05
30 *3210:I *847:14 0.000124614
31 *240:14 *2838:B2 1.5706e-05
32 *597:22 *2838:B2 0.00528312
33 *630:24 *2838:B2 3.74555e-05
34 *664:46 *847:18 7.68945e-05
35 *664:62 *847:18 0.000115551
36 *701:37 *847:18 0.000463511
37 *701:43 *2602:A1 7.20334e-05
38 *701:43 *2838:B2 0.000151427
39 *701:43 *847:18 0.000926059
40 *744:14 *847:14 5.45299e-06
41 *744:24 *847:14 9.26419e-06
42 *744:24 *847:18 5.22588e-06
43 *749:28 *847:18 4.28098e-05
44 *756:405 *847:18 8.88526e-06
*RES
1 *3060:Q *847:14 14.22 
2 *847:14 *847:18 16.29 
3 *847:18 *2602:A1 8.73 
4 *847:18 *2838:B2 46.62 
5 *847:14 *2899:A1 9 
*END

*D_NET *848 0.0158536
*CONN
*I *2902:A1 I *D gf180mcu_fd_sc_mcu7t5v0__nor2_1
*I *2846:B2 I *D gf180mcu_fd_sc_mcu7t5v0__aoi22_1
*I *2605:A1 I *D gf180mcu_fd_sc_mcu7t5v0__xor2_1
*I *3061:Q O *D gf180mcu_fd_sc_mcu7t5v0__dffq_1
*CAP
1 *2902:A1 0
2 *2846:B2 0.00158805
3 *2605:A1 0.00114559
4 *3061:Q 0.00100782
5 *848:18 0.00324192
6 *848:14 0.0015161
7 *2605:A1 *2310:I 0.000121817
8 *2605:A1 *2596:A1 0.000445932
9 *2605:A1 *2876:B2 0
10 *2605:A1 *861:10 9.84908e-05
11 *2846:B2 *2853:B2 0.000759253
12 *848:14 *2830:A1 0.000134959
13 *848:14 *2869:B2 7.96333e-06
14 *848:14 *2876:B2 1.38506e-05
15 *848:14 *850:12 0
16 *848:18 *2876:B2 0
17 *2350:A1 *2846:B2 6.34901e-05
18 *2368:I0 *2846:B2 0.000195949
19 *2645:A1 *2605:A1 0.000486049
20 *2846:A2 *2846:B2 3.08083e-05
21 *2846:B1 *2846:B2 6.02974e-05
22 *2853:B1 *2846:B2 0.000753003
23 *2864:B2 *2846:B2 0.000108819
24 *2881:A1 *2846:B2 0.000539149
25 *2895:A1 *2605:A1 5.85233e-05
26 *2895:A2 *2605:A1 0.000707398
27 *2902:A2 *848:14 5.23724e-05
28 *2903:A3 *848:14 0.00019834
29 *2905:A2 *2605:A1 0.000232481
30 *2905:A2 *848:18 0.000157047
31 *3062:D *848:18 0
32 *3196:I *848:14 6.68757e-05
33 *265:29 *2846:B2 2.3492e-06
34 *265:35 *2846:B2 0.000387025
35 *664:10 *848:14 0.000115755
36 *664:14 *848:14 0.000144276
37 *665:14 *2605:A1 7.69936e-06
38 *749:28 *2605:A1 0.000109643
39 *749:39 *2605:A1 0.000275587
40 *751:18 *848:14 2.08933e-05
41 *752:26 *848:14 0.000101182
42 *752:26 *848:18 9.39061e-05
43 *753:12 *848:14 0.00015444
44 *755:12 *848:14 0
45 *755:29 *2605:A1 9.78264e-05
46 *755:29 *848:18 0.00055071
*RES
1 *3061:Q *848:14 20.97 
2 *848:14 *848:18 7.83 
3 *848:18 *2605:A1 20.16 
4 *848:18 *2846:B2 32.22 
5 *848:14 *2902:A1 4.5 
*END

*D_NET *849 0.00666595
*CONN
*I *2280:I I *D gf180mcu_fd_sc_mcu7t5v0__clkinv_1
*I *2853:B2 I *D gf180mcu_fd_sc_mcu7t5v0__aoi22_1
*I *3062:Q O *D gf180mcu_fd_sc_mcu7t5v0__dffq_1
*CAP
1 *2280:I 0
2 *2853:B2 0.00154176
3 *3062:Q 0.000130858
4 *849:10 0.00167261
5 *849:10 *2876:B2 0.000425761
6 *2831:B *2853:B2 0
7 *2832:B2 *2853:B2 0
8 *2846:A2 *2853:B2 0.00015651
9 *2846:B2 *2853:B2 0.000759253
10 *2853:A1 *2853:B2 0.000179923
11 *2853:B1 *2853:B2 0.000517393
12 *2864:B2 *2853:B2 3.73774e-06
13 *2876:A1 *849:10 1.19491e-05
14 *2876:A2 *849:10 0.000572307
15 *3081:D *2853:B2 0
16 *248:10 *2853:B2 0
17 *282:10 *2853:B2 9.5155e-05
18 *749:39 *849:10 0.000486059
19 *753:27 *849:10 0.000112674
*RES
1 *3062:Q *849:10 11.88 
2 *849:10 *2853:B2 29.61 
3 *849:10 *2280:I 9 
*END

*D_NET *850 0.0200398
*CONN
*I *2862:B2 I *D gf180mcu_fd_sc_mcu7t5v0__aoi22_1
*I *2594:A1 I *D gf180mcu_fd_sc_mcu7t5v0__xor2_1
*I *2907:A1 I *D gf180mcu_fd_sc_mcu7t5v0__nor2_1
*I *3063:Q O *D gf180mcu_fd_sc_mcu7t5v0__dffq_1
*CAP
1 *2862:B2 0.000771069
2 *2594:A1 0.00157699
3 *2907:A1 2.24259e-05
4 *3063:Q 0.000893343
5 *850:27 0.00276295
6 *850:12 0.00133066
7 *2594:A1 *2596:A1 4.91882e-05
8 *2594:A1 *2829:B2 0.000530939
9 *2594:A1 *853:8 0.000854846
10 *2862:B2 *2829:B2 0.000538302
11 *2862:B2 *2837:A1 0.000107798
12 *2907:A1 *2830:A1 0.000154519
13 *850:27 *2830:A1 0.000209563
14 *2316:A1 *2594:A1 0.000168938
15 *2316:A2 *2594:A1 0.000352069
16 *2316:A2 *2862:B2 0.000123276
17 *2316:A2 *850:27 0.000127133
18 *2341:A1 *850:12 0.000730576
19 *2341:A2 *850:27 7.59101e-05
20 *2589:A1 *2594:A1 0.00090936
21 *2589:A2 *2594:A1 0.000196001
22 *2590:C *2594:A1 5.05993e-05
23 *2606:A2 *2594:A1 0.000169515
24 *2607:A2 *2594:A1 9.26244e-05
25 *2614:A2 *2594:A1 0
26 *2876:A2 *2594:A1 4.14647e-05
27 *2881:A1 *2862:B2 0
28 *2895:A1 *2594:A1 0.000463049
29 *2895:A2 *2594:A1 0.000124973
30 *2897:A1 *2594:A1 0.000215362
31 *2908:A3 *2907:A1 0.000147435
32 *2908:A3 *850:27 0.000420866
33 *3102:I *2862:B2 3.67398e-05
34 *3196:I *850:12 4.34199e-06
35 *3197:I *850:12 0.000436469
36 *210:10 *2594:A1 0.000834487
37 *245:12 *850:27 0.000101881
38 *247:24 *850:12 0.000266407
39 *265:29 *2862:B2 0.000580283
40 *600:16 *2862:B2 0.000454753
41 *605:39 *850:27 0.00034604
42 *605:41 *850:27 0.000184918
43 *605:43 *850:27 0.000218155
44 *605:62 *2862:B2 0.000116341
45 *665:12 *2594:A1 0.000153452
46 *665:14 *2594:A1 9.28914e-05
47 *694:254 *2862:B2 0.000783079
48 *701:8 *850:27 0.000101615
49 *702:10 *2862:B2 8.30408e-05
50 *749:39 *2862:B2 0.00057371
51 *753:12 *850:12 0.000160648
52 *753:27 *2594:A1 0.000154699
53 *753:27 *850:12 0.000144134
54 *755:12 *850:12 0
55 *848:14 *850:12 0
*RES
1 *3063:Q *850:12 21.06 
2 *850:12 *2907:A1 4.95 
3 *850:12 *850:27 13.5 
4 *850:27 *2594:A1 39.78 
5 *850:27 *2862:B2 23.67 
*END

*D_NET *851 0.00938609
*CONN
*I *2869:B2 I *D gf180mcu_fd_sc_mcu7t5v0__aoi22_1
*I *2909:A1 I *D gf180mcu_fd_sc_mcu7t5v0__nor2_1
*I *2593:A1 I *D gf180mcu_fd_sc_mcu7t5v0__xor2_1
*I *3064:Q O *D gf180mcu_fd_sc_mcu7t5v0__dffq_1
*CAP
1 *2869:B2 0.00104068
2 *2909:A1 0
3 *2593:A1 0.000824853
4 *3064:Q 0.000108916
5 *851:25 0.00127042
6 *851:8 0.0011635
7 *2593:A1 *2591:A1 0
8 *2593:A1 *860:18 0
9 *2869:B2 *2830:A1 0.000486697
10 *851:8 *860:14 0
11 *851:25 *2591:A1 0.000107811
12 *2591:A2 *2593:A1 0.000436478
13 *2608:A1 *2593:A1 4.25503e-05
14 *2869:A1 *2869:B2 5.02442e-05
15 *2894:A1 *2593:A1 2.78496e-05
16 *2894:A1 *2869:B2 0.000101995
17 *2894:A1 *851:8 5.92728e-05
18 *2894:A1 *851:25 0.000116147
19 *2894:A2 *2869:B2 1.10145e-05
20 *2902:A2 *2869:B2 4.3453e-05
21 *3058:D *2593:A1 9.84776e-05
22 *3058:D *851:25 0.000731554
23 *3059:CLK *2593:A1 0.000436469
24 *3060:D *851:8 1.13241e-05
25 *3062:CLK *2869:B2 0.000306559
26 *209:20 *2869:B2 1.52092e-05
27 *664:36 *2869:B2 0.000141794
28 *664:36 *851:25 7.39052e-05
29 *664:40 *851:25 0.000149448
30 *701:37 *2593:A1 9.39061e-05
31 *743:30 *2593:A1 0.000227633
32 *743:30 *2869:B2 0.000738105
33 *743:47 *2869:B2 0.000165459
34 *750:29 *2869:B2 8.42991e-05
35 *752:26 *2869:B2 3.03882e-05
36 *753:27 *2869:B2 2.93044e-05
37 *847:18 *2593:A1 3.72498e-05
38 *847:18 *851:8 0.000115149
39 *848:14 *2869:B2 7.96333e-06
*RES
1 *3064:Q *851:8 10.17 
2 *851:8 *2593:A1 16.29 
3 *851:8 *851:25 7.47 
4 *851:25 *2909:A1 4.5 
5 *851:25 *2869:B2 31.5 
*END

*D_NET *852 0.0133037
*CONN
*I *2876:B2 I *D gf180mcu_fd_sc_mcu7t5v0__aoi22_1
*I *2912:A1 I *D gf180mcu_fd_sc_mcu7t5v0__nor2_1
*I *2591:A1 I *D gf180mcu_fd_sc_mcu7t5v0__xor2_1
*I *3065:Q O *D gf180mcu_fd_sc_mcu7t5v0__dffq_1
*CAP
1 *2876:B2 0.00118913
2 *2912:A1 0
3 *2591:A1 0.00104244
4 *3065:Q 0.000536543
5 *852:32 0.00127751
6 *852:20 0.00196074
7 *2593:A1 *2591:A1 0
8 *2605:A1 *2876:B2 0
9 *2807:A4 *2591:A1 0
10 *2869:A1 *2876:B2 0.000209676
11 *2876:A1 *2876:B2 6.08466e-05
12 *2892:A2 *2591:A1 3.97987e-05
13 *2903:A2 *852:20 0.000435604
14 *2905:A2 *2876:B2 0
15 *2906:A2 *852:20 0.000217843
16 *3058:D *2591:A1 0.00012749
17 *3058:CLK *2591:A1 6.60809e-05
18 *3060:D *2591:A1 0.000325556
19 *3062:D *2876:B2 0.000425252
20 *3065:D *852:20 0.000352031
21 *3194:I *852:20 0
22 *3195:I *852:20 0.000134034
23 *209:20 *852:20 5.98568e-05
24 *209:20 *852:32 6.71551e-05
25 *591:30 *2591:A1 0.000196989
26 *664:14 *2876:B2 0.000298756
27 *664:32 *852:32 0.000357824
28 *664:36 *2591:A1 0.000100391
29 *664:36 *852:32 3.22348e-05
30 *664:40 *2591:A1 0.000254208
31 *665:47 *852:20 9.39061e-05
32 *665:47 *852:32 1.76621e-05
33 *665:55 *852:20 3.0177e-06
34 *665:55 *852:32 3.1302e-05
35 *701:16 *852:32 0
36 *701:18 *2591:A1 0.000672559
37 *701:18 *852:32 0.00015963
38 *701:70 *2591:A1 2.2029e-05
39 *751:26 *852:32 9.18672e-06
40 *752:26 *852:20 0.00080733
41 *753:27 *2876:B2 0.000849477
42 *755:12 *852:20 2.35868e-05
43 *758:16 *2876:B2 0.000221837
44 *758:16 *852:20 1.39452e-05
45 *758:16 *852:32 6.28015e-05
46 *848:14 *2876:B2 1.38506e-05
47 *848:18 *2876:B2 0
48 *849:10 *2876:B2 0.000425761
49 *851:25 *2591:A1 0.000107811
*RES
1 *3065:Q *852:20 19.8161 
2 *852:20 *852:32 11.6839 
3 *852:32 *2591:A1 14.4 
4 *852:32 *2912:A1 4.5 
5 *852:20 *2876:B2 23.3261 
*END

*D_NET *853 0.0133549
*CONN
*I *2830:A1 I *D gf180mcu_fd_sc_mcu7t5v0__aoi22_1
*I *2918:A1 I *D gf180mcu_fd_sc_mcu7t5v0__nor2_1
*I *2595:A1 I *D gf180mcu_fd_sc_mcu7t5v0__xor2_1
*I *3067:Q O *D gf180mcu_fd_sc_mcu7t5v0__dffq_1
*CAP
1 *2830:A1 0.0017271
2 *2918:A1 0
3 *2595:A1 0.000544951
4 *3067:Q 0.000197495
5 *853:14 0.000980691
6 *853:8 0.00236033
7 *2595:A1 *2837:A1 0.000109434
8 *2319:A1 *2830:A1 0.000496776
9 *2327:A2 *853:14 0.000299724
10 *2341:A2 *2830:A1 0.000799748
11 *2594:A1 *853:8 0.000854846
12 *2595:A2 *2595:A1 7.55765e-06
13 *2602:A1 *2595:A1 2.67353e-05
14 *2609:A3 *2595:A1 0.000297517
15 *2817:A2 *2830:A1 0.0002499
16 *2830:A2 *2830:A1 9.8755e-05
17 *2830:B1 *2830:A1 2.94163e-05
18 *2869:B2 *2830:A1 0.000486697
19 *2871:A2 *2830:A1 8.64354e-06
20 *2876:A1 *853:14 6.7442e-05
21 *2895:A2 *853:8 0.000183618
22 *2902:A2 *2830:A1 1.91274e-05
23 *2907:A1 *2830:A1 0.000154519
24 *2908:A3 *2830:A1 7.39052e-05
25 *2919:A3 *2595:A1 0.000415026
26 *3062:CLK *2830:A1 7.191e-07
27 *3067:D *2595:A1 0.000153299
28 *3069:CLK *2595:A1 5.67458e-05
29 *3185:I *2830:A1 0.000218409
30 *209:20 *2830:A1 0.000241924
31 *245:12 *2830:A1 0.000720626
32 *264:25 *2830:A1 5.77878e-05
33 *265:10 *2830:A1 3.12451e-05
34 *265:29 *2830:A1 5.99095e-05
35 *600:16 *2830:A1 5.45123e-06
36 *601:16 *2830:A1 4.66822e-05
37 *664:32 *2830:A1 0.000136456
38 *701:43 *2595:A1 8.40905e-05
39 *702:10 *2830:A1 3.32853e-05
40 *702:66 *2830:A1 7.2661e-05
41 *750:29 *2830:A1 0.00010372
42 *750:29 *853:14 0.000309905
43 *751:18 *2830:A1 4.84662e-05
44 *751:26 *2830:A1 7.41546e-05
45 *751:26 *853:14 0
46 *752:26 *2830:A1 6.48506e-05
47 *848:14 *2830:A1 0.000134959
48 *850:27 *2830:A1 0.000209563
*RES
1 *3067:Q *853:8 11.43 
2 *853:8 *853:14 8.82 
3 *853:14 *2595:A1 9.45 
4 *853:14 *2918:A1 4.5 
5 *853:8 *2830:A1 33.84 
*END

*D_NET *854 0.0128035
*CONN
*I *2837:A1 I *D gf180mcu_fd_sc_mcu7t5v0__aoi22_1
*I *2921:A1 I *D gf180mcu_fd_sc_mcu7t5v0__nor2_1
*I *2597:A1 I *D gf180mcu_fd_sc_mcu7t5v0__xor2_1
*I *3068:Q O *D gf180mcu_fd_sc_mcu7t5v0__dffq_1
*CAP
1 *2837:A1 0.00174933
2 *2921:A1 0.00017693
3 *2597:A1 0.000312772
4 *3068:Q 0
5 *854:10 0.000572198
6 *854:4 0.00183182
7 *2597:A1 *2592:A2 1.96635e-05
8 *2597:A1 *857:31 0.000638791
9 *2837:A1 *2822:B2 0.000104879
10 *2921:A1 *857:31 4.31798e-05
11 *2326:A1 *2837:A1 1.27919e-05
12 *2327:A2 *2837:A1 0.000177559
13 *2595:A1 *2837:A1 0.000109434
14 *2609:A4 *2597:A1 0.000506097
15 *2822:B1 *2837:A1 0
16 *2852:B *2837:A1 7.46011e-05
17 *2862:B2 *2837:A1 0.000107798
18 *2876:A1 *2921:A1 3.45237e-05
19 *2919:A3 *2837:A1 7.55765e-06
20 *2922:A2 *2597:A1 0.000107798
21 *2922:A2 *2921:A1 0.00015614
22 *2922:A3 *2597:A1 5.6029e-05
23 *3069:CLK *2837:A1 0.00104169
24 *3075:CLK *2837:A1 9.51133e-05
25 *3081:CLK *2837:A1 5.69493e-05
26 *209:26 *2921:A1 3.85778e-05
27 *209:26 *854:10 0.000462325
28 *253:24 *2837:A1 3.92172e-06
29 *253:26 *2837:A1 0.00013768
30 *254:6 *2837:A1 0.000466636
31 *254:8 *2837:A1 0.000634302
32 *254:10 *2837:A1 0.000449491
33 *255:8 *2837:A1 0.000250137
34 *283:33 *2837:A1 0.000505512
35 *605:62 *2837:A1 0.000195639
36 *605:75 *2837:A1 0.000260877
37 *630:24 *2837:A1 0.000139424
38 *750:29 *2921:A1 8.69474e-05
39 *756:424 *854:10 0.00107063
40 *759:72 *2837:A1 0.0001078
*RES
1 *3068:Q *854:4 4.5 
2 *854:4 *854:10 11.79 
3 *854:10 *2597:A1 8.55 
4 *854:10 *2921:A1 15.3 
5 *854:4 *2837:A1 31.14 
*END

*D_NET *855 0.00968095
*CONN
*I *2845:A1 I *D gf180mcu_fd_sc_mcu7t5v0__aoi22_1
*I *2310:I I *D gf180mcu_fd_sc_mcu7t5v0__clkinv_1
*I *3069:Q O *D gf180mcu_fd_sc_mcu7t5v0__dffq_1
*CAP
1 *2845:A1 0.0015573
2 *2310:I 0.000163137
3 *3069:Q 0
4 *855:4 0.00172044
5 *2350:B *2845:A1 0.000408322
6 *2368:S *2845:A1 0.000389016
7 *2605:A1 *2310:I 0.000121817
8 *2831:C *2845:A1 0.00088563
9 *2845:B1 *2845:A1 9.30289e-05
10 *2881:A1 *2845:A1 0.000520142
11 *2891:A2 *2845:A1 0.000150744
12 *3081:D *2845:A1 1.9446e-05
13 *3120:I *2845:A1 0.000161479
14 *266:14 *2845:A1 1.4382e-06
15 *266:111 *2845:A1 0
16 *283:14 *2845:A1 8.69576e-05
17 *283:21 *2845:A1 0.000199989
18 *284:14 *2845:A1 9.20698e-05
19 *665:12 *2310:I 7.10237e-05
20 *665:12 *2845:A1 0.000596898
21 *665:14 *2310:I 0.000405532
22 *749:39 *2310:I 2.38983e-05
23 *749:39 *2845:A1 0.00079021
24 *751:26 *2310:I 0.000368855
25 *752:36 *2310:I 0.000853578
*RES
1 *3069:Q *855:4 4.5 
2 *855:4 *2310:I 17.1 
3 *855:4 *2845:A1 20.97 
*END

*D_NET *856 0.0149393
*CONN
*I *2854:A1 I *D gf180mcu_fd_sc_mcu7t5v0__aoi221_1
*I *2330:A1 I *D gf180mcu_fd_sc_mcu7t5v0__oai21_1
*I *2600:A2 I *D gf180mcu_fd_sc_mcu7t5v0__xor2_1
*I *3070:Q O *D gf180mcu_fd_sc_mcu7t5v0__dffq_1
*CAP
1 *2854:A1 0.00149126
2 *2330:A1 0
3 *2600:A2 0.00110988
4 *3070:Q 0
5 *856:12 0.00139542
6 *856:6 0.0017768
7 *2600:A2 *2601:A2 0.000275055
8 *2600:A2 *2870:A1 0.000129816
9 *2600:A2 *858:10 0.000870926
10 *2339:A2 *2600:A2 1.61174e-05
11 *2339:A2 *856:12 0.000435427
12 *2601:A1 *2600:A2 9.89629e-06
13 *2604:A1 *2600:A2 0.000255073
14 *2604:A2 *2600:A2 0.000199141
15 *2608:A3 *2600:A2 0.000746027
16 *2861:B2 *2854:A1 0.000807339
17 *2861:B2 *856:12 0.000653866
18 *2877:A1 *2854:A1 0
19 *2915:A2 *2600:A2 0.000121817
20 *2916:A2 *2600:A2 6.54286e-05
21 *2916:A3 *2600:A2 0
22 *3073:D *856:12 0.000506097
23 *244:143 *2600:A2 0.000118966
24 *248:40 *2854:A1 0.00298074
25 *248:46 *2854:A1 0.00058217
26 *744:24 *2600:A2 9.0191e-06
27 *744:37 *2600:A2 7.53697e-05
28 *744:37 *856:12 0.000118548
29 *753:27 *2854:A1 2.08933e-05
30 *753:33 *2854:A1 8.44364e-05
31 *753:33 *856:12 8.37143e-05
*RES
1 *3070:Q *856:6 9 
2 *856:6 *856:12 9 
3 *856:12 *2600:A2 15.57 
4 *856:12 *2330:A1 4.5 
5 *856:6 *2854:A1 31.86 
*END

*D_NET *857 0.0103533
*CONN
*I *2332:A1 I *D gf180mcu_fd_sc_mcu7t5v0__nand2_1
*I *2590:A2 I *D gf180mcu_fd_sc_mcu7t5v0__oai221_1
*I *2598:A2 I *D gf180mcu_fd_sc_mcu7t5v0__aoi221_1
*I *2861:A1 I *D gf180mcu_fd_sc_mcu7t5v0__aoi22_1
*I *3071:Q O *D gf180mcu_fd_sc_mcu7t5v0__dffq_1
*CAP
1 *2332:A1 0
2 *2590:A2 0.000103225
3 *2598:A2 2.73877e-05
4 *2861:A1 0.000341371
5 *3071:Q 0.000386152
6 *857:31 0.000869453
7 *857:25 0.000757796
8 *857:10 0.00074648
9 *2861:A1 *2875:A1 2.82376e-05
10 *2333:A2 *2861:A1 6.60809e-05
11 *2590:A1 *2590:A2 4.35253e-05
12 *2590:B2 *2590:A2 0.000382884
13 *2595:A2 *2590:A2 0.000310861
14 *2597:A1 *857:31 0.000638791
15 *2598:A1 *2598:A2 1.0415e-05
16 *2598:B1 *2590:A2 2.63343e-05
17 *2603:A2 *2590:A2 1.52092e-05
18 *2609:A1 *2590:A2 0.000101624
19 *2609:A4 *2598:A2 9.85004e-05
20 *2609:A4 *857:31 0.00021735
21 *2822:A1 *2861:A1 1.85285e-05
22 *2822:A1 *857:10 3.0177e-06
23 *2822:A1 *857:25 3.38355e-05
24 *2861:B2 *2861:A1 6.31783e-05
25 *2876:A1 *857:10 0.000119192
26 *2917:A2 *857:10 0.000248974
27 *2920:A2 *857:31 0.000284981
28 *2921:A1 *857:31 4.31798e-05
29 *3071:D *2861:A1 0.000354728
30 *240:14 *2598:A2 1.4382e-06
31 *240:14 *857:31 0.000441364
32 *254:39 *2861:A1 3.10415e-05
33 *254:39 *857:10 0.000254698
34 *255:8 *857:10 0
35 *255:12 *857:10 0.00038157
36 *255:14 *857:25 0.000106536
37 *255:14 *857:31 0.000446317
38 *750:29 *857:31 0.000223407
39 *750:60 *2861:A1 0.000905208
40 *750:60 *857:25 0.000205026
41 *750:60 *857:31 0.00101539
42 *753:27 *857:10 0
*RES
1 *3071:Q *857:10 13.68 
2 *857:10 *2861:A1 13.14 
3 *857:10 *857:25 5.13 
4 *857:25 *857:31 9.27 
5 *857:31 *2598:A2 4.77 
6 *857:31 *2590:A2 15.57 
7 *857:25 *2332:A1 4.5 
*END

*D_NET *858 0.00920918
*CONN
*I *2601:A2 I *D gf180mcu_fd_sc_mcu7t5v0__xor2_1
*I *2870:A1 I *D gf180mcu_fd_sc_mcu7t5v0__aoi221_1
*I *2335:A1 I *D gf180mcu_fd_sc_mcu7t5v0__nand2_1
*I *3072:Q O *D gf180mcu_fd_sc_mcu7t5v0__dffq_1
*CAP
1 *2601:A2 0.000480969
2 *2870:A1 0.00091874
3 *2335:A1 0
4 *3072:Q 0.000164849
5 *858:10 0.00122972
6 *858:6 0.000956801
7 *2601:A2 *2592:A2 0
8 *2870:A1 *2875:A1 6.44114e-05
9 *858:6 *2592:A2 0
10 *2334:A3 *2870:A1 2.67052e-05
11 *2338:A1 *2870:A1 0.000147441
12 *2339:A3 *2870:A1 0.000638833
13 *2595:A2 *2601:A2 0.00043777
14 *2600:A2 *2601:A2 0.000275055
15 *2600:A2 *2870:A1 0.000129816
16 *2600:A2 *858:10 0.000870926
17 *2604:A2 *2601:A2 9.00225e-05
18 *2608:A3 *2601:A2 4.18205e-05
19 *2609:A2 *2601:A2 0.000203302
20 *2875:B2 *2870:A1 3.73774e-06
21 *3071:CLK *2870:A1 0.000238428
22 *244:143 *2870:A1 3.12872e-05
23 *254:60 *2870:A1 2.93938e-05
24 *254:68 *2870:A1 3.12451e-05
25 *283:64 *2870:A1 2.89427e-06
26 *445:10 *2601:A2 0.000445479
27 *752:61 *2870:A1 0.000400702
28 *753:33 *2870:A1 0.00052094
29 *846:23 *2870:A1 0.000554353
30 *846:23 *858:6 0.000131469
31 *846:23 *858:10 0.000142062
*RES
1 *3072:Q *858:6 5.85 
2 *858:6 *858:10 3.42 
3 *858:10 *2335:A1 4.5 
4 *858:10 *2870:A1 23.22 
5 *858:6 *2601:A2 18.63 
*END

*D_NET *859 0.00828126
*CONN
*I *2875:A1 I *D gf180mcu_fd_sc_mcu7t5v0__aoi22_1
*I *2592:A2 I *D gf180mcu_fd_sc_mcu7t5v0__xor2_1
*I *2337:A1 I *D gf180mcu_fd_sc_mcu7t5v0__nand2_1
*I *3073:Q O *D gf180mcu_fd_sc_mcu7t5v0__dffq_1
*CAP
1 *2875:A1 0.000504325
2 *2592:A2 0.00132551
3 *2337:A1 2.30011e-05
4 *3073:Q 0
5 *859:10 0.00140189
6 *859:4 0.000557702
7 *2333:A1 *2875:A1 0.000155486
8 *2333:A2 *2875:A1 0.000145204
9 *2333:A2 *859:10 3.22348e-05
10 *2334:A1 *2337:A1 0.000309993
11 *2334:A1 *859:10 0.000143204
12 *2334:A3 *2875:A1 0.000388845
13 *2334:A3 *859:10 0.000433797
14 *2337:A2 *2592:A2 8.35604e-05
15 *2597:A1 *2592:A2 1.96635e-05
16 *2598:B1 *2592:A2 2.30981e-05
17 *2598:C *2592:A2 0.000302945
18 *2601:A2 *2592:A2 0
19 *2603:A1 *2592:A2 0
20 *2609:A1 *2592:A2 0.000427631
21 *2609:A2 *2592:A2 1.3634e-05
22 *2609:A3 *2592:A2 7.56972e-05
23 *2609:A4 *2592:A2 7.01333e-05
24 *2861:A1 *2875:A1 2.82376e-05
25 *2861:B2 *2875:A1 0.000365454
26 *2870:A1 *2875:A1 6.44114e-05
27 *2875:A2 *2875:A1 3.12451e-05
28 *2875:B2 *2875:A1 9.04462e-05
29 *2877:A1 *2875:A1 9.55009e-05
30 *2921:A2 *2592:A2 0.000136121
31 *2921:A2 *859:10 0.000161479
32 *2922:A2 *2592:A2 3.58474e-05
33 *2922:A3 *2592:A2 0.00011522
34 *3068:D *2592:A2 0.000110639
35 *224:10 *2592:A2 1.60094e-05
36 *254:43 *2875:A1 0
37 *254:43 *859:10 0.000264282
38 *254:60 *2337:A1 0.000135666
39 *254:60 *859:10 6.98034e-05
40 *255:37 *2592:A2 6.931e-05
41 *283:64 *2875:A1 4.16602e-05
42 *445:10 *2592:A2 1.23715e-05
43 *750:60 *2592:A2 0
44 *750:60 *2875:A1 0
45 *752:61 *859:10 0
46 *846:23 *2592:A2 0
47 *858:6 *2592:A2 0
*RES
1 *3073:Q *859:4 4.5 
2 *859:4 *859:10 6.3 
3 *859:10 *2337:A1 9.81 
4 *859:10 *2592:A2 19.62 
5 *859:4 *2875:A1 9.99 
*END

*D_NET *860 0.0120884
*CONN
*I *2892:A1 I *D gf180mcu_fd_sc_mcu7t5v0__nand2_1
*I *2822:B2 I *D gf180mcu_fd_sc_mcu7t5v0__aoi22_1
*I *2599:A1 I *D gf180mcu_fd_sc_mcu7t5v0__xor2_1
*I *3058:Q O *D gf180mcu_fd_sc_mcu7t5v0__dffq_1
*CAP
1 *2892:A1 0
2 *2822:B2 0.00103841
3 *2599:A1 0.000559756
4 *3058:Q 0.000819546
5 *860:18 0.00285731
6 *860:14 0.00207869
7 *2599:A1 *3097:I 0.000225857
8 *860:18 *3187:I 8.60663e-05
9 *860:18 *861:10 6.30159e-05
10 *860:18 *861:23 0.000144054
11 *2590:C *2599:A1 0.000490017
12 *2593:A1 *860:18 0
13 *2595:A2 *860:18 6.72969e-05
14 *2599:A2 *2599:A1 1.61174e-05
15 *2602:A1 *2599:A1 0.00034994
16 *2602:A1 *2822:B2 0.000302978
17 *2602:A2 *2599:A1 9.68777e-05
18 *2607:A4 *860:18 0
19 *2609:A3 *860:18 0.000103276
20 *2609:A4 *2599:A1 0
21 *2822:A1 *2822:B2 0.000161541
22 *2837:A1 *2822:B2 0.000104879
23 *2838:B2 *2822:B2 0.000607659
24 *2892:A2 *860:14 0.000351392
25 *2894:A1 *860:14 1.17934e-05
26 *2894:A1 *860:18 0.000130994
27 *3058:D *860:14 3.85935e-05
28 *3058:D *860:18 6.19076e-05
29 *3059:D *860:18 0.000209583
30 *3060:D *860:14 0.000290752
31 *3069:CLK *2822:B2 0.000242643
32 *3210:I *860:14 0.000101615
33 *240:14 *2599:A1 5.40551e-05
34 *240:14 *2822:B2 0.000410404
35 *255:14 *2822:B2 8.68926e-06
36 *701:37 *860:18 0
37 *701:43 *860:18 0
38 *750:60 *2822:B2 2.65444e-06
39 *847:14 *860:14 0
40 *851:8 *860:14 0
*RES
1 *3058:Q *860:14 16.02 
2 *860:14 *860:18 14.67 
3 *860:18 *2599:A1 10.17 
4 *860:18 *2822:B2 14.67 
5 *860:14 *2892:A1 9 
*END

*D_NET *861 0.0116313
*CONN
*I *2829:B2 I *D gf180mcu_fd_sc_mcu7t5v0__aoi22_1
*I *3187:I I *D gf180mcu_fd_sc_mcu7t5v0__dlyc_1
*I *2596:A1 I *D gf180mcu_fd_sc_mcu7t5v0__xor2_1
*I *3059:Q O *D gf180mcu_fd_sc_mcu7t5v0__dffq_1
*CAP
1 *2829:B2 0.000809127
2 *3187:I 0.000448462
3 *2596:A1 0.000297987
4 *3059:Q 9.93183e-05
5 *861:23 0.00141218
6 *861:10 0.000551894
7 *2589:A1 *2829:B2 0.00179229
8 *2589:A1 *3187:I 0.000236727
9 *2594:A1 *2596:A1 4.91882e-05
10 *2594:A1 *2829:B2 0.000530939
11 *2605:A1 *2596:A1 0.000445932
12 *2605:A1 *861:10 9.84908e-05
13 *2605:A2 *2596:A1 0.000215887
14 *2607:A2 *3187:I 2.72714e-05
15 *2645:A1 *2596:A1 0.000129056
16 *2862:B2 *2829:B2 0.000538302
17 *2895:A1 *2596:A1 0.000301196
18 *2905:A1 *2829:B2 3.97987e-05
19 *2905:B *2829:B2 0.000353333
20 *2905:C *2829:B2 0.000368092
21 *3059:D *2829:B2 0.000673954
22 *3059:D *3187:I 9.84908e-05
23 *3062:D *2829:B2 0.000151417
24 *3062:CLK *2829:B2 6.03144e-06
25 *3064:D *2829:B2 0.000235758
26 *210:10 *2829:B2 4.7347e-05
27 *265:29 *2829:B2 0.000852989
28 *701:37 *861:23 2.76794e-05
29 *701:43 *861:10 2.87839e-05
30 *701:43 *861:23 5.42613e-05
31 *743:30 *2829:B2 0.000415958
32 *743:30 *3187:I 0
33 *860:18 *3187:I 8.60663e-05
34 *860:18 *861:10 6.30159e-05
35 *860:18 *861:23 0.000144054
*RES
1 *3059:Q *861:10 9.9 
2 *861:10 *2596:A1 13.23 
3 *861:10 *861:23 6.03 
4 *861:23 *3187:I 16.92 
5 *861:23 *2829:B2 17.37 
*END

*D_NET *862 0.00485657
*CONN
*I *2515:A2 I *D gf180mcu_fd_sc_mcu7t5v0__and2_1
*I *2514:A2 I *D gf180mcu_fd_sc_mcu7t5v0__nor2_1
*I *2520:A4 I *D gf180mcu_fd_sc_mcu7t5v0__and4_1
*I *3136:I I *D gf180mcu_fd_sc_mcu7t5v0__dlyc_1
*I *2973:Q O *D gf180mcu_fd_sc_mcu7t5v0__dffq_1
*CAP
1 *2515:A2 8.22256e-06
2 *2514:A2 5.95522e-05
3 *2520:A4 0.000211261
4 *3136:I 0.000393593
5 *2973:Q 0.000217724
6 *862:25 0.000270813
7 *862:23 8.41821e-05
8 *862:8 0.000687276
9 *2520:A4 *2392:A1 0.000258909
10 *2520:A4 *2520:A2 5.78854e-06
11 *2520:A4 *873:36 0.000106536
12 *862:8 *2520:A2 0
13 *862:23 *2520:A2 0
14 *2389:A1 *2515:A2 9.85004e-05
15 *2389:A1 *862:23 0.000116325
16 *2515:A1 *2515:A2 2.93938e-05
17 *2515:A1 *862:23 6.2979e-05
18 *2516:A2 *862:8 5.77408e-05
19 *2520:A1 *2514:A2 2.13441e-06
20 *2520:A1 *2520:A4 1.85284e-05
21 *2520:A1 *3136:I 9.39061e-05
22 *2520:A1 *862:8 9.04462e-05
23 *2520:A1 *862:23 0.000294431
24 *2521:A1 *2520:A4 0
25 *2622:A1 *3136:I 0
26 *2998:CLK *3136:I 0
27 *213:8 *3136:I 0
28 *225:8 *3136:I 0.000100163
29 *225:10 *3136:I 5.31404e-05
30 *225:14 *2514:A2 0.000247389
31 *225:14 *3136:I 7.84385e-05
32 *375:12 *2520:A4 0.000591253
33 *455:10 *3136:I 0.000101624
34 *726:41 *3136:I 0
35 *774:14 *2514:A2 0.000159362
36 *774:14 *2520:A4 0.00035696
*RES
1 *2973:Q *862:8 6.12 
2 *862:8 *3136:I 16.83 
3 *862:8 *862:23 1.26 
4 *862:23 *862:25 4.5 
5 *862:25 *2520:A4 12.24 
6 *862:25 *2514:A2 9.99 
7 *862:23 *2515:A2 4.77 
*END

*D_NET *863 0.0040674
*CONN
*I *2417:A1 I *D gf180mcu_fd_sc_mcu7t5v0__nor2_1
*I *2547:A1 I *D gf180mcu_fd_sc_mcu7t5v0__nand3_1
*I *2546:A1 I *D gf180mcu_fd_sc_mcu7t5v0__nor2_1
*I *2983:Q O *D gf180mcu_fd_sc_mcu7t5v0__dffq_1
*CAP
1 *2417:A1 0.000226107
2 *2547:A1 1.80718e-05
3 *2546:A1 0.000179272
4 *2983:Q 0.000201236
5 *863:19 0.000259671
6 *863:8 0.000396001
7 *2417:A1 *2411:A1 0.00023968
8 *2546:A1 *2411:A1 9.39061e-05
9 *2546:A1 *884:51 6.17442e-05
10 *863:8 *2547:A3 3.01487e-05
11 *863:19 *2411:A1 0.000229402
12 *2413:A1 *2417:A1 0.000343992
13 *385:24 *2417:A1 0.000348439
14 *385:24 *863:8 6.74672e-05
15 *385:26 *2417:A1 9.39843e-06
16 *385:26 *2547:A1 9.04462e-05
17 *385:26 *863:8 7.49684e-05
18 *398:12 *863:8 2.8764e-06
19 *690:34 *2417:A1 0.000208378
20 *690:34 *2546:A1 0.000674344
21 *690:34 *863:19 0.0001981
22 *778:79 *2417:A1 8.2957e-05
23 *778:87 *2417:A1 3.07932e-05
*RES
1 *2983:Q *863:8 10.53 
2 *863:8 *2546:A1 10.89 
3 *863:8 *863:19 0.63 
4 *863:19 *2547:A1 9.27 
5 *863:19 *2417:A1 12.51 
*END

*D_NET *864 0.00318005
*CONN
*I *2420:A1 I *D gf180mcu_fd_sc_mcu7t5v0__nor2_1
*I *2550:A1 I *D gf180mcu_fd_sc_mcu7t5v0__nor2_1
*I *2551:A1 I *D gf180mcu_fd_sc_mcu7t5v0__and2_1
*I *2557:A3 I *D gf180mcu_fd_sc_mcu7t5v0__and4_1
*I *2984:Q O *D gf180mcu_fd_sc_mcu7t5v0__dffq_1
*CAP
1 *2420:A1 0.00041741
2 *2550:A1 6.00282e-05
3 *2551:A1 9.10084e-05
4 *2557:A3 0.000354766
5 *2984:Q 2.55603e-05
6 *864:21 0.000313604
7 *864:8 0.00055075
8 *864:6 0.000476387
9 *2420:A1 *2423:A1 0
10 *2420:A1 *865:32 0
11 *2557:A3 *2557:A2 9.84908e-05
12 *2557:A3 *865:8 0.000316535
13 *2557:A3 *865:32 1.84476e-05
14 *864:8 *865:8 0
15 *2550:A2 *2550:A1 3.01487e-05
16 *2550:A2 *2551:A1 4.34597e-05
17 *2552:A2 *2551:A1 0.000223284
18 *2557:A4 *2557:A3 0.000124841
19 *2557:A4 *864:21 1.70056e-05
20 *398:18 *2550:A1 1.0345e-05
21 *398:18 *864:21 7.98315e-06
22 *689:24 *2551:A1 0
*RES
1 *2984:Q *864:6 4.77 
2 *864:6 *864:8 0.27 
3 *864:8 *2557:A3 7.65 
4 *864:8 *864:21 1.17 
5 *864:21 *2551:A1 14.31 
6 *864:21 *2550:A1 4.95 
7 *864:6 *2420:A1 16.11 
*END

*D_NET *865 0.00336809
*CONN
*I *2423:A1 I *D gf180mcu_fd_sc_mcu7t5v0__nor2_1
*I *2553:A1 I *D gf180mcu_fd_sc_mcu7t5v0__nor2_1
*I *2554:A1 I *D gf180mcu_fd_sc_mcu7t5v0__and2_1
*I *2557:A2 I *D gf180mcu_fd_sc_mcu7t5v0__and4_1
*I *2985:Q O *D gf180mcu_fd_sc_mcu7t5v0__dffq_1
*CAP
1 *2423:A1 0.000255579
2 *2553:A1 0
3 *2554:A1 0.00018568
4 *2557:A2 6.15307e-05
5 *2985:Q 0
6 *865:32 0.00042619
7 *865:8 0.000418692
8 *865:4 0.000342092
9 *2557:A2 *2557:A1 0
10 *865:8 *2557:A1 1.0345e-05
11 *2420:A1 *2423:A1 0
12 *2420:A1 *865:32 0
13 *2553:A2 *2554:A1 8.7876e-05
14 *2554:A2 *2554:A1 2.52908e-05
15 *2555:A2 *865:32 0.000289888
16 *2556:A2 *2554:A1 0.000302711
17 *2557:A3 *2557:A2 9.84908e-05
18 *2557:A3 *865:8 0.000316535
19 *2557:A3 *865:32 1.84476e-05
20 *2558:A2 *865:32 0
21 *385:24 *2423:A1 0.000215887
22 *778:91 *2423:A1 0.0001353
23 *778:99 *2423:A1 0.000177559
24 *864:8 *865:8 0
*RES
1 *2985:Q *865:4 4.5 
2 *865:4 *865:8 1.44 
3 *865:8 *2557:A2 4.95 
4 *865:8 *2554:A1 15.39 
5 *865:4 *865:32 5.94 
6 *865:32 *2553:A1 9 
7 *865:32 *2423:A1 11.7 
*END

*D_NET *866 0.00150301
*CONN
*I *2557:A1 I *D gf180mcu_fd_sc_mcu7t5v0__and4_1
*I *2556:A1 I *D gf180mcu_fd_sc_mcu7t5v0__nor2_1
*I *3158:I I *D gf180mcu_fd_sc_mcu7t5v0__dlyc_1
*I *2986:Q O *D gf180mcu_fd_sc_mcu7t5v0__dffq_1
*CAP
1 *2557:A1 0.000241536
2 *2556:A1 0
3 *3158:I 0.00020878
4 *2986:Q 9.32924e-05
5 *866:21 0.000393633
6 *866:8 0.00045417
7 *2557:A2 *2557:A1 0
8 *385:24 *2557:A1 2.98728e-05
9 *385:24 *866:8 2.37143e-05
10 *385:24 *866:21 4.76678e-05
11 *710:30 *3158:I 0
12 *865:8 *2557:A1 1.0345e-05
*RES
1 *2986:Q *866:8 5.22 
2 *866:8 *3158:I 14.85 
3 *866:8 *866:21 0.99 
4 *866:21 *2556:A1 4.5 
5 *866:21 *2557:A1 6.3 
*END

*D_NET *867 0.00631438
*CONN
*I *2560:A1 I *D gf180mcu_fd_sc_mcu7t5v0__and2_1
*I *2429:A1 I *D gf180mcu_fd_sc_mcu7t5v0__nor2_1
*I *2566:A3 I *D gf180mcu_fd_sc_mcu7t5v0__and4_1
*I *2559:A1 I *D gf180mcu_fd_sc_mcu7t5v0__nor2_1
*I *2987:Q O *D gf180mcu_fd_sc_mcu7t5v0__dffq_1
*CAP
1 *2560:A1 0.000379723
2 *2429:A1 0.000207806
3 *2566:A3 0
4 *2559:A1 0.00018617
5 *2987:Q 3.34174e-05
6 *867:14 0.000264901
7 *867:10 0.000470388
8 *867:6 0.000596992
9 *2560:A1 *2562:A1 2.82412e-05
10 *2560:A1 *2566:A2 0.000469308
11 *2560:A1 *868:6 8.9367e-05
12 *2560:A1 *868:34 0.000333302
13 *2560:A1 *868:47 2.36954e-05
14 *867:10 *2566:A1 0.000124983
15 *867:10 *2566:A2 0.000565127
16 *867:14 *2566:A2 3.01487e-05
17 *2438:A2 *2429:A1 0.000276888
18 *2440:A1 *2429:A1 0.000152367
19 *2561:A3 *2429:A1 1.38732e-05
20 *2561:A3 *867:14 2.87447e-05
21 *2567:A1 *2429:A1 0.000711299
22 *2567:A3 *2429:A1 0
23 *2989:D *2559:A1 0.000237619
24 *3229:I *2559:A1 0.000302154
25 *373:69 *2559:A1 0.000182206
26 *404:10 *2560:A1 2.26729e-05
27 *406:12 *2560:A1 0.000233151
28 *406:12 *867:10 1.17725e-05
29 *410:14 *2429:A1 1.77904e-05
30 *778:133 *2429:A1 0.000320271
*RES
1 *2987:Q *867:6 4.77 
2 *867:6 *867:10 2.16 
3 *867:10 *867:14 0.72 
4 *867:14 *2559:A1 15.57 
5 *867:14 *2566:A3 4.5 
6 *867:10 *2429:A1 16.38 
7 *867:6 *2560:A1 17.55 
*END

*D_NET *868 0.00772218
*CONN
*I *2432:A1 I *D gf180mcu_fd_sc_mcu7t5v0__nor2_1
*I *2565:A1 I *D gf180mcu_fd_sc_mcu7t5v0__aoi21_1
*I *2562:A1 I *D gf180mcu_fd_sc_mcu7t5v0__aoi21_1
*I *2566:A2 I *D gf180mcu_fd_sc_mcu7t5v0__and4_1
*I *2563:A1 I *D gf180mcu_fd_sc_mcu7t5v0__oai21_1
*I *2988:Q O *D gf180mcu_fd_sc_mcu7t5v0__dffq_1
*CAP
1 *2432:A1 2.73637e-05
2 *2565:A1 0.000438652
3 *2562:A1 0.000193097
4 *2566:A2 0.00026993
5 *2563:A1 0.000406154
6 *2988:Q 0
7 *868:47 0.00076351
8 *868:34 0.000640421
9 *868:6 0.000809253
10 *868:4 0.000282999
11 *2565:A1 *2566:A1 7.12985e-05
12 *2432:A2 *868:47 7.77106e-05
13 *2434:A1 *868:47 4.34597e-05
14 *2560:A1 *2562:A1 2.82412e-05
15 *2560:A1 *2566:A2 0.000469308
16 *2560:A1 *868:6 8.9367e-05
17 *2560:A1 *868:34 0.000333302
18 *2560:A1 *868:47 2.36954e-05
19 *2560:A2 *2432:A1 0
20 *2560:A2 *868:34 3.01487e-05
21 *2561:A3 *2566:A2 5.23642e-05
22 *2562:B *2562:A1 0.00016326
23 *2563:A2 *2563:A1 0.000177534
24 *2567:A2 *2565:A1 0
25 *3094:I *2563:A1 0.000840698
26 *385:24 *2432:A1 2.31089e-05
27 *385:24 *2565:A1 3.08083e-05
28 *404:10 *2566:A2 6.54075e-05
29 *404:10 *868:6 0.000133728
30 *404:10 *868:34 4.5237e-05
31 *406:12 *2565:A1 5.15895e-05
32 *710:30 *2562:A1 0
33 *710:30 *868:47 0
34 *778:127 *2565:A1 0.000545263
35 *867:10 *2566:A2 0.000565127
36 *867:14 *2566:A2 3.01487e-05
*RES
1 *2988:Q *868:4 4.5 
2 *868:4 *868:6 1.35 
3 *868:6 *2563:A1 17.55 
4 *868:6 *2566:A2 7.74 
5 *868:4 *868:34 6.21 
6 *868:34 *2562:A1 10.17 
7 *868:34 *868:47 6.57 
8 *868:47 *2565:A1 8.64 
9 *868:47 *2432:A1 4.77 
*END

*D_NET *869 0.0050529
*CONN
*I *3160:I I *D gf180mcu_fd_sc_mcu7t5v0__dlyc_1
*I *2565:B I *D gf180mcu_fd_sc_mcu7t5v0__aoi21_1
*I *2566:A1 I *D gf180mcu_fd_sc_mcu7t5v0__and4_1
*I *2989:Q O *D gf180mcu_fd_sc_mcu7t5v0__dffq_1
*CAP
1 *3160:I 0.000267888
2 *2565:B 0.000143182
3 *2566:A1 0.000342807
4 *2989:Q 0
5 *869:25 0.00057266
6 *869:4 0.000504397
7 *2428:A1 *3160:I 4.29496e-05
8 *2435:A2 *3160:I 8.69474e-05
9 *2437:A1 *3160:I 0.000444513
10 *2565:A1 *2566:A1 7.12985e-05
11 *2565:A2 *869:25 1.25828e-05
12 *2567:A2 *2566:A1 3.87363e-05
13 *2939:CLK *2565:B 0
14 *2989:D *2566:A1 0.000343492
15 *3094:I *869:25 0.00071904
16 *3170:I *2565:B 0.000294421
17 *3170:I *3160:I 0.000158798
18 *3229:I *2566:A1 7.91158e-05
19 *385:24 *2565:B 0.00011842
20 *385:24 *3160:I 0.000138911
21 *406:12 *2566:A1 0.000436478
22 *778:99 *3160:I 0.000104278
23 *778:127 *2566:A1 6.99566e-06
24 *867:10 *2566:A1 0.000124983
*RES
1 *2989:Q *869:4 4.5 
2 *869:4 *2566:A1 17.01 
3 *869:4 *869:25 10.89 
4 *869:25 *2565:B 6.12 
5 *869:25 *3160:I 7.83 
*END

*D_NET *870 0.00398123
*CONN
*I *2568:A1 I *D gf180mcu_fd_sc_mcu7t5v0__nor2_1
*I *2438:A1 I *D gf180mcu_fd_sc_mcu7t5v0__nor2_1
*I *2569:A1 I *D gf180mcu_fd_sc_mcu7t5v0__and2_1
*I *2575:A3 I *D gf180mcu_fd_sc_mcu7t5v0__and4_1
*I *2990:Q O *D gf180mcu_fd_sc_mcu7t5v0__dffq_1
*CAP
1 *2568:A1 3.67825e-05
2 *2438:A1 0.000397597
3 *2569:A1 8.7635e-05
4 *2575:A3 0
5 *2990:Q 0.000390578
6 *870:38 0.000504312
7 *870:25 0.000244214
8 *870:14 0.000477226
9 *2438:A1 *2575:A1 4.34199e-06
10 *2438:A1 *871:14 0
11 *2569:A1 *871:20 0.000400853
12 *870:14 *2441:A1 1.04742e-05
13 *870:14 *871:12 0.000124766
14 *870:14 *871:14 2.50104e-05
15 *870:14 *871:20 1.31826e-05
16 *870:14 *872:12 4.34886e-05
17 *870:25 *871:12 2.89427e-06
18 *870:25 *871:20 0.000192116
19 *2444:A2 *2438:A1 3.26829e-05
20 *2567:A1 *2438:A1 0
21 *2569:A2 *2438:A1 9.39061e-05
22 *2569:A2 *2568:A1 0
23 *2569:A2 *2569:A1 0
24 *2569:A2 *870:38 0
25 *2570:A2 *870:38 0.000162562
26 *2570:A3 *2569:A1 6.84426e-06
27 *2575:A4 *2438:A1 5.60661e-06
28 *2575:A4 *2568:A1 9.04462e-05
29 *2575:A4 *870:25 1.0415e-05
30 *2575:A4 *870:38 0.000428433
31 *373:50 *870:38 0
32 *373:57 *2568:A1 0
33 *410:14 *2438:A1 3.56486e-05
34 *410:18 *2438:A1 5.79792e-06
35 *410:18 *2568:A1 6.83517e-05
36 *416:10 *870:14 1.26644e-05
37 *707:54 *870:14 7.23977e-05
*RES
1 *2990:Q *870:14 16.11 
2 *870:14 *2575:A3 4.5 
3 *870:14 *870:25 5.4 
4 *870:25 *2569:A1 9.99 
5 *870:25 *870:38 5.67 
6 *870:38 *2438:A1 15.84 
7 *870:38 *2568:A1 4.95 
*END

*D_NET *871 0.00691358
*CONN
*I *2441:A1 I *D gf180mcu_fd_sc_mcu7t5v0__nor2_1
*I *2575:A2 I *D gf180mcu_fd_sc_mcu7t5v0__and4_1
*I *2571:A1 I *D gf180mcu_fd_sc_mcu7t5v0__nor2_1
*I *2572:A1 I *D gf180mcu_fd_sc_mcu7t5v0__and2_1
*I *2991:Q O *D gf180mcu_fd_sc_mcu7t5v0__dffq_1
*CAP
1 *2441:A1 0.000279486
2 *2575:A2 0
3 *2571:A1 0.000159964
4 *2572:A1 0.000228428
5 *2991:Q 0.000375377
6 *871:20 0.000696151
7 *871:14 0.000355565
8 *871:12 0.000702669
9 *2441:A1 *2575:A1 5.89956e-05
10 *2441:A1 *3182:I 0.000138738
11 *871:12 *872:12 6.73434e-05
12 *871:14 *2575:A1 2.70026e-05
13 *2438:A1 *871:14 0
14 *2569:A1 *871:20 0.000400853
15 *2570:A3 *871:20 3.31858e-06
16 *2571:A2 *2571:A1 4.79098e-05
17 *2572:A2 *2571:A1 4.1368e-05
18 *2572:A2 *2572:A1 0.000548114
19 *2572:A2 *871:20 0.000309671
20 *2573:A2 *2571:A1 0.000365454
21 *2573:A2 *2572:A1 0.000559755
22 *2946:D *2441:A1 1.18076e-06
23 *2991:D *2572:A1 6.46422e-05
24 *373:50 *2572:A1 0.00018021
25 *373:50 *871:20 0.000161852
26 *416:10 *871:12 1.68677e-06
27 *707:50 *2441:A1 0
28 *707:54 *2441:A1 0
29 *707:54 *2571:A1 0.000664135
30 *707:54 *871:20 0
31 *707:63 *2571:A1 1.61174e-05
32 *707:67 *2571:A1 8.91442e-05
33 *870:14 *2441:A1 1.04742e-05
34 *870:14 *871:12 0.000124766
35 *870:14 *871:14 2.50104e-05
36 *870:14 *871:20 1.31826e-05
37 *870:25 *871:12 2.89427e-06
38 *870:25 *871:20 0.000192116
*RES
1 *2991:Q *871:12 11.61 
2 *871:12 *871:14 0.45 
3 *871:14 *871:20 7.74 
4 *871:20 *2572:A1 8.19 
5 *871:20 *2571:A1 16.2 
6 *871:14 *2575:A2 9 
7 *871:12 *2441:A1 11.07 
*END

*D_NET *872 0.00541289
*CONN
*I *2574:A1 I *D gf180mcu_fd_sc_mcu7t5v0__nor2_1
*I *3182:I I *D gf180mcu_fd_sc_mcu7t5v0__dlyc_1
*I *2575:A1 I *D gf180mcu_fd_sc_mcu7t5v0__and4_1
*I *2992:Q O *D gf180mcu_fd_sc_mcu7t5v0__dffq_1
*CAP
1 *2574:A1 0.000218803
2 *3182:I 0.000398203
3 *2575:A1 0.000228402
4 *2992:Q 8.39446e-05
5 *872:12 0.00115466
6 *872:8 0.000830805
7 *2438:A1 *2575:A1 4.34199e-06
8 *2441:A1 *2575:A1 5.89956e-05
9 *2441:A1 *3182:I 0.000138738
10 *2443:A1 *3182:I 0.00110914
11 *2446:A1 *3182:I 0.000201744
12 *2452:A1 *2574:A1 0.000195368
13 *2452:A1 *872:8 0.000115973
14 *2452:A2 *2574:A1 3.22348e-05
15 *2575:A4 *2575:A1 1.79237e-05
16 *2946:D *2574:A1 3.55118e-05
17 *2946:D *3182:I 0
18 *2946:D *872:12 4.03401e-05
19 *2946:CLK *872:12 1.27919e-05
20 *3119:I *872:12 7.82853e-05
21 *296:70 *2574:A1 0.000237866
22 *385:24 *2574:A1 2.13676e-05
23 *385:24 *872:12 0
24 *416:10 *872:8 0
25 *707:30 *3182:I 5.9617e-05
26 *870:14 *872:12 4.34886e-05
27 *871:12 *872:12 6.73434e-05
28 *871:14 *2575:A1 2.70026e-05
*RES
1 *2992:Q *872:8 5.4 
2 *872:8 *872:12 8.37 
3 *872:12 *2575:A1 10.44 
4 *872:12 *3182:I 14.22 
5 *872:8 *2574:A1 7.02 
*END

*D_NET *873 0.00564623
*CONN
*I *2392:A1 I *D gf180mcu_fd_sc_mcu7t5v0__nor2_1
*I *2520:A3 I *D gf180mcu_fd_sc_mcu7t5v0__and4_1
*I *2518:A1 I *D gf180mcu_fd_sc_mcu7t5v0__and2_1
*I *2517:A1 I *D gf180mcu_fd_sc_mcu7t5v0__nor2_1
*I *2974:Q O *D gf180mcu_fd_sc_mcu7t5v0__dffq_1
*CAP
1 *2392:A1 0.000112431
2 *2520:A3 0
3 *2518:A1 6.74707e-05
4 *2517:A1 0.000143186
5 *2974:Q 0.000477291
6 *873:36 0.000252226
7 *873:12 0.000305895
8 *873:10 0.000712325
9 *2392:A1 *2520:A2 6.92926e-05
10 *873:36 *2520:A2 1.07374e-05
11 *2517:A2 *2517:A1 0.000851947
12 *2520:A4 *2392:A1 0.000258909
13 *2520:A4 *873:36 0.000106536
14 *2521:A1 *2518:A1 0.000365445
15 *2521:A1 *873:36 0
16 *2617:B *873:10 0
17 *2997:CLK *873:10 6.89669e-05
18 *378:8 *2517:A1 1.6855e-05
19 *378:8 *873:12 5.58654e-05
20 *378:10 *2517:A1 1.85284e-05
21 *726:41 *2517:A1 0.00135185
22 *726:41 *873:10 9.4836e-05
23 *726:41 *873:12 0.000305629
*RES
1 *2974:Q *873:10 12.24 
2 *873:10 *873:12 1.71 
3 *873:12 *2517:A1 12.78 
4 *873:12 *2518:A1 9.99 
5 *873:10 *873:36 5.85 
6 *873:36 *2520:A3 4.5 
7 *873:36 *2392:A1 5.76 
*END

*D_NET *874 0.00509135
*CONN
*I *2447:A1 I *D gf180mcu_fd_sc_mcu7t5v0__nor2_1
*I *2577:A1 I *D gf180mcu_fd_sc_mcu7t5v0__nor2_1
*I *2578:A1 I *D gf180mcu_fd_sc_mcu7t5v0__and2_1
*I *2584:A3 I *D gf180mcu_fd_sc_mcu7t5v0__nand4_1
*I *2993:Q O *D gf180mcu_fd_sc_mcu7t5v0__dffq_1
*CAP
1 *2447:A1 0.000544566
2 *2577:A1 0.000229611
3 *2578:A1 9.76157e-05
4 *2584:A3 0.000319883
5 *2993:Q 0
6 *874:32 0.00090816
7 *874:21 0.000590044
8 *874:4 0.000678327
9 *2447:A1 *3184:I 0.000157373
10 *2584:A3 *2584:A1 0
11 *2584:A3 *875:29 3.09098e-05
12 *874:21 *2450:A1 6.06389e-05
13 *874:21 *3184:I 0
14 *874:32 *2450:A1 1.77911e-05
15 *2574:A2 *2447:A1 6.25926e-05
16 *2574:A2 *2577:A1 5.39013e-05
17 *2576:A1 *874:32 0.000438612
18 *2576:A2 *2447:A1 1.36885e-05
19 *2584:A4 *2584:A3 0
20 *2584:A4 *874:21 2.51978e-05
21 *2584:A4 *874:32 1.17652e-05
22 *2995:D *2584:A3 3.56708e-05
23 *2995:D *874:21 3.94491e-05
24 *296:70 *2447:A1 2.37695e-05
25 *373:23 *2447:A1 1.57567e-05
26 *373:27 *2447:A1 0
27 *373:27 *2577:A1 0
28 *416:12 *874:32 1.17652e-05
29 *416:14 *874:32 5.9617e-05
30 *700:51 *2584:A3 0
31 *700:99 *2584:A3 0.000248583
32 *700:99 *874:21 0.000379504
33 *774:14 *2447:A1 3.65607e-05
*RES
1 *2993:Q *874:4 4.5 
2 *874:4 *2584:A3 15.66 
3 *874:4 *874:21 2.88 
4 *874:21 *2578:A1 5.13 
5 *874:21 *874:32 6.03 
6 *874:32 *2577:A1 10.17 
7 *874:32 *2447:A1 12.42 
*END

*D_NET *875 0.00704366
*CONN
*I *2583:A1 I *D gf180mcu_fd_sc_mcu7t5v0__aoi21_1
*I *2450:A1 I *D gf180mcu_fd_sc_mcu7t5v0__nor2_1
*I *2581:A1 I *D gf180mcu_fd_sc_mcu7t5v0__and2_1
*I *2584:A2 I *D gf180mcu_fd_sc_mcu7t5v0__nand4_1
*I *2580:A1 I *D gf180mcu_fd_sc_mcu7t5v0__nor2_1
*I *2994:Q O *D gf180mcu_fd_sc_mcu7t5v0__dffq_1
*CAP
1 *2583:A1 0
2 *2450:A1 0.00019197
3 *2581:A1 0.000297723
4 *2584:A2 0
5 *2580:A1 0.000528862
6 *2994:Q 0
7 *875:42 0.00063803
8 *875:38 0.000409866
9 *875:29 0.000795227
10 *875:4 0.00106256
11 *2450:A1 *3184:I 3.69972e-05
12 *875:38 *2584:A1 0.000174029
13 *875:38 *3184:I 1.23607e-05
14 *2450:A2 *2450:A1 7.37195e-06
15 *2576:A1 *2450:A1 0.000122689
16 *2580:A2 *2581:A1 3.97987e-05
17 *2582:A1 *2580:A1 0.000133045
18 *2582:A1 *2581:A1 8.68281e-06
19 *2582:A2 *2580:A1 4.76678e-05
20 *2583:A2 *2581:A1 0.000698101
21 *2583:A2 *875:42 0.000217005
22 *2584:A3 *875:29 3.09098e-05
23 *2585:A3 *875:29 2.65444e-06
24 *2585:A3 *875:38 3.70283e-05
25 *2586:A1 *875:38 0.00023917
26 *2586:A2 *875:29 0.000302466
27 *2586:A2 *875:38 0.000341596
28 *2994:D *2580:A1 4.77483e-06
29 *2995:D *875:29 1.77471e-05
30 *296:70 *875:38 0
31 *373:23 *875:42 5.92728e-05
32 *418:8 *2581:A1 0.000247389
33 *700:51 *2581:A1 7.16551e-06
34 *700:51 *875:42 2.56098e-05
35 *700:53 *2581:A1 4.2766e-05
36 *700:99 *2580:A1 0.000184693
37 *874:21 *2450:A1 6.06389e-05
38 *874:32 *2450:A1 1.77911e-05
*RES
1 *2994:Q *875:4 4.5 
2 *875:4 *2580:A1 17.64 
3 *875:4 *875:29 12.42 
4 *875:29 *2584:A2 4.5 
5 *875:29 *875:38 3.06 
6 *875:38 *875:42 5.85 
7 *875:42 *2581:A1 11.88 
8 *875:42 *2450:A1 10.53 
9 *875:38 *2583:A1 4.5 
*END

*D_NET *876 0.00460452
*CONN
*I *3184:I I *D gf180mcu_fd_sc_mcu7t5v0__dlyc_1
*I *2584:A1 I *D gf180mcu_fd_sc_mcu7t5v0__nand4_1
*I *2995:Q O *D gf180mcu_fd_sc_mcu7t5v0__dffq_1
*CAP
1 *3184:I 0.000738352
2 *2584:A1 0.000191653
3 *2995:Q 0
4 *876:4 0.000930005
5 *2447:A1 *3184:I 0.000157373
6 *2449:A1 *3184:I 0
7 *2450:A1 *3184:I 3.69972e-05
8 *2455:A1 *3184:I 0.0011743
9 *2455:A2 *3184:I 6.04817e-05
10 *2583:B *3184:I 5.50184e-05
11 *2584:A3 *2584:A1 0
12 *2585:A3 *2584:A1 7.20563e-05
13 *2585:A3 *3184:I 0
14 *2586:A1 *3184:I 0.000425752
15 *2586:A2 *2584:A1 4.91692e-05
16 *2995:D *3184:I 1.0415e-05
17 *373:23 *3184:I 0.000151658
18 *700:17 *3184:I 0
19 *700:49 *2584:A1 6.51736e-05
20 *700:51 *2584:A1 0.000299724
21 *774:14 *3184:I 0
22 *874:21 *3184:I 0
23 *875:38 *2584:A1 0.000174029
24 *875:38 *3184:I 1.23607e-05
*RES
1 *2995:Q *876:4 4.5 
2 *876:4 *2584:A1 15.66 
3 *876:4 *3184:I 21.15 
*END

*D_NET *877 0.00284305
*CONN
*I *3137:I I *D gf180mcu_fd_sc_mcu7t5v0__dlyc_1
*I *3172:I I *D gf180mcu_fd_sc_mcu7t5v0__dlyc_1
*I *2996:Q O *D gf180mcu_fd_sc_mcu7t5v0__dffq_1
*CAP
1 *3137:I 0.000201841
2 *3172:I 0.0004602
3 *2996:Q 0
4 *877:4 0.000662041
5 *3172:I *2531:A1 0.000100112
6 *2513:A1 *3172:I 6.8618e-06
7 *2532:B *3172:I 3.81489e-05
8 *2585:A1 *3172:I 1.24166e-05
9 *2585:A2 *3172:I 0.000375166
10 *2588:A2 *3137:I 0
11 *2978:D *3172:I 0.000302466
12 *3044:CLK *3137:I 0
13 *373:12 *3137:I 8.12856e-06
14 *373:12 *3172:I 0.000124935
15 *373:237 *3172:I 0.000109593
16 *700:17 *3172:I 0
17 *700:19 *3172:I 2.09122e-05
18 *700:27 *3137:I 0.000180811
19 *700:27 *3172:I 8.12023e-06
20 *700:49 *3172:I 0.000138305
21 *726:41 *3172:I 9.29938e-05
*RES
1 *2996:Q *877:4 4.5 
2 *877:4 *3172:I 18.81 
3 *877:4 *3137:I 6.3 
*END

*D_NET *878 0.0027563
*CONN
*I *3175:I I *D gf180mcu_fd_sc_mcu7t5v0__dlyc_1
*I *2520:A2 I *D gf180mcu_fd_sc_mcu7t5v0__and4_1
*I *2975:Q O *D gf180mcu_fd_sc_mcu7t5v0__dffq_1
*CAP
1 *3175:I 0.000231452
2 *2520:A2 0.000256746
3 *2975:Q 0.000271032
4 *878:10 0.00075923
5 *2389:A1 *2520:A2 1.96403e-05
6 *2392:A1 *2520:A2 6.92926e-05
7 *2392:A2 *2520:A2 0.000365445
8 *2394:A1 *2520:A2 0.000156001
9 *2394:A1 *878:10 2.12557e-05
10 *2520:A4 *2520:A2 5.78854e-06
11 *296:35 *3175:I 8.13291e-05
12 *296:39 *2520:A2 6.02974e-05
13 *296:50 *3175:I 6.26041e-05
14 *296:50 *878:10 0.000385445
15 *774:14 *3175:I 0
16 *862:8 *2520:A2 0
17 *862:23 *2520:A2 0
18 *873:36 *2520:A2 1.07374e-05
*RES
1 *2975:Q *878:10 11.34 
2 *878:10 *2520:A2 11.61 
3 *878:10 *3175:I 11.07 
*END

*D_NET *879 0.003428
*CONN
*I *2525:A1 I *D gf180mcu_fd_sc_mcu7t5v0__and2_1
*I *2524:A1 I *D gf180mcu_fd_sc_mcu7t5v0__nor2_1
*I *2398:A1 I *D gf180mcu_fd_sc_mcu7t5v0__nor2_1
*I *2530:A3 I *D gf180mcu_fd_sc_mcu7t5v0__nand4_1
*I *2976:Q O *D gf180mcu_fd_sc_mcu7t5v0__dffq_1
*CAP
1 *2525:A1 0
2 *2524:A1 1.24655e-05
3 *2398:A1 0.000316332
4 *2530:A3 0.000138564
5 *2976:Q 0.000470533
6 *879:14 0.000610645
7 *879:12 0.000378702
8 *879:8 0.000681021
9 *2398:A1 *2401:A1 0
10 *2519:A2 *879:8 0
11 *2525:A2 *2524:A1 5.97457e-06
12 *2525:A2 *879:12 0.000161439
13 *2526:A1 *879:8 0
14 *2526:A3 *879:12 4.78178e-05
15 *2530:A4 *2398:A1 0
16 *2530:A4 *2530:A3 4.67786e-05
17 *2530:A4 *879:12 0
18 *2530:A4 *879:14 0
19 *2975:CLK *2398:A1 0
20 *2976:CLK *879:8 0.000229781
21 *296:112 *2398:A1 3.98088e-05
22 *382:12 *879:8 1.91698e-05
23 *382:12 *879:12 5.36871e-05
24 *694:35 *2398:A1 4.03097e-06
25 *694:41 *2398:A1 6.71198e-06
26 *774:14 *2530:A3 0.000204537
*RES
1 *2976:Q *879:8 7.74 
2 *879:8 *879:12 1.98 
3 *879:12 *879:14 0.99 
4 *879:14 *2530:A3 15.21 
5 *879:14 *2398:A1 6.66 
6 *879:12 *2524:A1 4.77 
7 *879:8 *2525:A1 4.5 
*END

*D_NET *880 0.00604008
*CONN
*I *2527:A1 I *D gf180mcu_fd_sc_mcu7t5v0__nor2_1
*I *2401:A1 I *D gf180mcu_fd_sc_mcu7t5v0__nor2_1
*I *2530:A2 I *D gf180mcu_fd_sc_mcu7t5v0__nand4_1
*I *2528:A1 I *D gf180mcu_fd_sc_mcu7t5v0__and2_1
*I *2977:Q O *D gf180mcu_fd_sc_mcu7t5v0__dffq_1
*CAP
1 *2527:A1 0.000387571
2 *2401:A1 0.00048125
3 *2530:A2 0
4 *2528:A1 0.000129742
5 *2977:Q 0.000300869
6 *880:27 0.000752339
7 *880:25 0.000658661
8 *880:12 0.000430612
9 *2401:A1 *2404:A1 1.68677e-06
10 *880:27 *2404:A1 2.65444e-06
11 *880:27 *2530:A1 0.000164704
12 *2398:A1 *2401:A1 0
13 *2456:A1 *880:27 0.000436469
14 *2526:A1 *880:12 0.000347629
15 *2527:A2 *2527:A1 0.000359524
16 *2527:A2 *880:12 0.000173021
17 *2528:A2 *2528:A1 0.000208424
18 *2528:A2 *880:12 8.429e-05
19 *2529:A3 *2527:A1 5.2644e-05
20 *2529:A3 *2528:A1 0.000158788
21 *2530:A4 *2401:A1 1.07374e-05
22 *2530:A4 *880:27 0.000164306
23 *2531:A2 *2528:A1 0
24 *2532:A2 *2527:A1 1.19967e-06
25 *2532:A2 *2528:A1 5.47655e-05
26 *2532:A2 *880:27 3.56348e-05
27 *2532:B *2528:A1 0
28 *2976:D *2527:A1 2.75149e-05
29 *2976:D *880:12 0.000156001
30 *2976:D *880:27 0.000104098
31 *296:112 *2401:A1 0
32 *382:12 *880:12 5.92385e-05
33 *384:19 *2528:A1 9.39061e-05
34 *385:24 *2401:A1 1.85986e-05
35 *726:41 *2528:A1 0.000103508
36 *726:41 *880:12 7.96987e-05
*RES
1 *2977:Q *880:12 11.97 
2 *880:12 *2528:A1 10.8 
3 *880:12 *880:25 4.5 
4 *880:25 *880:27 3.33 
5 *880:27 *2530:A2 4.5 
6 *880:27 *2401:A1 7.56 
7 *880:25 *2527:A1 7.56 
*END

*D_NET *881 0.00465228
*CONN
*I *2404:A1 I *D gf180mcu_fd_sc_mcu7t5v0__nor2_1
*I *2532:A1 I *D gf180mcu_fd_sc_mcu7t5v0__oai21_1
*I *2531:A1 I *D gf180mcu_fd_sc_mcu7t5v0__aoi21_1
*I *2530:A1 I *D gf180mcu_fd_sc_mcu7t5v0__nand4_1
*I *2978:Q O *D gf180mcu_fd_sc_mcu7t5v0__dffq_1
*CAP
1 *2404:A1 0.000304734
2 *2532:A1 0
3 *2531:A1 0.000263739
4 *2530:A1 0.000178235
5 *2978:Q 0
6 *881:34 0.000553691
7 *881:17 0.000652162
8 *881:4 0.0003177
9 *2401:A1 *2404:A1 1.68677e-06
10 *2456:A1 *2530:A1 0.000436469
11 *2458:A1 *2404:A1 0
12 *2531:A2 *2531:A1 4.29496e-05
13 *2531:B *2531:A1 1.61174e-05
14 *2532:A2 *2530:A1 0.000192283
15 *2532:A2 *881:34 0.000119952
16 *2532:B *2404:A1 9.65355e-06
17 *2532:B *2531:A1 0.000425752
18 *2532:B *881:34 8.73009e-05
19 *2533:I *2404:A1 3.87766e-05
20 *2533:I *2531:A1 0
21 *2533:I *881:17 0
22 *2533:I *881:34 0.000209557
23 *2585:A2 *2531:A1 0
24 *3172:I *2531:A1 0.000100112
25 *385:24 *2404:A1 3.21762e-05
26 *726:41 *2531:A1 0.00027267
27 *726:41 *881:17 0.00022921
28 *880:27 *2404:A1 2.65444e-06
29 *880:27 *2530:A1 0.000164704
*RES
1 *2978:Q *881:4 4.5 
2 *881:4 *2530:A1 7.02 
3 *881:4 *881:17 5.85 
4 *881:17 *2531:A1 12.06 
5 *881:17 *881:34 6.84 
6 *881:34 *2532:A1 4.5 
7 *881:34 *2404:A1 6.57 
*END

*D_NET *882 0.00213495
*CONN
*I *3190:I I *D gf180mcu_fd_sc_mcu7t5v0__dlyc_1
*I *2979:Q O *D gf180mcu_fd_sc_mcu7t5v0__dffq_1
*CAP
1 *3190:I 0.000304657
2 *2979:Q 0.000304657
3 *3190:I *2843:A1 0.000169515
4 *2410:A1 *3190:I 0.00027267
5 *244:480 *3190:I 0
6 *713:26 *3190:I 0.00108345
*RES
1 *2979:Q *3190:I 22.32 
*END

*D_NET *883 0.00254664
*CONN
*I *3167:I I *D gf180mcu_fd_sc_mcu7t5v0__dlyc_1
*I *2980:Q O *D gf180mcu_fd_sc_mcu7t5v0__dffq_1
*CAP
1 *3167:I 0.000485312
2 *2980:Q 0.000485312
3 *2296:I *3167:I 0.000123964
4 *2410:A1 *3167:I 0.000244944
5 *711:18 *3167:I 0.000703913
6 *711:127 *3167:I 1.58611e-05
7 *778:73 *3167:I 0.000487336
*RES
1 *2980:Q *3167:I 22.86 
*END

*D_NET *884 0.00914627
*CONN
*I *2540:A1 I *D gf180mcu_fd_sc_mcu7t5v0__aoi21_1
*I *2411:A1 I *D gf180mcu_fd_sc_mcu7t5v0__nor2_1
*I *2547:A3 I *D gf180mcu_fd_sc_mcu7t5v0__nand3_1
*I *2544:A2 I *D gf180mcu_fd_sc_mcu7t5v0__and3_1
*I *2543:A1 I *D gf180mcu_fd_sc_mcu7t5v0__aoi21_1
*I *2541:A1 I *D gf180mcu_fd_sc_mcu7t5v0__oai21_1
*I *2981:Q O *D gf180mcu_fd_sc_mcu7t5v0__dffq_1
*CAP
1 *2540:A1 0.000348196
2 *2411:A1 0.000197394
3 *2547:A3 3.91199e-05
4 *2544:A2 2.61604e-05
5 *2543:A1 0.000277121
6 *2541:A1 0.000234335
7 *2981:Q 0
8 *884:51 0.000802209
9 *884:36 0.00064425
10 *884:12 0.000630314
11 *884:10 0.000586115
12 *884:4 0.000763058
13 *2544:A2 *2544:A1 4.04802e-05
14 *2544:A2 *885:27 6.90176e-06
15 *884:10 *2543:B 6.03144e-06
16 *884:10 *885:8 2.65444e-06
17 *2413:A1 *2411:A1 0.000161479
18 *2417:A1 *2411:A1 0.00023968
19 *2537:A1 *2540:A1 2.22139e-05
20 *2537:A1 *884:10 0
21 *2538:A1 *884:10 0.000183662
22 *2540:A2 *2540:A1 7.55765e-06
23 *2540:A2 *2543:A1 1.61174e-05
24 *2540:A2 *884:10 0
25 *2540:B *2540:A1 0.000182272
26 *2540:B *884:10 0.000794309
27 *2541:B *884:10 1.90868e-05
28 *2542:I *2541:A1 1.07374e-05
29 *2544:A3 *884:10 9.84908e-05
30 *2545:A2 *2543:A1 0.000482746
31 *2545:A3 *2541:A1 0
32 *2545:A3 *2543:A1 3.55118e-05
33 *2546:A1 *2411:A1 9.39061e-05
34 *2546:A1 *884:51 6.17442e-05
35 *2546:A2 *884:12 6.30159e-05
36 *2546:A2 *884:36 2.35868e-05
37 *3091:I *2540:A1 0
38 *3226:I *2541:A1 8.05869e-05
39 *373:123 *2543:A1 0.000164525
40 *373:123 *884:10 0.000324888
41 *385:26 *2547:A3 9.3226e-06
42 *385:26 *884:51 6.01893e-05
43 *385:45 *884:51 0
44 *391:6 *884:10 0.000654522
45 *391:19 *2541:A1 0.000152006
46 *391:19 *884:12 7.02546e-05
47 *391:19 *884:36 1.91657e-05
48 *391:39 *2543:A1 3.22348e-05
49 *398:12 *2547:A3 7.98315e-06
50 *398:12 *884:51 1.77859e-05
51 *690:34 *2411:A1 4.73908e-05
52 *690:34 *2541:A1 6.72143e-05
53 *690:34 *884:12 9.26419e-06
54 *690:34 *884:36 2.84236e-06
55 *690:34 *884:51 2.59666e-06
56 *778:79 *2411:A1 6.34901e-05
57 *819:10 *884:10 0
58 *863:8 *2547:A3 3.01487e-05
59 *863:19 *2411:A1 0.000229402
*RES
1 *2981:Q *884:4 4.5 
2 *884:4 *884:10 10.62 
3 *884:10 *884:12 0.99 
4 *884:12 *2541:A1 11.52 
5 *884:12 *2543:A1 12.06 
6 *884:10 *884:36 0.45 
7 *884:36 *2544:A2 9.45 
8 *884:36 *884:51 7.38 
9 *884:51 *2547:A3 4.77 
10 *884:51 *2411:A1 15.66 
11 *884:4 *2540:A1 7.65 
*END

*D_NET *885 0.00570325
*CONN
*I *2543:B I *D gf180mcu_fd_sc_mcu7t5v0__aoi21_1
*I *2414:A1 I *D gf180mcu_fd_sc_mcu7t5v0__nor2_1
*I *2547:A2 I *D gf180mcu_fd_sc_mcu7t5v0__nand3_1
*I *2544:A1 I *D gf180mcu_fd_sc_mcu7t5v0__and3_1
*I *2982:Q O *D gf180mcu_fd_sc_mcu7t5v0__dffq_1
*CAP
1 *2543:B 0.000398544
2 *2414:A1 0.000259019
3 *2547:A2 0
4 *2544:A1 6.37408e-05
5 *2982:Q 2.87414e-05
6 *885:27 0.000735589
7 *885:8 0.0007314
8 *885:6 0.000618375
9 *2413:A1 *2414:A1 7.20168e-05
10 *2422:A1 *2414:A1 0.000133761
11 *2536:A1 *2543:B 1.13343e-05
12 *2537:A2 *2543:B 1.4382e-06
13 *2538:A1 *2543:B 1.02293e-05
14 *2538:A2 *2543:B 2.19964e-05
15 *2538:A3 *2543:B 9.29483e-05
16 *2540:B *2543:B 2.35868e-05
17 *2541:B *2543:B 5.13763e-05
18 *2544:A2 *2544:A1 4.04802e-05
19 *2544:A2 *885:27 6.90176e-06
20 *2544:A3 *885:8 1.17652e-05
21 *2548:A1 *885:8 2.06277e-05
22 *2549:A2 *885:27 7.37195e-06
23 *3127:I *2414:A1 0.000205859
24 *373:123 *885:27 0
25 *385:35 *885:8 0
26 *385:35 *885:27 0
27 *385:45 *2543:B 3.1245e-05
28 *385:45 *885:8 4.1822e-05
29 *391:6 *2543:B 2.15327e-05
30 *391:6 *885:8 5.9617e-05
31 *391:39 *2543:B 0.000135657
32 *398:12 *885:27 0.00016407
33 *689:24 *2414:A1 0
34 *689:24 *885:27 0
35 *690:34 *2414:A1 0.001008
36 *690:34 *885:27 0.000675215
37 *711:18 *2543:B 0
38 *778:79 *2414:A1 1.03035e-05
39 *819:10 *885:6 0
40 *884:10 *2543:B 6.03144e-06
41 *884:10 *885:8 2.65444e-06
*RES
1 *2982:Q *885:6 4.77 
2 *885:6 *885:8 1.71 
3 *885:8 *2544:A1 5.22 
4 *885:8 *885:27 8.28 
5 *885:27 *2547:A2 9 
6 *885:27 *2414:A1 12.24 
7 *885:6 *2543:B 16.38 
*END

*D_NET *886 0.00852661
*CONN
*I *2814:B2 I *D gf180mcu_fd_sc_mcu7t5v0__aoi222_1
*I *2390:A1 I *D gf180mcu_fd_sc_mcu7t5v0__oai21_1
*I *2925:Q O *D gf180mcu_fd_sc_mcu7t5v0__dffq_1
*CAP
1 *2814:B2 0.00193419
2 *2390:A1 0.000212528
3 *2925:Q 0.000225907
4 *886:8 0.00237262
5 *2814:B2 *2396:A1 1.86887e-06
6 *2814:B2 *2835:A1 0.000659116
7 *886:8 *2393:A1 5.6767e-06
8 *2390:A2 *2390:A1 7.15592e-05
9 *2390:A2 *886:8 5.47155e-05
10 *2391:A1 *2814:B2 0.00048483
11 *2391:A2 *2390:A1 0.000365445
12 *2393:A2 *886:8 2.17099e-05
13 *2396:B *2814:B2 0.000436478
14 *2397:A2 *886:8 2.05328e-05
15 *2767:A3 *2814:B2 6.91924e-05
16 *2768:A2 *2814:B2 1.53188e-05
17 *2769:A1 *2814:B2 0.000248583
18 *2773:A2 *2814:B2 1.34631e-05
19 *2814:A2 *2814:B2 1.07374e-05
20 *2819:A1 *2814:B2 0.000169416
21 *2828:A1 *2814:B2 0
22 *2836:A1 *2814:B2 2.20694e-05
23 *2925:D *2390:A1 0.000164219
24 *3038:D *2814:B2 0.000302466
25 *3039:D *2814:B2 0
26 *3039:CLK *2814:B2 0.000391769
27 *244:105 *2390:A1 1.23523e-05
28 *244:233 *886:8 0
29 *296:35 *2390:A1 6.317e-05
30 *296:35 *2814:B2 0
31 *597:38 *2814:B2 0.000176678
32 *781:170 *2814:B2 0
*RES
1 *2925:Q *886:8 10.35 
2 *886:8 *2390:A1 11.43 
3 *886:8 *2814:B2 25.83 
*END

*D_NET *887 0.00408207
*CONN
*I *3178:I I *D gf180mcu_fd_sc_mcu7t5v0__dlyc_1
*I *2835:B2 I *D gf180mcu_fd_sc_mcu7t5v0__aoi222_1
*I *2935:Q O *D gf180mcu_fd_sc_mcu7t5v0__dffq_1
*CAP
1 *3178:I 0.000314406
2 *2835:B2 0.000245236
3 *2935:Q 0
4 *887:6 0.000559642
5 *3178:I *2827:A1 6.33547e-05
6 *2828:A1 *3178:I 6.33547e-05
7 *2835:A2 *2835:B2 6.68386e-05
8 *2835:A2 *3178:I 0.000115853
9 *3038:CLK *3178:I 0.000637963
10 *244:370 *2835:B2 0
11 *597:38 *3178:I 2.84883e-05
12 *600:66 *2835:B2 0.000198746
13 *694:102 *2835:B2 0.000132147
14 *712:72 *2835:B2 0.000914588
15 *712:72 *3178:I 0.000244819
16 *779:95 *2835:B2 0.000496633
*RES
1 *2935:Q *887:6 9 
2 *887:6 *2835:B2 13.05 
3 *887:6 *3178:I 12.6 
*END

*D_NET *888 0.00225141
*CONN
*I *3179:I I *D gf180mcu_fd_sc_mcu7t5v0__dlyc_1
*I *2843:B2 I *D gf180mcu_fd_sc_mcu7t5v0__aoi222_1
*I *2936:Q O *D gf180mcu_fd_sc_mcu7t5v0__dffq_1
*CAP
1 *3179:I 0.000241457
2 *2843:B2 0.000166406
3 *2936:Q 0.000164493
4 *888:10 0.000572356
5 *2843:B2 *2818:C2 0
6 *2843:B2 *2843:C2 0.000118428
7 *888:10 *2843:C2 0.000215887
8 *2412:B *2843:B2 0
9 *2412:B *888:10 0.000465988
10 *2419:A1 *3179:I 6.27096e-05
11 *2419:A1 *888:10 4.24792e-05
12 *2843:B1 *2843:B2 1.0415e-05
13 *2844:A2 *2843:B2 1.26219e-05
14 *2844:A2 *3179:I 0.000178167
*RES
1 *2936:Q *888:10 11.16 
2 *888:10 *2843:B2 10.17 
3 *888:10 *3179:I 11.43 
*END

*D_NET *889 0.00384514
*CONN
*I *3165:I I *D gf180mcu_fd_sc_mcu7t5v0__dlyc_1
*I *2851:B2 I *D gf180mcu_fd_sc_mcu7t5v0__aoi222_1
*I *2937:Q O *D gf180mcu_fd_sc_mcu7t5v0__dffq_1
*CAP
1 *3165:I 0.000112815
2 *2851:B2 8.82662e-05
3 *2937:Q 7.65053e-05
4 *889:8 0.000277586
5 *2851:B2 *2843:C2 0
6 *2851:B2 *2859:B2 1.0415e-05
7 *889:8 *2866:A1 9.3226e-06
8 *889:8 *2879:C2 3.58474e-05
9 *2434:A1 *2851:B2 0.000601531
10 *2434:A1 *889:8 0.000183662
11 *2440:A2 *3165:I 6.79568e-05
12 *2440:A2 *889:8 0.000294431
13 *597:59 *3165:I 0.00027661
14 *601:29 *3165:I 0.000653857
15 *601:41 *2851:B2 0.000747296
16 *601:41 *3165:I 0.000409038
*RES
1 *2937:Q *889:8 10.35 
2 *889:8 *2851:B2 11.16 
3 *889:8 *3165:I 11.79 
*END

*D_NET *890 0.00449831
*CONN
*I *2427:A1 I *D gf180mcu_fd_sc_mcu7t5v0__oai21_1
*I *2859:B2 I *D gf180mcu_fd_sc_mcu7t5v0__aoi222_1
*I *2938:Q O *D gf180mcu_fd_sc_mcu7t5v0__dffq_1
*CAP
1 *2427:A1 0
2 *2859:B2 0.00039479
3 *2938:Q 0.000220248
4 *890:8 0.000615038
5 *2859:B2 *2866:B2 0.000365454
6 *2859:B2 *2866:C1 0
7 *890:8 *2843:C2 0
8 *2427:B *890:8 2.89427e-06
9 *2434:A1 *2859:B2 0.000496576
10 *2851:B1 *2859:B2 0.000278763
11 *2851:B2 *2859:B2 1.0415e-05
12 *2859:A2 *2859:B2 0.000974119
13 *2859:B1 *2859:B2 0.000258536
14 *3159:I *2859:B2 0
15 *597:65 *2859:B2 7.26205e-05
16 *600:30 *2859:B2 9.45383e-05
17 *601:41 *2859:B2 0.00043778
18 *709:95 *2859:B2 3.22348e-05
19 *781:60 *890:8 7.20334e-05
20 *781:67 *890:8 0.000172267
*RES
1 *2938:Q *890:8 6.3 
2 *890:8 *2859:B2 20.34 
3 *890:8 *2427:A1 4.5 
*END

*D_NET *891 0.00266585
*CONN
*I *3169:I I *D gf180mcu_fd_sc_mcu7t5v0__dlyc_1
*I *2866:B2 I *D gf180mcu_fd_sc_mcu7t5v0__aoi222_1
*I *2939:Q O *D gf180mcu_fd_sc_mcu7t5v0__dffq_1
*CAP
1 *3169:I 6.82521e-05
2 *2866:B2 2.08816e-05
3 *2939:Q 0.000213588
4 *891:10 0.000302722
5 *891:10 *2843:C2 0.000204482
6 *891:10 *2866:C1 7.02692e-05
7 *2427:B *891:10 0.000213046
8 *2859:B1 *2866:B2 0.000365454
9 *2859:B2 *2866:B2 0.000365454
10 *3094:I *3169:I 0.0001981
11 *3094:I *891:10 0.000643597
12 *600:26 *3169:I 0
*RES
1 *2939:Q *891:10 12.06 
2 *891:10 *2866:B2 9.99 
3 *891:10 *3169:I 9.63 
*END

*D_NET *892 0.00379717
*CONN
*I *2879:B2 I *D gf180mcu_fd_sc_mcu7t5v0__aoi222_1
*I *3176:I I *D gf180mcu_fd_sc_mcu7t5v0__dlyc_1
*I *2940:Q O *D gf180mcu_fd_sc_mcu7t5v0__dffq_1
*CAP
1 *2879:B2 0.000452809
2 *3176:I 0.000148614
3 *2940:Q 0.00016662
4 *892:8 0.000768043
5 *3176:I *2835:A1 0.00109117
6 *2439:A1 *892:8 7.96333e-06
7 *2439:A2 *3176:I 9.37535e-05
8 *2827:A2 *2879:B2 0.000471492
9 *2827:A2 *892:8 8.40821e-05
10 *244:370 *2879:B2 0.000169362
11 *244:370 *892:8 0.00013069
12 *599:82 *2879:B2 3.22348e-05
13 *600:66 *2879:B2 8.8553e-05
14 *600:73 *2879:B2 5.97457e-06
15 *781:14 *3176:I 8.58089e-05
*RES
1 *2940:Q *892:8 6.12 
2 *892:8 *3176:I 16.29 
3 *892:8 *2879:B2 8.82 
*END

*D_NET *893 0.0047422
*CONN
*I *2818:C2 I *D gf180mcu_fd_sc_mcu7t5v0__aoi222_1
*I *2436:A1 I *D gf180mcu_fd_sc_mcu7t5v0__oai21_1
*I *2941:Q O *D gf180mcu_fd_sc_mcu7t5v0__dffq_1
*CAP
1 *2818:C2 0.000894127
2 *2436:A1 0.000256586
3 *2941:Q 0
4 *893:6 0.00115071
5 *2818:C2 *2843:C2 0
6 *2818:C2 *2866:A1 0.000236031
7 *2422:A2 *2436:A1 0
8 *2425:A1 *2436:A1 0.00103626
9 *2425:A1 *2818:C2 0.000354143
10 *2425:A2 *2818:C2 0.00018838
11 *2426:A1 *2436:A1 0.000431976
12 *2436:B *2436:A1 6.10381e-05
13 *2436:B *2818:C2 3.08806e-06
14 *2437:A1 *2436:A1 0
15 *2818:B1 *2818:C2 2.89427e-06
16 *2843:B2 *2818:C2 0
17 *2844:A2 *2818:C2 3.38767e-05
18 *3161:I *2436:A1 2.32821e-05
19 *3161:I *2818:C2 0
20 *244:387 *2818:C2 6.98063e-05
*RES
1 *2941:Q *893:6 9 
2 *893:6 *2436:A1 12.78 
3 *893:6 *2818:C2 16.38 
*END

*D_NET *894 0.0029433
*CONN
*I *3166:I I *D gf180mcu_fd_sc_mcu7t5v0__dlyc_1
*I *2827:B2 I *D gf180mcu_fd_sc_mcu7t5v0__aoi222_1
*I *2942:Q O *D gf180mcu_fd_sc_mcu7t5v0__dffq_1
*CAP
1 *3166:I 0.000179183
2 *2827:B2 0.000156966
3 *2942:Q 0.000136785
4 *894:8 0.000472935
5 *2827:B2 *2827:A1 0.00011304
6 *894:8 *2827:A1 0.000218465
7 *894:8 *2827:C1 0.000416302
8 *2827:A2 *2827:B2 9.91257e-05
9 *2828:A2 *2827:B2 0.000100699
10 *2828:A2 *3166:I 5.55468e-05
11 *597:51 *894:8 0.000103065
12 *597:59 *894:8 6.16286e-05
13 *601:16 *894:8 0.000162624
14 *601:29 *2827:B2 9.84908e-05
15 *601:29 *894:8 6.34901e-05
16 *694:13 *2827:B2 8.11581e-05
17 *694:13 *3166:I 0.000423797
*RES
1 *2942:Q *894:8 11.25 
2 *894:8 *2827:B2 10.62 
3 *894:8 *3166:I 11.43 
*END

*D_NET *895 0.00820788
*CONN
*I *3191:I I *D gf180mcu_fd_sc_mcu7t5v0__dlyc_1
*I *2835:C1 I *D gf180mcu_fd_sc_mcu7t5v0__aoi222_1
*I *2943:Q O *D gf180mcu_fd_sc_mcu7t5v0__dffq_1
*CAP
1 *3191:I 0.000382882
2 *2835:C1 0.000343112
3 *2943:Q 0.000244897
4 *895:6 0.000970891
5 *2835:C1 *2879:C2 5.02137e-05
6 *2868:A1 *3191:I 0.00085296
7 *597:59 *2835:C1 0.00108345
8 *600:51 *2835:C1 0.00140712
9 *601:16 *2835:C1 0
10 *601:16 *895:6 1.56652e-05
11 *601:41 *2835:C1 0.000150744
12 *601:66 *2835:C1 0.00115519
13 *601:85 *2835:C1 3.01487e-05
14 *631:16 *2835:C1 0.00105383
15 *631:16 *3191:I 0.000358177
16 *694:29 *2835:C1 7.12129e-05
17 *694:29 *895:6 3.73868e-05
*RES
1 *2943:Q *895:6 5.85 
2 *895:6 *2835:C1 21.6 
3 *895:6 *3191:I 18.81 
*END

*D_NET *896 0.00623634
*CONN
*I *2843:C2 I *D gf180mcu_fd_sc_mcu7t5v0__aoi222_1
*I *2445:A1 I *D gf180mcu_fd_sc_mcu7t5v0__oai21_1
*I *2944:Q O *D gf180mcu_fd_sc_mcu7t5v0__dffq_1
*CAP
1 *2843:C2 0.00154169
2 *2445:A1 0
3 *2944:Q 0.000237236
4 *896:8 0.00177892
5 *2843:C2 *2851:C1 1.79237e-05
6 *2843:C2 *2859:C1 8.17064e-05
7 *896:8 *2859:C1 9.71964e-06
8 *896:8 *2866:C1 3.34556e-05
9 *2412:B *2843:C2 0.000197442
10 *2427:B *2843:C2 0.000222963
11 *2427:B *896:8 0.000202354
12 *2818:C2 *2843:C2 0
13 *2843:B2 *2843:C2 0.000118428
14 *2851:B2 *2843:C2 0
15 *2851:C2 *2843:C2 2.36813e-05
16 *2859:C2 *2843:C2 0.00033694
17 *2937:D *2843:C2 0.00040141
18 *244:251 *896:8 0.000224296
19 *601:43 *2843:C2 0.000237716
20 *781:67 *2843:C2 0
21 *781:85 *896:8 0.000150089
22 *888:10 *2843:C2 0.000215887
23 *890:8 *2843:C2 0
24 *891:10 *2843:C2 0.000204482
*RES
1 *2944:Q *896:8 6.84 
2 *896:8 *2445:A1 4.5 
3 *896:8 *2843:C2 18.54 
*END

*D_NET *897 0.00643202
*CONN
*I *2827:C1 I *D gf180mcu_fd_sc_mcu7t5v0__aoi222_1
*I *2393:A1 I *D gf180mcu_fd_sc_mcu7t5v0__oai21_1
*I *2926:Q O *D gf180mcu_fd_sc_mcu7t5v0__dffq_1
*CAP
1 *2827:C1 0.000920779
2 *2393:A1 0.000318348
3 *2926:Q 2.99058e-05
4 *897:6 0.00126903
5 *2827:C1 *2399:A1 0.000154052
6 *2827:C1 *3188:I 0
7 *2394:A2 *2393:A1 5.12372e-05
8 *2396:B *2393:A1 0.00020331
9 *2397:A2 *2393:A1 0.000445488
10 *2399:B *2827:C1 0.000112732
11 *2400:A1 *2827:C1 0.00100264
12 *2400:A1 *897:6 9.04462e-05
13 *2400:A2 *2827:C1 0.000159335
14 *2442:A1 *2827:C1 0.000146022
15 *2927:D *2827:C1 0
16 *2927:D *897:6 0
17 *2928:D *2827:C1 0.000279772
18 *2928:CLK *2827:C1 8.12856e-06
19 *244:233 *2393:A1 0.000204168
20 *597:59 *2827:C1 9.04462e-05
21 *601:16 *2827:C1 3.99498e-05
22 *781:170 *2393:A1 0.000484242
23 *886:8 *2393:A1 5.6767e-06
24 *894:8 *2827:C1 0.000416302
*RES
1 *2926:Q *897:6 4.77 
2 *897:6 *2393:A1 17.55 
3 *897:6 *2827:C1 13.59 
*END

*D_NET *898 0.00764711
*CONN
*I *2851:C1 I *D gf180mcu_fd_sc_mcu7t5v0__aoi222_1
*I *2448:A1 I *D gf180mcu_fd_sc_mcu7t5v0__oai21_1
*I *2945:Q O *D gf180mcu_fd_sc_mcu7t5v0__dffq_1
*CAP
1 *2851:C1 0.000752906
2 *2448:A1 5.78943e-05
3 *2945:Q 0.000139464
4 *898:10 0.000950265
5 *2851:C1 *2859:C1 0.000108855
6 *898:10 *2454:A1 1.39088e-05
7 *898:10 *899:12 1.39839e-05
8 *2443:A1 *2448:A1 9.4913e-06
9 *2443:A1 *2851:C1 3.15236e-05
10 *2445:B *2851:C1 0.000224296
11 *2452:A2 *898:10 0.000151417
12 *2454:B *898:10 0.000425742
13 *2843:C2 *2851:C1 1.79237e-05
14 *2851:B1 *2851:C1 9.81583e-05
15 *2851:C2 *2851:C1 1.39839e-05
16 *2859:B1 *2851:C1 0.000974119
17 *2859:C2 *2851:C1 0.000198568
18 *2930:CLK *2448:A1 4.02636e-05
19 *2948:CLK *2851:C1 0.000348355
20 *244:271 *2851:C1 0.00156733
21 *244:277 *2851:C1 0.000176487
22 *600:30 *2851:C1 0.00020664
23 *601:43 *2851:C1 0.000146089
24 *709:84 *2851:C1 0.000385952
25 *709:95 *2851:C1 5.75641e-05
26 *781:93 *2448:A1 0.000382875
27 *781:93 *2851:C1 6.26041e-05
28 *781:93 *898:10 9.04462e-05
*RES
1 *2945:Q *898:10 10.8 
2 *898:10 *2448:A1 9.99 
3 *898:10 *2851:C1 20.34 
*END

*D_NET *899 0.00417316
*CONN
*I *2859:C1 I *D gf180mcu_fd_sc_mcu7t5v0__aoi222_1
*I *2451:A1 I *D gf180mcu_fd_sc_mcu7t5v0__oai21_1
*I *2946:Q O *D gf180mcu_fd_sc_mcu7t5v0__dffq_1
*CAP
1 *2859:C1 0.000577225
2 *2451:A1 0
3 *2946:Q 0.000408846
4 *899:12 0.000986071
5 *2445:B *2859:C1 4.81429e-05
6 *2446:A2 *2859:C1 8.84705e-05
7 *2449:A2 *899:12 0
8 *2452:A2 *899:12 3.01487e-05
9 *2843:C2 *2859:C1 8.17064e-05
10 *2851:C1 *2859:C1 0.000108855
11 *2930:D *2859:C1 0.000294431
12 *2930:D *899:12 0.000221777
13 *2930:CLK *899:12 0
14 *244:271 *2859:C1 0.000307964
15 *244:277 *899:12 0.000292006
16 *781:85 *2859:C1 0.00048829
17 *781:85 *899:12 1.0415e-05
18 *781:93 *899:12 0.000205103
19 *896:8 *2859:C1 9.71964e-06
20 *898:10 *899:12 1.39839e-05
*RES
1 *2946:Q *899:12 16.92 
2 *899:12 *2451:A1 4.5 
3 *899:12 *2859:C1 11.07 
*END

*D_NET *900 0.00544412
*CONN
*I *2454:A1 I *D gf180mcu_fd_sc_mcu7t5v0__oai21_1
*I *2866:C1 I *D gf180mcu_fd_sc_mcu7t5v0__aoi222_1
*I *2947:Q O *D gf180mcu_fd_sc_mcu7t5v0__dffq_1
*CAP
1 *2454:A1 0.000490614
2 *2866:C1 0.00100329
3 *2947:Q 0
4 *900:4 0.0014939
5 *2427:B *2866:C1 0.000353303
6 *2430:A1 *2866:C1 0.000782491
7 *2431:A2 *2866:C1 5.30751e-05
8 *2449:A2 *2454:A1 0.000290223
9 *2454:A2 *2454:A1 3.90248e-05
10 *2454:B *2454:A1 0.000210731
11 *2859:B2 *2866:C1 0
12 *2944:D *2866:C1 0
13 *3094:I *2866:C1 5.31501e-05
14 *3118:I *2454:A1 2.37527e-05
15 *3118:I *2866:C1 7.82936e-05
16 *3159:I *2866:C1 0.000174506
17 *244:251 *2866:C1 9.49368e-05
18 *601:41 *2866:C1 0
19 *781:60 *2866:C1 9.84776e-05
20 *781:85 *2454:A1 4.33781e-05
21 *781:85 *2866:C1 4.33369e-05
22 *891:10 *2866:C1 7.02692e-05
23 *896:8 *2866:C1 3.34556e-05
24 *898:10 *2454:A1 1.39088e-05
*RES
1 *2947:Q *900:4 4.5 
2 *900:4 *2866:C1 23.04 
3 *900:4 *2454:A1 8.91 
*END

*D_NET *901 0.0108926
*CONN
*I *2879:C2 I *D gf180mcu_fd_sc_mcu7t5v0__aoi222_1
*I *2457:A1 I *D gf180mcu_fd_sc_mcu7t5v0__oai21_1
*I *2948:Q O *D gf180mcu_fd_sc_mcu7t5v0__dffq_1
*CAP
1 *2879:C2 0.00157318
2 *2457:A1 0
3 *2948:Q 0.000538288
4 *901:14 0.00211146
5 *2397:A1 *901:14 1.56779e-05
6 *2424:A2 *2879:C2 2.71593e-05
7 *2434:A1 *2879:C2 0
8 *2434:A2 *2879:C2 1.61136e-05
9 *2440:A2 *2879:C2 8.53303e-05
10 *2442:A1 *2879:C2 4.0961e-06
11 *2457:B *2879:C2 0.000409046
12 *2457:B *901:14 7.46964e-06
13 *2835:A2 *2879:C2 1.71254e-05
14 *2835:C1 *2879:C2 5.02137e-05
15 *2836:A2 *2879:C2 0.000726432
16 *2926:D *901:14 0.00037349
17 *2940:D *2879:C2 0.000110799
18 *2940:CLK *2879:C2 0
19 *2942:CLK *2879:C2 0.000547652
20 *2943:D *2879:C2 0.000482459
21 *2943:D *901:14 6.40664e-06
22 *244:239 *901:14 0
23 *244:241 *901:14 0
24 *244:332 *2879:C2 0
25 *600:20 *2879:C2 0.00021249
26 *600:51 *2879:C2 1.15478e-05
27 *600:66 *2879:C2 0.000470702
28 *601:41 *2879:C2 0.000158798
29 *601:66 *2879:C2 0.00112772
30 *601:85 *2879:C2 0.000450218
31 *694:29 *901:14 0.000181176
32 *694:102 *2879:C2 0.000464824
33 *709:67 *901:14 0.000146212
34 *709:71 *901:14 0.000212085
35 *712:72 *2879:C2 3.10746e-05
36 *781:37 *2879:C2 0.00011375
37 *781:43 *2879:C2 3.87363e-05
38 *781:128 *2879:C2 0.000135063
39 *889:8 *2879:C2 3.58474e-05
*RES
1 *2948:Q *901:14 18.81 
2 *901:14 *2457:A1 4.5 
3 *901:14 *2879:C2 31.23 
*END

*D_NET *902 0.00859861
*CONN
*I *2835:A1 I *D gf180mcu_fd_sc_mcu7t5v0__aoi222_1
*I *2396:A1 I *D gf180mcu_fd_sc_mcu7t5v0__oai21_1
*I *2927:Q O *D gf180mcu_fd_sc_mcu7t5v0__dffq_1
*CAP
1 *2835:A1 0.00142888
2 *2396:A1 0.000233467
3 *2927:Q 0
4 *902:4 0.00166235
5 *2439:A2 *2835:A1 1.70787e-05
6 *2814:B2 *2396:A1 1.86887e-06
7 *2814:B2 *2835:A1 0.000659116
8 *2828:A1 *2835:A1 7.89866e-05
9 *2835:A2 *2835:A1 0.00122666
10 *3039:CLK *2835:A1 0.000956581
11 *3176:I *2835:A1 0.00109117
12 *597:38 *2835:A1 0.000926932
13 *694:102 *2835:A1 4.34199e-06
14 *781:14 *2835:A1 4.8913e-05
15 *781:162 *2396:A1 0.000183662
16 *781:162 *2835:A1 6.81917e-05
17 *781:170 *2396:A1 1.0415e-05
*RES
1 *2927:Q *902:4 4.5 
2 *902:4 *2396:A1 6.48 
3 *902:4 *2835:A1 28.98 
*END

*D_NET *903 0.0116477
*CONN
*I *2842:B2 I *D gf180mcu_fd_sc_mcu7t5v0__aoi222_1
*I *2399:A1 I *D gf180mcu_fd_sc_mcu7t5v0__oai21_1
*I *2928:Q O *D gf180mcu_fd_sc_mcu7t5v0__dffq_1
*CAP
1 *2842:B2 0.00200415
2 *2399:A1 0.000416554
3 *2928:Q 0
4 *903:6 0.00242071
5 *2842:B2 *2814:C2 3.94615e-05
6 *2842:B2 *2842:A1 0.00023711
7 *2842:B2 *942:8 1.51875e-05
8 *2400:A2 *2399:A1 0.000353269
9 *2666:A1 *2842:B2 0.00104769
10 *2666:A2 *2842:B2 2.08301e-05
11 *2681:A1 *2842:B2 9.00618e-05
12 *2682:A1 *2842:B2 1.27836e-05
13 *2771:A2 *2842:B2 3.54696e-05
14 *2771:B2 *2842:B2 0
15 *2772:B *2842:B2 0.00032797
16 *2827:C1 *2399:A1 0.000154052
17 *2844:A2 *2842:B2 6.58629e-05
18 *2847:A2 *2842:B2 9.30289e-05
19 *2860:A2 *2399:A1 0.00157053
20 *2860:A2 *2842:B2 0.00129953
21 *3039:CLK *2399:A1 0
22 *3229:I *2399:A1 0
23 *3229:I *2842:B2 0
24 *290:14 *2842:B2 0
25 *484:6 *2842:B2 2.66244e-05
26 *485:8 *2842:B2 0.00023506
27 *486:20 *2842:B2 2.59097e-05
28 *502:18 *2842:B2 0.000896228
29 *601:16 *2399:A1 1.23607e-05
30 *689:24 *2842:B2 5.8967e-05
31 *726:12 *2842:B2 0
32 *778:10 *2842:B2 0
33 *781:14 *2842:B2 1.64102e-05
34 *783:28 *2842:B2 0.000171937
*RES
1 *2928:Q *903:6 9 
2 *903:6 *2399:A1 14.22 
3 *903:6 *2842:B2 35.91 
*END

*D_NET *904 0.0093024
*CONN
*I *3188:I I *D gf180mcu_fd_sc_mcu7t5v0__dlyc_1
*I *2851:A1 I *D gf180mcu_fd_sc_mcu7t5v0__aoi222_1
*I *2929:Q O *D gf180mcu_fd_sc_mcu7t5v0__dffq_1
*CAP
1 *3188:I 0.000394636
2 *2851:A1 0.00071171
3 *2929:Q 0
4 *904:6 0.00110635
5 *2851:A1 *2859:A1 0.00027306
6 *2851:A1 *2866:A1 0.000253519
7 *2397:A2 *3188:I 0.000496776
8 *2424:A1 *2851:A1 4.6984e-06
9 *2440:A1 *2851:A1 8.13196e-05
10 *2443:A2 *2851:A1 0.000253418
11 *2827:C1 *3188:I 0
12 *2859:A2 *2851:A1 0.000140012
13 *2860:A2 *2851:A1 9.84908e-05
14 *2860:A2 *3188:I 0
15 *2868:A1 *2851:A1 0.000100113
16 *2927:D *3188:I 0.000974129
17 *3229:I *2851:A1 0.00174549
18 *3229:I *3188:I 0.000700576
19 *597:65 *2851:A1 0.000189195
20 *631:16 *2851:A1 9.84908e-05
21 *709:65 *3188:I 2.36813e-05
22 *709:84 *2851:A1 1.51153e-05
23 *709:95 *2851:A1 0.000585214
24 *709:126 *3188:I 6.96972e-05
25 *709:137 *3188:I 0.000432241
26 *781:43 *2851:A1 0.000284536
27 *781:45 *2851:A1 0.000155376
28 *781:47 *2851:A1 0.000114555
*RES
1 *2929:Q *904:6 9 
2 *904:6 *2851:A1 19.62 
3 *904:6 *3188:I 14.76 
*END

*D_NET *905 0.00403924
*CONN
*I *2859:A1 I *D gf180mcu_fd_sc_mcu7t5v0__aoi222_1
*I *2405:A1 I *D gf180mcu_fd_sc_mcu7t5v0__oai21_1
*I *2930:Q O *D gf180mcu_fd_sc_mcu7t5v0__dffq_1
*CAP
1 *2859:A1 0.000180548
2 *2405:A1 3.44897e-05
3 *2930:Q 0.000197138
4 *905:12 0.000412175
5 *2402:A1 *2859:A1 0.00125293
6 *2402:A1 *905:12 0.000960242
7 *2403:A1 *905:12 2.40933e-06
8 *2406:A2 *905:12 0.00015997
9 *2440:A1 *2859:A1 0
10 *2443:A1 *2859:A1 6.26074e-05
11 *2443:A1 *905:12 3.60275e-05
12 *2443:A2 *2859:A1 0.000456356
13 *2851:A1 *2859:A1 0.00027306
14 *709:71 *905:12 3.31858e-06
15 *709:84 *2859:A1 7.96333e-06
*RES
1 *2930:Q *905:12 16.38 
2 *905:12 *2405:A1 4.77 
3 *905:12 *2859:A1 8.19 
*END

*D_NET *906 0.00828144
*CONN
*I *2866:A1 I *D gf180mcu_fd_sc_mcu7t5v0__aoi222_1
*I *2407:A1 I *D gf180mcu_fd_sc_mcu7t5v0__oai21_1
*I *2931:Q O *D gf180mcu_fd_sc_mcu7t5v0__dffq_1
*CAP
1 *2866:A1 0.00216784
2 *2407:A1 0.000466809
3 *2931:Q 2.15191e-05
4 *906:8 0.00265617
5 *2866:A1 *2818:A1 1.74796e-05
6 *2866:A1 *2818:B2 7.50065e-05
7 *2866:A1 *2843:A1 0
8 *2866:A1 *2878:B2 9.07674e-05
9 *2866:A1 *908:12 1.56942e-05
10 *906:8 *2843:A1 9.85004e-05
11 *906:8 *2878:B2 0
12 *2408:B *2407:A1 0.000151417
13 *2416:A1 *2866:A1 0.000194879
14 *2416:A2 *2866:A1 8.12023e-06
15 *2419:A1 *2866:A1 0
16 *2424:A1 *2866:A1 0.00036506
17 *2424:B *2866:A1 0.000507492
18 *2434:A1 *2866:A1 0.000283529
19 *2440:A2 *2866:A1 4.42624e-05
20 *2818:B1 *2866:A1 0.000150744
21 *2818:C2 *2866:A1 0.000236031
22 *2819:A2 *2866:A1 0
23 *2851:A1 *2866:A1 0.000253519
24 *2934:D *2866:A1 0
25 *2934:CLK *2407:A1 0
26 *2934:CLK *2866:A1 0
27 *2935:D *2866:A1 0
28 *2940:CLK *2866:A1 0.000119952
29 *3128:I *2866:A1 1.77471e-05
30 *244:376 *2866:A1 0.000266418
31 *244:480 *2407:A1 6.317e-05
32 *889:8 *2866:A1 9.3226e-06
*RES
1 *2931:Q *906:8 9.27 
2 *906:8 *2407:A1 12.69 
3 *906:8 *2866:A1 26.82 
*END

*D_NET *907 0.0166925
*CONN
*I *2409:A1 I *D gf180mcu_fd_sc_mcu7t5v0__oai21_1
*I *2878:B2 I *D gf180mcu_fd_sc_mcu7t5v0__aoi222_1
*I *2932:Q O *D gf180mcu_fd_sc_mcu7t5v0__dffq_1
*CAP
1 *2409:A1 0.000443706
2 *2878:B2 0.00343936
3 *2932:Q 0
4 *907:4 0.00388307
5 *2409:A1 *2818:A1 0.000319716
6 *2409:A1 *2843:A1 0
7 *2409:A1 *3135:I 0.000869174
8 *2409:A1 *952:10 3.48522e-05
9 *2878:B2 *2501:A1 0.000404351
10 *2878:B2 *2818:A1 0.000110619
11 *2878:B2 *2843:A1 0
12 *2878:B2 *2878:C2 0.000372597
13 *2878:B2 *918:8 9.13149e-05
14 *2878:B2 *918:14 7.12171e-05
15 *2878:B2 *945:10 0.000275309
16 *2303:I *2878:B2 3.21843e-05
17 *2304:I *2878:B2 0.000130165
18 *2464:A2 *2409:A1 0.000101615
19 *2480:B *2878:B2 1.71215e-05
20 *2498:A1 *2878:B2 0.000559138
21 *2749:B2 *2878:B2 0.000339789
22 *2750:B *2878:B2 0.000872513
23 *2866:A1 *2878:B2 9.07674e-05
24 *2934:CLK *2878:B2 7.77106e-05
25 *2960:CLK *2878:B2 8.3187e-05
26 *2966:D *2878:B2 0.000785725
27 *3128:I *2878:B2 0.000151427
28 *3129:I *2409:A1 0.000169515
29 *295:63 *2878:B2 6.76398e-05
30 *630:24 *2878:B2 0.000133153
31 *656:14 *2878:B2 0.000193224
32 *703:54 *2878:B2 0.000296735
33 *705:10 *2878:B2 9.93993e-06
34 *705:14 *2878:B2 0.000159295
35 *712:10 *2878:B2 0.000184413
36 *712:12 *2878:B2 0.000143583
37 *712:14 *2878:B2 0.000238419
38 *713:20 *2409:A1 0
39 *713:46 *2409:A1 2.42375e-05
40 *756:144 *2878:B2 0
41 *756:179 *2878:B2 0.000292358
42 *756:181 *2878:B2 5.52908e-05
43 *756:187 *2878:B2 4.78571e-05
44 *778:10 *2878:B2 0.000183597
45 *778:16 *2878:B2 0.000491637
46 *779:159 *2409:A1 3.53802e-05
47 *779:161 *2409:A1 0.000154571
48 *782:72 *2878:B2 9.84908e-05
49 *782:79 *2878:B2 3.2326e-06
50 *783:92 *2878:B2 0.000153256
51 *906:8 *2878:B2 0
*RES
1 *2932:Q *907:4 4.5 
2 *907:4 *2878:B2 47.61 
3 *907:4 *2409:A1 19.08 
*END

*D_NET *908 0.00340899
*CONN
*I *3168:I I *D gf180mcu_fd_sc_mcu7t5v0__dlyc_1
*I *2818:B2 I *D gf180mcu_fd_sc_mcu7t5v0__aoi222_1
*I *2933:Q O *D gf180mcu_fd_sc_mcu7t5v0__dffq_1
*CAP
1 *3168:I 0
2 *2818:B2 0.000310988
3 *2933:Q 0.000188895
4 *908:12 0.000499883
5 *2818:B2 *2818:A1 0.000371234
6 *908:12 *2818:A1 0.000468574
7 *2416:A1 *2818:B2 5.69444e-05
8 *2416:A1 *908:12 7.71021e-06
9 *2416:A2 *908:12 0.000276946
10 *2866:A1 *2818:B2 7.50065e-05
11 *2866:A1 *908:12 1.56942e-05
12 *2934:D *908:12 0.000609231
13 *2934:CLK *908:12 3.65607e-05
14 *694:108 *908:12 0.000491324
*RES
1 *2933:Q *908:12 17.64 
2 *908:12 *2818:B2 6.75 
3 *908:12 *3168:I 4.5 
*END

*D_NET *909 0.00612334
*CONN
*I *3181:I I *D gf180mcu_fd_sc_mcu7t5v0__dlyc_1
*I *2826:B2 I *D gf180mcu_fd_sc_mcu7t5v0__aoi222_1
*I *2934:Q O *D gf180mcu_fd_sc_mcu7t5v0__dffq_1
*CAP
1 *3181:I 6.32296e-05
2 *2826:B2 0.000452952
3 *2934:Q 0.000342494
4 *909:14 0.000858676
5 *2826:B2 *2479:A1 8.03028e-05
6 *2826:B2 *3141:I 0.000266156
7 *2478:B *2826:B2 1.84368e-05
8 *2478:C *2826:B2 0.000164219
9 *2478:C *909:14 1.97308e-05
10 *2480:A1 *2826:B2 0.000284918
11 *2480:A1 *3181:I 0.00052822
12 *2480:B *2826:B2 0.000276883
13 *2480:B *3181:I 9.85004e-05
14 *2834:C1 *2826:B2 0.000273663
15 *2966:D *909:14 0.000166364
16 *656:14 *2826:B2 0.000279252
17 *656:14 *909:14 0.000365635
18 *690:34 *909:14 0
19 *694:108 *909:14 0
20 *712:10 *909:14 0.000670853
21 *712:12 *909:14 0.00028126
22 *712:14 *909:14 3.64412e-05
23 *756:187 *3181:I 0.000187305
24 *779:12 *2826:B2 0.000128646
25 *779:18 *2826:B2 0.000279204
*RES
1 *2934:Q *909:14 17.91 
2 *909:14 *2826:B2 18.9 
3 *909:14 *3181:I 6.03 
*END

*D_NET *910 0.00117381
*CONN
*I *2284:I I *D gf180mcu_fd_sc_mcu7t5v0__clkinv_1
*I *2380:A1 I *D gf180mcu_fd_sc_mcu7t5v0__nor2_1
*I *3038:Q O *D gf180mcu_fd_sc_mcu7t5v0__dffq_1
*CAP
1 *2284:I 0.000109063
2 *2380:A1 6.38179e-05
3 *3038:Q 7.32592e-05
4 *910:6 0.00024614
5 *2380:A2 *2380:A1 1.61174e-05
6 *2768:A1 *2284:I 0.000382875
7 *502:18 *2380:A1 2.33065e-05
8 *502:18 *910:6 9.07783e-05
9 *503:36 *2380:A1 2.7437e-05
10 *503:36 *910:6 0.000141012
*RES
1 *3038:Q *910:6 5.49 
2 *910:6 *2380:A1 4.95 
3 *910:6 *2284:I 14.49 
*END

*D_NET *911 0.00982391
*CONN
*I *2688:A2 I *D gf180mcu_fd_sc_mcu7t5v0__nand2_1
*I *2689:A2 I *D gf180mcu_fd_sc_mcu7t5v0__xor2_1
*I *2696:A4 I *D gf180mcu_fd_sc_mcu7t5v0__and4_1
*I *2669:A2 I *D gf180mcu_fd_sc_mcu7t5v0__oai211_1
*I *2459:A1 I *D gf180mcu_fd_sc_mcu7t5v0__nor2_1
*I *2686:A1 I *D gf180mcu_fd_sc_mcu7t5v0__oai21_1
*I *2687:A1 I *D gf180mcu_fd_sc_mcu7t5v0__aoi21_1
*I *2692:A3 I *D gf180mcu_fd_sc_mcu7t5v0__nand3_1
*I *3014:Q O *D gf180mcu_fd_sc_mcu7t5v0__dffq_1
*CAP
1 *2688:A2 0
2 *2689:A2 0
3 *2696:A4 0.00013074
4 *2669:A2 0
5 *2459:A1 0.000188415
6 *2686:A1 0
7 *2687:A1 0
8 *2692:A3 0.000630505
9 *3014:Q 0.000157126
10 *911:59 0.000216009
11 *911:57 0.000343074
12 *911:51 0.000277818
13 *911:47 0.000468033
14 *911:14 0.000943781
15 *911:12 0.000360091
16 *911:10 0.000578895
17 *2459:A1 *2462:A1 2.30981e-05
18 *2459:A1 *2465:A1 0
19 *2459:A1 *2696:A1 1.23715e-05
20 *2459:A1 *922:72 4.6613e-06
21 *2459:A1 *927:44 3.01487e-05
22 *2459:A1 *928:23 6.92926e-05
23 *2692:A3 *2692:A1 0.000116746
24 *2692:A3 *927:10 0
25 *2696:A4 *2696:A3 0.000228654
26 *2696:A4 *922:72 8.18942e-05
27 *2696:A4 *927:44 6.45135e-05
28 *911:51 *2688:A1 0.000297343
29 *911:51 *922:53 0.000226494
30 *911:57 *2669:B 6.05946e-05
31 *911:57 *922:57 0.000237768
32 *911:57 *922:72 1.52092e-05
33 *911:57 *927:44 0.00015651
34 *911:57 *928:21 0
35 *911:59 *922:72 3.12451e-05
36 *911:59 *927:44 2.08301e-05
37 *2461:A1 *2459:A1 1.07374e-05
38 *2686:B *911:10 0.000192228
39 *2687:A2 *2692:A3 0.000238712
40 *2694:A2 *911:47 0.000496766
41 *2695:A2 *2692:A3 0.000486059
42 *3018:CLK *911:10 0.000433797
43 *3019:D *911:10 8.12856e-06
44 *3019:D *911:47 0
45 *372:123 *2692:A3 7.89383e-05
46 *372:123 *911:14 8.30193e-05
47 *372:129 *2692:A3 0.000386277
48 *502:280 *911:47 0.000337849
49 *502:280 *911:51 0.000204787
50 *503:158 *911:10 0.000434734
51 *503:158 *911:12 0.000210938
52 *503:158 *911:14 0.000174506
53 *503:162 *911:47 3.14363e-05
54 *503:164 *911:47 4.31332e-05
55 *711:66 *2692:A3 0
56 *711:66 *911:10 0
57 *711:66 *911:12 0
58 *711:66 *911:14 0
*RES
1 *3014:Q *911:10 11.52 
2 *911:10 *911:12 0.63 
3 *911:12 *911:14 1.89 
4 *911:14 *2692:A3 14.4 
5 *911:14 *2687:A1 9 
6 *911:12 *2686:A1 9 
7 *911:10 *911:47 8.01 
8 *911:47 *911:51 1.62 
9 *911:51 *911:57 11.25 
10 *911:57 *911:59 0.27 
11 *911:59 *2459:A1 6.03 
12 *911:59 *2669:A2 4.5 
13 *911:57 *2696:A4 5.94 
14 *911:51 *2689:A2 4.5 
15 *911:47 *2688:A2 4.5 
*END

*D_NET *912 0.00348904
*CONN
*I *2724:A1 I *D gf180mcu_fd_sc_mcu7t5v0__nand3_1
*I *2668:A1 I *D gf180mcu_fd_sc_mcu7t5v0__nand2_1
*I *2289:I I *D gf180mcu_fd_sc_mcu7t5v0__clkinv_1
*I *2725:A1 I *D gf180mcu_fd_sc_mcu7t5v0__aoi22_1
*I *3024:Q O *D gf180mcu_fd_sc_mcu7t5v0__dffq_1
*CAP
1 *2724:A1 0
2 *2668:A1 0
3 *2289:I 9.0214e-05
4 *2725:A1 5.06687e-05
5 *3024:Q 0.000119147
6 *912:16 0.000358065
7 *912:12 0.000381216
8 *912:8 0.000283182
9 *912:12 *2668:A2 3.31904e-05
10 *912:12 *934:25 4.83522e-05
11 *912:12 *934:29 0.000243277
12 *2474:C *2289:I 3.71764e-06
13 *2484:A1 *2725:A1 9.12635e-05
14 *2725:A2 *2725:A1 3.30242e-05
15 *2726:A1 *2289:I 9.19654e-06
16 *2726:A1 *912:16 4.67557e-05
17 *2726:A2 *912:8 0.000177559
18 *2726:A2 *912:12 1.79733e-05
19 *2726:B *2725:A1 0.00020098
20 *3024:D *2725:A1 9.67415e-05
21 *219:10 *2289:I 3.75591e-05
22 *372:86 *912:12 1.496e-05
23 *531:10 *2289:I 0.000353401
24 *531:10 *912:16 0.000798592
*RES
1 *3024:Q *912:8 5.94 
2 *912:8 *912:12 1.98 
3 *912:12 *912:16 6.75 
4 *912:16 *2725:A1 9.81 
5 *912:16 *2289:I 9.99 
6 *912:12 *2668:A1 4.5 
7 *912:8 *2724:A1 4.5 
*END

*D_NET *913 0.00743795
*CONN
*I *2727:A1 I *D gf180mcu_fd_sc_mcu7t5v0__and2_1
*I *2676:A2 I *D gf180mcu_fd_sc_mcu7t5v0__oai31_1
*I *2485:A1 I *D gf180mcu_fd_sc_mcu7t5v0__nor2_1
*I *2729:A1 I *D gf180mcu_fd_sc_mcu7t5v0__aoi22_1
*I *2730:A1 I *D gf180mcu_fd_sc_mcu7t5v0__oai21_1
*I *2736:A3 I *D gf180mcu_fd_sc_mcu7t5v0__nand4_1
*I *3025:Q O *D gf180mcu_fd_sc_mcu7t5v0__dffq_1
*CAP
1 *2727:A1 0
2 *2676:A2 0
3 *2485:A1 0.000200591
4 *2729:A1 0
5 *2730:A1 1.21296e-05
6 *2736:A3 0.000156282
7 *3025:Q 0.000115761
8 *913:45 0.000615741
9 *913:41 0.000531915
10 *913:21 3.47141e-05
11 *913:19 0.000225545
12 *913:8 0.000358238
13 *2485:A1 *2676:A1 2.70306e-05
14 *2485:A1 *3134:I 3.5955e-06
15 *2736:A3 *2734:A1 1.84368e-05
16 *2736:A3 *914:52 1.97056e-05
17 *913:8 *2734:A1 0.000164215
18 *913:45 *2676:A1 0.000149245
19 *2472:A1 *2485:A1 0.00052864
20 *2676:A3 *2485:A1 1.0415e-05
21 *2676:A3 *913:45 1.48005e-05
22 *2680:A1 *2485:A1 1.0415e-05
23 *2680:A1 *913:45 0
24 *2729:B2 *913:41 9.84908e-05
25 *2733:B1 *2736:A3 0.000416424
26 *2733:B1 *913:8 0
27 *2733:B2 *2736:A3 0.000161479
28 *2733:B2 *913:8 0.000137908
29 *2735:A1 *913:8 8.17782e-05
30 *502:191 *2730:A1 0.000455757
31 *503:106 *913:41 0.000521561
32 *503:106 *913:45 0.000227498
33 *503:117 *913:41 3.01487e-05
34 *534:8 *2736:A3 1.00099e-05
35 *534:8 *913:41 4.33781e-05
36 *538:10 *2736:A3 1.0415e-05
37 *538:10 *913:8 2.95687e-05
38 *704:47 *2730:A1 3.16214e-05
39 *704:47 *913:19 0.000345122
40 *704:47 *913:21 8.42806e-05
41 *784:52 *2730:A1 0.000536348
42 *784:52 *913:19 0.000781644
43 *784:52 *913:21 0.000237101
*RES
1 *3025:Q *913:8 6.12 
2 *913:8 *2736:A3 6.21 
3 *913:8 *913:19 6.57 
4 *913:19 *913:21 0.63 
5 *913:21 *2730:A1 10.35 
6 *913:21 *2729:A1 9 
7 *913:19 *913:41 6.03 
8 *913:41 *913:45 3.06 
9 *913:45 *2485:A1 15.48 
10 *913:45 *2676:A2 4.5 
11 *913:41 *2727:A1 4.5 
*END

*D_NET *914 0.0114005
*CONN
*I *2487:A1 I *D gf180mcu_fd_sc_mcu7t5v0__nor2_1
*I *2733:A1 I *D gf180mcu_fd_sc_mcu7t5v0__aoi22_1
*I *2734:A1 I *D gf180mcu_fd_sc_mcu7t5v0__oai21_1
*I *2732:A1 I *D gf180mcu_fd_sc_mcu7t5v0__nand2_1
*I *2736:A2 I *D gf180mcu_fd_sc_mcu7t5v0__nand4_1
*I *2676:A1 I *D gf180mcu_fd_sc_mcu7t5v0__oai31_1
*I *3026:Q O *D gf180mcu_fd_sc_mcu7t5v0__dffq_1
*CAP
1 *2487:A1 0.000438025
2 *2733:A1 6.70209e-05
3 *2734:A1 0.000394294
4 *2732:A1 0
5 *2736:A2 0
6 *2676:A1 0.000411526
7 *3026:Q 0.000971273
8 *914:52 0.000592332
9 *914:44 0.000393916
10 *914:35 0.000292145
11 *914:16 0.00112865
12 *914:14 0.00196313
13 *2487:A1 *916:10 5.08689e-05
14 *2734:A1 *3149:I 2.38064e-05
15 *914:14 *2858:A1 0
16 *914:16 *2288:I 5.56998e-05
17 *914:16 *2736:A1 3.55211e-05
18 *914:16 *915:25 4.20585e-05
19 *914:16 *916:10 3.53237e-05
20 *914:16 *916:14 0.000158915
21 *914:35 *2736:A1 4.39874e-05
22 *914:44 *2736:A1 9.6749e-05
23 *2485:A1 *2676:A1 2.70306e-05
24 *2487:A2 *2487:A1 3.33106e-05
25 *2489:A2 *914:14 0
26 *2490:A1 *914:14 7.98933e-06
27 *2492:A1 *914:14 0.000515946
28 *2676:B *2676:A1 1.61174e-05
29 *2680:A1 *2676:A1 1.06178e-05
30 *2733:A2 *2733:A1 3.12451e-05
31 *2733:B1 *2733:A1 0.000120595
32 *2733:B1 *914:35 3.01487e-05
33 *2733:B1 *914:44 0.000193969
34 *2735:A1 *2734:A1 0.000282849
35 *2736:A3 *2734:A1 1.84368e-05
36 *2736:A3 *914:52 1.97056e-05
37 *2736:A4 *914:52 3.42213e-05
38 *2741:B2 *2487:A1 0
39 *2741:B2 *914:14 9.04462e-05
40 *2741:B2 *914:16 0.000483179
41 *3026:CLK *2733:A1 1.61174e-05
42 *3027:D *914:14 0
43 *3027:CLK *914:14 0.000135783
44 *10:55 *914:14 1.36775e-05
45 *295:76 *2487:A1 2.37941e-05
46 *502:178 *914:52 0.000510662
47 *503:100 *2676:A1 1.91801e-06
48 *503:100 *914:16 5.6378e-06
49 *503:106 *2676:A1 3.72378e-05
50 *534:8 *914:52 7.39052e-05
51 *534:17 *2734:A1 0.000238018
52 *534:17 *914:52 3.55118e-05
53 *538:10 *2734:A1 0.000145016
54 *704:43 *2733:A1 9.3226e-06
55 *704:43 *914:35 4.27484e-05
56 *704:43 *914:44 0.000100389
57 *778:301 *2487:A1 0.000221911
58 *778:301 *2676:A1 0.000187771
59 *778:301 *914:16 0.000176535
60 *913:8 *2734:A1 0.000164215
61 *913:45 *2676:A1 0.000149245
*RES
1 *3026:Q *914:14 16.38 
2 *914:14 *914:16 4.77 
3 *914:16 *2676:A1 12.78 
4 *914:16 *914:35 5.67 
5 *914:35 *2736:A2 4.5 
6 *914:35 *914:44 1.62 
7 *914:44 *914:52 10.98 
8 *914:52 *2732:A1 4.5 
9 *914:52 *2734:A1 8.28 
10 *914:44 *2733:A1 5.22 
11 *914:14 *2487:A1 12.24 
*END

*D_NET *915 0.00916006
*CONN
*I *2288:I I *D gf180mcu_fd_sc_mcu7t5v0__clkinv_1
*I *2737:A1 I *D gf180mcu_fd_sc_mcu7t5v0__aoi22_1
*I *2674:A3 I *D gf180mcu_fd_sc_mcu7t5v0__nand3_1
*I *2736:A1 I *D gf180mcu_fd_sc_mcu7t5v0__nand4_1
*I *3027:Q O *D gf180mcu_fd_sc_mcu7t5v0__dffq_1
*CAP
1 *2288:I 0.000448975
2 *2737:A1 0.000127941
3 *2674:A3 0.000249685
4 *2736:A1 0.000135865
5 *3027:Q 0.000214669
6 *915:27 0.000377626
7 *915:25 0.000578305
8 *915:12 0.000479865
9 *2674:A3 *2674:A2 7.43202e-05
10 *2675:A4 *2674:A3 0.000106536
11 *2734:B *915:12 8.67097e-05
12 *2738:A1 *2288:I 1.50763e-05
13 *2738:C *2674:A3 0.000694928
14 *2738:C *2737:A1 1.8464e-05
15 *2741:A2 *2674:A3 0.00138734
16 *2741:A2 *2737:A1 2.75149e-05
17 *2741:B2 *2288:I 9.05528e-06
18 *3026:CLK *915:12 0.000641754
19 *3027:D *2288:I 0
20 *3028:D *2674:A3 0.000302466
21 *10:55 *2288:I 0.00014898
22 *372:208 *2674:A3 0.000169515
23 *496:24 *2674:A3 3.53186e-05
24 *502:161 *2674:A3 1.49931e-05
25 *502:161 *2737:A1 0.000145991
26 *502:172 *2288:I 6.13566e-05
27 *503:98 *2288:I 0.000140239
28 *503:98 *2674:A3 5.7233e-06
29 *503:100 *2288:I 9.61923e-06
30 *503:100 *2736:A1 7.559e-05
31 *503:100 *915:25 0.000122364
32 *541:21 *2288:I 0.000223815
33 *704:43 *2736:A1 7.56389e-05
34 *704:43 *915:12 0.000735646
35 *784:46 *915:12 0.000932523
36 *784:116 *2674:A3 1.16291e-05
37 *914:16 *2288:I 5.56998e-05
38 *914:16 *2736:A1 3.55211e-05
39 *914:16 *915:25 4.20585e-05
40 *914:35 *2736:A1 4.39874e-05
41 *914:44 *2736:A1 9.6749e-05
*RES
1 *3027:Q *915:12 13.05 
2 *915:12 *2736:A1 10.26 
3 *915:12 *915:25 0.99 
4 *915:25 *915:27 4.5 
5 *915:27 *2674:A3 18.54 
6 *915:27 *2737:A1 5.4 
7 *915:25 *2288:I 12.69 
*END

*D_NET *916 0.00484833
*CONN
*I *2287:I I *D gf180mcu_fd_sc_mcu7t5v0__clkinv_1
*I *2741:A1 I *D gf180mcu_fd_sc_mcu7t5v0__aoi22_1
*I *2674:A2 I *D gf180mcu_fd_sc_mcu7t5v0__nand3_1
*I *3028:Q O *D gf180mcu_fd_sc_mcu7t5v0__dffq_1
*CAP
1 *2287:I 0.00012056
2 *2741:A1 5.58549e-05
3 *2674:A2 0.000207536
4 *3028:Q 0.000123907
5 *916:14 0.000387077
6 *916:10 0.000368153
7 *2487:A1 *916:10 5.08689e-05
8 *2492:A1 *2287:I 0.000103033
9 *2674:A3 *2674:A2 7.43202e-05
10 *2675:A4 *2674:A2 0.000106536
11 *2741:A2 *2674:A2 5.74748e-05
12 *2741:A2 *2741:A1 1.60989e-05
13 *2741:B2 *2287:I 0.000275597
14 *2741:B2 *916:10 2.9119e-05
15 *2742:B *2674:A2 0.000601722
16 *2742:B *2741:A1 0.000191151
17 *10:55 *2287:I 1.66492e-05
18 *217:43 *2287:I 5.54348e-05
19 *503:87 *2674:A2 0.000717127
20 *503:87 *2741:A1 0.000105838
21 *778:301 *916:10 0.000273552
22 *778:301 *916:14 0.000716479
23 *914:16 *916:10 3.53237e-05
24 *914:16 *916:14 0.000158915
*RES
1 *3028:Q *916:10 10.26 
2 *916:10 *916:14 6.39 
3 *916:14 *2674:A2 8.37 
4 *916:14 *2741:A1 5.31 
5 *916:10 *2287:I 10.26 
*END

*D_NET *917 0.00779644
*CONN
*I *2743:A1 I *D gf180mcu_fd_sc_mcu7t5v0__nand2_1
*I *2745:A1 I *D gf180mcu_fd_sc_mcu7t5v0__oai21_1
*I *2674:A1 I *D gf180mcu_fd_sc_mcu7t5v0__nand3_1
*I *2747:A2 I *D gf180mcu_fd_sc_mcu7t5v0__and3_1
*I *2744:A1 I *D gf180mcu_fd_sc_mcu7t5v0__aoi22_1
*I *2493:A1 I *D gf180mcu_fd_sc_mcu7t5v0__nor2_1
*I *3029:Q O *D gf180mcu_fd_sc_mcu7t5v0__dffq_1
*CAP
1 *2743:A1 0
2 *2745:A1 2.15041e-05
3 *2674:A1 1.3596e-05
4 *2747:A2 5.41565e-05
5 *2744:A1 0
6 *2493:A1 0.000212922
7 *3029:Q 0
8 *917:36 0.000223261
9 *917:30 0.000242947
10 *917:23 7.89633e-05
11 *917:19 0.000410659
12 *917:4 0.000610552
13 *917:19 *2471:A1 7.70137e-05
14 *2472:B *917:19 3.97987e-05
15 *2494:B *2493:A1 9.04462e-05
16 *2745:B *2745:A1 1.9093e-05
17 *2745:B *917:30 7.949e-05
18 *2746:A2 *2745:A1 8.49208e-05
19 *2746:A2 *917:30 0.000198205
20 *2747:A3 *917:30 1.75391e-05
21 *2961:D *917:19 1.0415e-05
22 *2961:CLK *917:19 1.39839e-05
23 *10:55 *2747:A2 1.94143e-05
24 *244:49 *2493:A1 4.33781e-05
25 *244:49 *917:19 5.96096e-05
26 *496:24 *917:36 0
27 *502:56 *917:23 0.000171937
28 *502:67 *917:19 0.00131542
29 *502:67 *917:23 0.00032797
30 *503:87 *2674:A1 6.08431e-05
31 *503:87 *2747:A2 0.000146492
32 *543:25 *917:36 0.000219114
33 *599:38 *917:19 0.000607138
34 *599:44 *917:19 0.000744726
35 *599:44 *917:23 0.000445488
36 *599:44 *917:36 2.63437e-05
37 *630:24 *917:19 9.15641e-06
38 *645:22 *2493:A1 0
39 *756:144 *2493:A1 3.22122e-05
40 *778:316 *2493:A1 4.74921e-05
41 *778:316 *917:19 0.000162947
42 *784:116 *2674:A1 8.49208e-05
43 *784:116 *2747:A2 8.65898e-05
44 *784:116 *917:36 0.000591874
45 *784:135 *917:36 9.39061e-05
*RES
1 *3029:Q *917:4 4.5 
2 *917:4 *2493:A1 6.3 
3 *917:4 *917:19 10.98 
4 *917:19 *917:23 5.67 
5 *917:23 *2744:A1 4.5 
6 *917:23 *917:30 0.63 
7 *917:30 *917:36 10.71 
8 *917:36 *2747:A2 5.13 
9 *917:36 *2674:A1 4.77 
10 *917:30 *2745:A1 4.77 
11 *917:19 *2743:A1 9 
*END

*D_NET *918 0.0134628
*CONN
*I *2749:A1 I *D gf180mcu_fd_sc_mcu7t5v0__aoi22_1
*I *2747:A1 I *D gf180mcu_fd_sc_mcu7t5v0__and3_1
*I *2675:A2 I *D gf180mcu_fd_sc_mcu7t5v0__nor4_1
*I *2678:A2 I *D gf180mcu_fd_sc_mcu7t5v0__aoi21_1
*I *2286:I I *D gf180mcu_fd_sc_mcu7t5v0__clkinv_1
*I *3030:Q O *D gf180mcu_fd_sc_mcu7t5v0__dffq_1
*CAP
1 *2749:A1 5.72652e-05
2 *2747:A1 0.000385159
3 *2675:A2 0.000198056
4 *2678:A2 3.21552e-05
5 *2286:I 0
6 *3030:Q 0.000127695
7 *918:55 0.000442425
8 *918:33 0.000646656
9 *918:14 0.000669655
10 *918:8 0.000380906
11 *918:33 *2751:A1 3.12451e-05
12 *918:33 *919:14 0.000372597
13 *2496:A1 *918:14 5.71512e-05
14 *2675:A3 *2675:A2 0.000113096
15 *2675:A3 *918:33 4.55835e-05
16 *2675:A4 *2747:A1 8.68398e-06
17 *2679:A1 *2675:A2 3.55118e-05
18 *2679:A1 *918:33 0.000665559
19 *2680:A3 *2675:A2 2.98728e-05
20 *2680:A3 *2678:A2 0
21 *2748:I *918:33 0.000460904
22 *2749:A2 *2747:A1 0.000559303
23 *2749:A2 *2749:A1 0.000427029
24 *2749:B1 *2747:A1 0.000806489
25 *2749:B1 *2749:A1 0.000155042
26 *2750:A1 *918:14 1.51153e-05
27 *2750:A1 *918:33 4.35851e-05
28 *2750:A2 *2747:A1 0.000363857
29 *2878:B2 *918:8 9.13149e-05
30 *2878:B2 *918:14 7.12171e-05
31 *3121:I *918:14 0.000362773
32 *3121:I *918:33 0.000521561
33 *10:55 *2747:A1 6.34901e-05
34 *295:63 *918:8 0.000726748
35 *295:63 *918:14 0.0013965
36 *372:208 *2747:A1 1.3412e-05
37 *499:20 *2675:A2 4.44935e-05
38 *499:20 *918:33 5.79144e-05
39 *502:41 *2747:A1 0.000726001
40 *502:56 *2747:A1 0.00012775
41 *503:75 *2747:A1 0.00121521
42 *503:87 *2747:A1 3.54696e-05
43 *549:12 *2747:A1 1.61174e-05
44 *756:179 *918:14 0.000862226
*RES
1 *3030:Q *918:8 10.89 
2 *918:8 *918:14 9.18 
3 *918:14 *2286:I 4.5 
4 *918:14 *918:33 14.31 
5 *918:33 *2678:A2 4.77 
6 *918:33 *2675:A2 6.48 
7 *918:8 *918:55 4.5 
8 *918:55 *2747:A1 21.06 
9 *918:55 *2749:A1 5.67 
*END

*D_NET *919 0.0105164
*CONN
*I *2754:A1 I *D gf180mcu_fd_sc_mcu7t5v0__oai21_1
*I *2753:A1 I *D gf180mcu_fd_sc_mcu7t5v0__aoi22_1
*I *2751:A1 I *D gf180mcu_fd_sc_mcu7t5v0__and2_1
*I *2678:A1 I *D gf180mcu_fd_sc_mcu7t5v0__aoi21_1
*I *2673:A2 I *D gf180mcu_fd_sc_mcu7t5v0__nand2_1
*I *2497:A1 I *D gf180mcu_fd_sc_mcu7t5v0__nor2_1
*I *3031:Q O *D gf180mcu_fd_sc_mcu7t5v0__dffq_1
*CAP
1 *2754:A1 0.000271897
2 *2753:A1 0
3 *2751:A1 0.000151218
4 *2678:A1 7.6967e-05
5 *2673:A2 0
6 *2497:A1 0.000760572
7 *3031:Q 0
8 *919:54 0.000361558
9 *919:29 0.000196462
10 *919:14 0.00100511
11 *919:10 0.000390302
12 *919:4 0.000203706
13 *2497:A1 *2285:I 1.60931e-05
14 *2497:A1 *3147:I 0
15 *2497:A1 *921:14 2.65444e-06
16 *2678:A1 *2673:A1 9.04462e-05
17 *919:14 *2673:A1 0
18 *919:29 *2673:A1 3.01487e-05
19 *919:29 *921:8 2.30981e-05
20 *919:29 *921:14 2.32821e-05
21 *2675:A3 *2754:A1 0
22 *2679:A1 *2497:A1 0.000565081
23 *2679:A1 *2751:A1 1.96635e-05
24 *2680:A3 *2754:A1 0
25 *2748:I *919:14 0
26 *2750:A2 *2754:A1 0.00019781
27 *2750:A2 *919:10 2.31089e-05
28 *2750:A2 *919:54 0.000107581
29 *2752:I *2754:A1 9.90362e-06
30 *2753:B1 *2751:A1 5.9617e-05
31 *2753:B1 *919:10 9.85004e-05
32 *2753:B1 *919:54 0.000400957
33 *2753:B2 *2754:A1 4.1068e-05
34 *2755:A2 *2754:A1 0.000362773
35 *2968:D *2497:A1 0.000208109
36 *215:10 *2497:A1 0.000776496
37 *295:149 *2497:A1 0.000152801
38 *372:68 *2497:A1 0.00117431
39 *372:86 *2497:A1 9.11538e-05
40 *499:20 *2497:A1 0.000142647
41 *499:20 *2678:A1 0.00025481
42 *499:20 *919:29 0.000196928
43 *502:26 *919:14 0
44 *503:49 *919:10 0.000356703
45 *503:49 *919:14 0.000862244
46 *503:62 *919:10 0.000101624
47 *549:29 *919:10 0
48 *549:29 *919:14 0
49 *552:16 *2678:A1 0.000283714
50 *704:34 *2754:A1 2.14748e-05
51 *756:181 *2497:A1 0
52 *918:33 *2751:A1 3.12451e-05
53 *918:33 *919:14 0.000372597
*RES
1 *3031:Q *919:4 4.5 
2 *919:4 *919:10 5.94 
3 *919:10 *919:14 6.75 
4 *919:14 *2497:A1 22.32 
5 *919:14 *919:29 1.35 
6 *919:29 *2673:A2 4.5 
7 *919:29 *2678:A1 5.67 
8 *919:10 *2751:A1 10.17 
9 *919:4 *919:54 1.44 
10 *919:54 *2753:A1 4.5 
11 *919:54 *2754:A1 7.11 
*END

*D_NET *920 0.00610419
*CONN
*I *2499:A1 I *D gf180mcu_fd_sc_mcu7t5v0__nor2_1
*I *2675:A1 I *D gf180mcu_fd_sc_mcu7t5v0__nor4_1
*I *2678:B I *D gf180mcu_fd_sc_mcu7t5v0__aoi21_1
*I *2756:A1 I *D gf180mcu_fd_sc_mcu7t5v0__nand2_1
*I *2757:A1 I *D gf180mcu_fd_sc_mcu7t5v0__aoi22_1
*I *2758:A1 I *D gf180mcu_fd_sc_mcu7t5v0__oai21_1
*I *3032:Q O *D gf180mcu_fd_sc_mcu7t5v0__dffq_1
*CAP
1 *2499:A1 0.000345007
2 *2675:A1 0.000129653
3 *2678:B 0.000116867
4 *2756:A1 0
5 *2757:A1 6.14487e-05
6 *2758:A1 2.58524e-05
7 *3032:Q 0
8 *920:45 0.000615897
9 *920:32 0.000546271
10 *920:28 0.000701066
11 *920:6 0.000246456
12 *920:4 0.000338319
13 *2499:A1 *2834:A1 0
14 *920:6 *2834:A1 0
15 *920:28 *2834:A1 0
16 *920:32 *3144:I 0.000174506
17 *2483:A1 *2499:A1 4.83522e-05
18 *2486:B *2678:B 1.67196e-05
19 *2486:B *920:45 4.90438e-05
20 *2756:A2 *2757:A1 9.04462e-05
21 *2758:A2 *2757:A1 0.000455757
22 *2758:B *2757:A1 2.35868e-05
23 *2759:A2 *2757:A1 3.42509e-05
24 *2761:A2 *2758:A1 2.65444e-06
25 *3032:D *2678:B 3.29477e-05
26 *3032:D *920:45 1.51153e-05
27 *3032:CLK *2678:B 7.84041e-05
28 *3032:CLK *920:45 7.20436e-05
29 *3033:CLK *2675:A1 4.22217e-05
30 *3033:CLK *2757:A1 0.000656427
31 *3033:CLK *2758:A1 3.22122e-05
32 *3033:CLK *920:6 1.23607e-05
33 *295:166 *920:6 0
34 *499:20 *2678:B 2.6147e-05
35 *499:20 *920:45 7.26205e-05
36 *552:16 *2678:B 3.01487e-05
37 *552:16 *2757:A1 9.39061e-05
38 *556:8 *2499:A1 7.191e-07
39 *556:8 *2758:A1 2.40587e-06
40 *556:8 *920:6 1.65119e-05
41 *556:8 *920:28 2.38323e-05
42 *599:44 *2675:A1 8.16315e-05
43 *599:44 *920:32 0.000310052
44 *599:44 *920:45 0.000379793
45 *704:10 *2675:A1 0.000101812
46 *778:253 *2499:A1 7.191e-07
*RES
1 *3032:Q *920:4 4.5 
2 *920:4 *920:6 0.99 
3 *920:6 *2758:A1 4.77 
4 *920:6 *2757:A1 15.48 
5 *920:4 *920:28 1.17 
6 *920:28 *920:32 6.39 
7 *920:32 *2756:A1 9 
8 *920:32 *920:45 8.28 
9 *920:45 *2678:B 5.49 
10 *920:45 *2675:A1 14.85 
11 *920:28 *2499:A1 6.84 
*END

*D_NET *921 0.00202224
*CONN
*I *2673:A1 I *D gf180mcu_fd_sc_mcu7t5v0__nand2_1
*I *2760:A1 I *D gf180mcu_fd_sc_mcu7t5v0__aoi21_1
*I *2285:I I *D gf180mcu_fd_sc_mcu7t5v0__clkinv_1
*I *3033:Q O *D gf180mcu_fd_sc_mcu7t5v0__dffq_1
*CAP
1 *2673:A1 7.59516e-05
2 *2760:A1 0
3 *2285:I 0.000250439
4 *3033:Q 1.95841e-05
5 *921:14 0.000476223
6 *921:8 0.000321319
7 *2497:A1 *2285:I 1.60931e-05
8 *2497:A1 *921:14 2.65444e-06
9 *2501:A2 *2285:I 7.58409e-06
10 *2678:A1 *2673:A1 9.04462e-05
11 *2761:B *921:14 3.97987e-05
12 *499:20 *2673:A1 9.04462e-05
13 *502:18 *2285:I 1.32106e-05
14 *502:22 *921:14 0
15 *502:26 *2673:A1 0.000302284
16 *502:26 *921:14 0.00023968
17 *503:40 *921:14 0
18 *503:49 *2673:A1 0
19 *503:49 *921:14 0
20 *919:14 *2673:A1 0
21 *919:29 *2673:A1 3.01487e-05
22 *919:29 *921:8 2.30981e-05
23 *919:29 *921:14 2.32821e-05
*RES
1 *3033:Q *921:8 9.27 
2 *921:8 *921:14 6.48 
3 *921:14 *2285:I 5.94 
4 *921:14 *2760:A1 4.5 
5 *921:8 *2673:A1 10.08 
*END

*D_NET *922 0.00735011
*CONN
*I *2688:A1 I *D gf180mcu_fd_sc_mcu7t5v0__nand2_1
*I *2669:A1 I *D gf180mcu_fd_sc_mcu7t5v0__oai211_1
*I *2462:A1 I *D gf180mcu_fd_sc_mcu7t5v0__nor2_1
*I *2696:A3 I *D gf180mcu_fd_sc_mcu7t5v0__and4_1
*I *2689:A1 I *D gf180mcu_fd_sc_mcu7t5v0__xor2_1
*I *2692:A2 I *D gf180mcu_fd_sc_mcu7t5v0__nand3_1
*I *2690:A1 I *D gf180mcu_fd_sc_mcu7t5v0__aoi22_1
*I *3015:Q O *D gf180mcu_fd_sc_mcu7t5v0__dffq_1
*CAP
1 *2688:A1 3.24554e-05
2 *2669:A1 0
3 *2462:A1 0.000241072
4 *2696:A3 1.31056e-05
5 *2689:A1 1.82511e-05
6 *2692:A2 0.000355352
7 *2690:A1 0.000501063
8 *3015:Q 3.91601e-05
9 *922:72 0.000488826
10 *922:57 0.000575642
11 *922:53 0.000423869
12 *922:42 0.000501529
13 *922:27 0.000761999
14 *922:6 0.000540223
15 *2462:A1 *2465:A1 0.000126232
16 *2462:A1 *2669:B 0.000101624
17 *2462:A1 *927:44 0.000129087
18 *2690:A1 *2697:A1 0.000103868
19 *2692:A2 *2697:A1 0
20 *2696:A3 *927:36 3.43442e-05
21 *2696:A3 *927:44 0.000228654
22 *922:42 *928:10 0
23 *922:57 *927:36 0
24 *922:57 *928:10 0
25 *922:57 *928:21 0
26 *922:72 *2465:A1 5.60661e-06
27 *922:72 *927:44 2.55518e-05
28 *2459:A1 *2462:A1 2.30981e-05
29 *2459:A1 *922:72 4.6613e-06
30 *2670:A2 *2462:A1 3.60134e-05
31 *2690:B1 *2690:A1 0.000351453
32 *2690:B1 *922:42 1.18117e-05
33 *2693:A2 *922:42 0
34 *2696:A4 *2696:A3 0.000228654
35 *2696:A4 *922:72 8.18942e-05
36 *2697:A2 *2692:A2 1.30434e-05
37 *2697:A2 *922:42 2.50126e-05
38 *2698:B2 *922:42 4.90422e-05
39 *2699:A2 *2690:A1 0.000101176
40 *2699:A2 *2692:A2 0
41 *2699:A2 *922:42 0
42 *372:129 *2690:A1 0
43 *372:129 *2692:A2 0.000172855
44 *502:280 *2689:A1 1.27836e-05
45 *503:164 *2688:A1 7.13317e-05
46 *503:164 *2689:A1 3.97987e-05
47 *503:164 *922:53 4.48353e-05
48 *778:65 *2462:A1 2.70694e-05
49 *911:51 *2688:A1 0.000297343
50 *911:51 *922:53 0.000226494
51 *911:57 *922:57 0.000237768
52 *911:57 *922:72 1.52092e-05
53 *911:59 *922:72 3.12451e-05
*RES
1 *3015:Q *922:6 4.77 
2 *922:6 *2690:A1 17.19 
3 *922:6 *922:27 4.5 
4 *922:27 *2692:A2 11.34 
5 *922:27 *922:42 6.75 
6 *922:42 *2689:A1 4.77 
7 *922:42 *922:53 0.9 
8 *922:53 *922:57 6.93 
9 *922:57 *2696:A3 9.63 
10 *922:57 *922:72 6.12 
11 *922:72 *2462:A1 15.75 
12 *922:72 *2669:A1 4.5 
13 *922:53 *2688:A1 5.31 
*END

*D_NET *923 0.00998032
*CONN
*I *2762:A1 I *D gf180mcu_fd_sc_mcu7t5v0__and3_1
*I *2677:A4 I *D gf180mcu_fd_sc_mcu7t5v0__nor4_1
*I *2503:A1 I *D gf180mcu_fd_sc_mcu7t5v0__nor2_1
*I *3034:Q O *D gf180mcu_fd_sc_mcu7t5v0__dffq_1
*CAP
1 *2762:A1 0
2 *2677:A4 0.000329451
3 *2503:A1 0.00101791
4 *3034:Q 0.000579387
5 *923:16 0.00184228
6 *923:12 0.0010743
7 *2677:A4 *2677:A3 4.434e-05
8 *2677:A4 *2764:A1 0.000266731
9 *2677:A4 *925:27 0.000443725
10 *923:12 *3148:I 0.000409001
11 *923:12 *925:10 3.22953e-05
12 *923:16 *3139:I 3.01487e-05
13 *923:16 *3148:I 0.000425761
14 *923:16 *924:16 0
15 *923:16 *949:10 3.54696e-05
16 ACK_O *923:12 8.41485e-05
17 *2305:I *2503:A1 0
18 *2320:A1 *2503:A1 0
19 *2322:A1 *2503:A1 4.39583e-06
20 *2322:A2 *2503:A1 0.000261783
21 *2508:A1 *2503:A1 0.000156292
22 *2763:A2 *923:12 0.000436469
23 *2763:A2 *923:16 9.85004e-05
24 *2763:A3 *923:12 0
25 *2886:A1 *923:12 0.000130296
26 *2887:A2 *2503:A1 0
27 *2887:A2 *923:16 8.09928e-05
28 *2888:B2 *2677:A4 0.000444083
29 *3057:D *923:12 0.000180057
30 *3202:I *2503:A1 0.000144495
31 *3202:I *2677:A4 1.51549e-05
32 *3202:I *923:16 0
33 *3224:I *2503:A1 1.65425e-05
34 *3224:I *2677:A4 3.87877e-05
35 *251:12 *2503:A1 6.01042e-05
36 *502:111 *2677:A4 1.27493e-05
37 *502:111 *923:16 2.58224e-05
38 *588:18 *923:12 7.84312e-05
39 *706:89 *923:12 0.000145905
40 *706:100 *923:12 0.000643712
41 *756:104 *2503:A1 7.65162e-05
42 *778:364 *2503:A1 0.000293445
43 *778:377 *2503:A1 0
44 *778:392 *2503:A1 0
45 *784:170 *923:16 2.08301e-05
*RES
1 *3034:Q *923:12 19.8 
2 *923:12 *923:16 8.19 
3 *923:16 *2503:A1 16.38 
4 *923:16 *2677:A4 12.33 
5 *923:12 *2762:A1 4.5 
*END

*D_NET *924 0.0117819
*CONN
*I *2677:A3 I *D gf180mcu_fd_sc_mcu7t5v0__nor4_1
*I *2763:A1 I *D gf180mcu_fd_sc_mcu7t5v0__and3_1
*I *2505:A1 I *D gf180mcu_fd_sc_mcu7t5v0__nor2_1
*I *3035:Q O *D gf180mcu_fd_sc_mcu7t5v0__dffq_1
*CAP
1 *2677:A3 0.000168301
2 *2763:A1 0.000307264
3 *2505:A1 0.000161871
4 *3035:Q 0.000500507
5 *924:16 0.00127183
6 *924:10 0.0014715
7 *2505:A1 *3145:I 0
8 *2677:A3 *925:27 0.000839797
9 *924:16 *2867:C2 0.000246473
10 *924:16 *3148:I 0
11 *924:16 *949:10 7.69103e-05
12 ERR_O *924:10 0.000436758
13 ERR_O *924:16 3.10415e-05
14 *2323:A3 *924:16 0.000164466
15 *2506:B *2505:A1 0.000160708
16 *2677:A4 *2677:A3 4.434e-05
17 *2763:A2 *2763:A1 3.97987e-05
18 *2763:A3 *2763:A1 0.000168646
19 *2763:A3 *924:16 0.000257557
20 *2803:A3 *924:10 0.00115186
21 *2804:A1 *924:10 0.000165932
22 *2887:A1 *924:10 8.429e-05
23 *2887:A1 *924:16 1.18477e-05
24 *2887:B *924:10 0.000219633
25 *2888:B2 *2677:A3 0.000719202
26 *2970:D *2763:A1 0.000169821
27 *2970:D *924:16 0.000124614
28 *3056:D *924:16 0
29 *3057:D *2505:A1 0.0014453
30 *249:10 *924:10 0.000249014
31 *252:16 *924:10 0.000620062
32 *502:111 *2677:A3 2.09112e-05
33 *502:111 *924:16 8.67164e-05
34 *756:104 *2505:A1 0.000364897
35 *923:16 *924:16 0
*RES
1 *3035:Q *924:10 16.02 
2 *924:10 *924:16 10.8 
3 *924:16 *2505:A1 17.19 
4 *924:16 *2763:A1 6.93 
5 *924:10 *2677:A3 11.88 
*END

*D_NET *925 0.0118324
*CONN
*I *2677:A2 I *D gf180mcu_fd_sc_mcu7t5v0__nor4_1
*I *2764:A1 I *D gf180mcu_fd_sc_mcu7t5v0__and3_1
*I *2507:A1 I *D gf180mcu_fd_sc_mcu7t5v0__nor2_1
*I *3036:Q O *D gf180mcu_fd_sc_mcu7t5v0__dffq_1
*CAP
1 *2677:A2 0
2 *2764:A1 0.000196999
3 *2507:A1 0.000402135
4 *3036:Q 0.000423114
5 *925:27 0.000808953
6 *925:10 0.0014372
7 *2764:A1 *2677:A1 0.000150744
8 *2764:A1 *3139:I 0.000127028
9 *2300:I *2507:A1 0.000244819
10 *2320:A1 *925:10 8.76372e-05
11 *2320:A2 *925:10 0.000331329
12 *2677:A3 *925:27 0.000839797
13 *2677:A4 *2764:A1 0.000266731
14 *2677:A4 *925:27 0.000443725
15 *2763:A2 *925:27 0
16 *2886:A2 *925:27 0.00115463
17 *2887:A2 *2764:A1 2.40834e-05
18 *2887:A2 *925:27 5.78854e-06
19 *2888:B2 *925:27 2.08301e-05
20 *2889:A2 *2507:A1 0.00207085
21 *2889:A2 *925:10 0.000979744
22 *3034:D *925:27 6.01893e-05
23 *3056:D *925:27 7.06712e-05
24 *3057:D *2507:A1 0.000672131
25 *3057:D *925:10 0.00020489
26 *3202:I *2764:A1 7.44269e-05
27 *3202:I *925:27 0.000137335
28 *252:16 *925:10 0.000232503
29 *496:24 *2764:A1 0.000269346
30 *502:84 *2764:A1 2.89427e-06
31 *502:111 *2764:A1 1.86887e-06
32 *502:111 *925:27 5.77481e-05
33 *588:18 *925:10 0
34 *923:12 *925:10 3.22953e-05
*RES
1 *3036:Q *925:10 14.76 
2 *925:10 *2507:A1 15.93 
3 *925:10 *925:27 16.02 
4 *925:27 *2764:A1 11.16 
5 *925:27 *2677:A2 9 
*END

*D_NET *926 0.00779964
*CONN
*I *2677:A1 I *D gf180mcu_fd_sc_mcu7t5v0__nor4_1
*I *2509:A1 I *D gf180mcu_fd_sc_mcu7t5v0__nor2_1
*I *2765:A1 I *D gf180mcu_fd_sc_mcu7t5v0__and3_1
*I *3037:Q O *D gf180mcu_fd_sc_mcu7t5v0__dffq_1
*CAP
1 *2677:A1 0.000388801
2 *2509:A1 0
3 *2765:A1 0.000283257
4 *3037:Q 0.000116958
5 *926:16 0.000591167
6 *926:8 0.000813669
7 *2677:A1 *3139:I 0.00060794
8 *2677:A1 *947:10 1.39839e-05
9 *926:16 *3146:I 0.000409673
10 *2510:A2 *2765:A1 1.27836e-05
11 *2510:B *2765:A1 0.000221928
12 *2764:A1 *2677:A1 0.000150744
13 *2883:A3 *926:16 0.000152247
14 *2887:A2 *2677:A1 0.000231045
15 *3037:D *2765:A1 0.000423894
16 *3202:I *2677:A1 1.72651e-05
17 *251:30 *2765:A1 0.000336846
18 *251:30 *926:16 0.000478024
19 *496:24 *2677:A1 0.000341562
20 *502:67 *2765:A1 2.48332e-05
21 *502:84 *2677:A1 5.82634e-05
22 *502:84 *926:8 4.04802e-05
23 *502:84 *926:16 0.00017794
24 *694:223 *2765:A1 3.47359e-05
25 *706:10 *926:16 0.000264753
26 *706:61 *926:16 0.000169524
27 *778:392 *2765:A1 1.39839e-05
28 *778:392 *926:16 6.02001e-05
29 *782:79 *2765:A1 7.15751e-05
30 *783:92 *2765:A1 0.000289482
31 *784:158 *2677:A1 0.000246608
32 *784:158 *2765:A1 0.000742695
33 *784:158 *926:8 1.27836e-05
*RES
1 *3037:Q *926:8 5.4 
2 *926:8 *926:16 14.22 
3 *926:16 *2765:A1 17.73 
4 *926:16 *2509:A1 4.5 
5 *926:8 *2677:A1 17.37 
*END

*D_NET *927 0.00630166
*CONN
*I *2692:A1 I *D gf180mcu_fd_sc_mcu7t5v0__nand3_1
*I *2696:A2 I *D gf180mcu_fd_sc_mcu7t5v0__and4_1
*I *2669:C I *D gf180mcu_fd_sc_mcu7t5v0__oai211_1
*I *2465:A1 I *D gf180mcu_fd_sc_mcu7t5v0__nor2_1
*I *2694:A1 I *D gf180mcu_fd_sc_mcu7t5v0__aoi22_1
*I *2693:A1 I *D gf180mcu_fd_sc_mcu7t5v0__xnor2_1
*I *3016:Q O *D gf180mcu_fd_sc_mcu7t5v0__dffq_1
*CAP
1 *2692:A1 9.49037e-05
2 *2696:A2 0
3 *2669:C 0
4 *2465:A1 0.00030119
5 *2694:A1 0
6 *2693:A1 0.000281032
7 *3016:Q 0.00028444
8 *927:44 0.000461361
9 *927:36 0.000745705
10 *927:23 0.000762002
11 *927:10 0.000647037
12 *927:44 *2669:B 0.000380315
13 *927:44 *2696:A1 0.000166507
14 *2459:A1 *2465:A1 0
15 *2459:A1 *927:44 3.01487e-05
16 *2462:A1 *2465:A1 0.000126232
17 *2462:A1 *927:44 0.000129087
18 *2670:A2 *2465:A1 4.84588e-05
19 *2670:A2 *927:44 0.000320262
20 *2692:A3 *2692:A1 0.000116746
21 *2692:A3 *927:10 0
22 *2693:A2 *2692:A1 1.74403e-05
23 *2693:A2 *2693:A1 0.000105517
24 *2693:A2 *927:10 4.11194e-05
25 *2693:A2 *927:23 9.9795e-05
26 *2694:B2 *2693:A1 8.56844e-05
27 *2694:B2 *927:23 0.000282346
28 *2695:A2 *2693:A1 0
29 *2696:A3 *927:36 3.43442e-05
30 *2696:A3 *927:44 0.000228654
31 *2696:A4 *927:44 6.45135e-05
32 *2697:A2 *2693:A1 3.96281e-06
33 *2701:A2 *927:36 0
34 *502:280 *927:36 0
35 *503:162 *927:10 3.50214e-05
36 *503:164 *927:10 3.1927e-06
37 *778:59 *2465:A1 0.000101163
38 *778:65 *2465:A1 9.49804e-05
39 *911:57 *927:44 0.00015651
40 *911:59 *927:44 2.08301e-05
41 *922:57 *927:36 0
42 *922:72 *2465:A1 5.60661e-06
43 *922:72 *927:44 2.55518e-05
*RES
1 *3016:Q *927:10 10.8 
2 *927:10 *2693:A1 10.44 
3 *927:10 *927:23 1.53 
4 *927:23 *2694:A1 9 
5 *927:23 *927:36 7.92 
6 *927:36 *927:44 12.06 
7 *927:44 *2465:A1 16.38 
8 *927:44 *2669:C 4.5 
9 *927:36 *2696:A2 4.5 
10 *2693:A1 *2692:A1 9.99 
*END

*D_NET *928 0.00585051
*CONN
*I *2697:A1 I *D gf180mcu_fd_sc_mcu7t5v0__xnor2_1
*I *2468:A1 I *D gf180mcu_fd_sc_mcu7t5v0__nor2_1
*I *2696:A1 I *D gf180mcu_fd_sc_mcu7t5v0__and4_1
*I *2669:B I *D gf180mcu_fd_sc_mcu7t5v0__oai211_1
*I *2698:A1 I *D gf180mcu_fd_sc_mcu7t5v0__aoi22_1
*I *3017:Q O *D gf180mcu_fd_sc_mcu7t5v0__dffq_1
*CAP
1 *2697:A1 0.000477992
2 *2468:A1 0.000203745
3 *2696:A1 0.000169596
4 *2669:B 9.95103e-05
5 *2698:A1 0
6 *3017:Q 4.18611e-05
7 *928:23 0.000407536
8 *928:21 0.00058322
9 *928:10 0.000308278
10 *928:6 0.000587086
11 *2459:A1 *2696:A1 1.23715e-05
12 *2459:A1 *928:23 6.92926e-05
13 *2461:A1 *2468:A1 1.56862e-05
14 *2462:A1 *2669:B 0.000101624
15 *2470:A1 *2468:A1 0.000177559
16 *2690:A1 *2697:A1 0.000103868
17 *2690:A2 *928:6 8.68281e-06
18 *2690:A2 *928:10 0.000521459
19 *2690:A2 *928:21 0.000145765
20 *2690:B1 *2697:A1 3.40704e-05
21 *2690:B1 *928:6 1.19491e-05
22 *2690:B1 *928:10 0.000292542
23 *2690:B2 *2697:A1 0.000117502
24 *2690:B2 *928:6 0.000150744
25 *2692:A2 *2697:A1 0
26 *2698:B2 *2697:A1 9.2679e-05
27 *2949:D *2468:A1 0
28 *502:280 *2468:A1 0
29 *502:280 *2696:A1 0
30 *502:280 *928:23 0
31 *778:65 *2468:A1 9.84908e-05
32 *778:65 *2669:B 0
33 *778:65 *928:21 1.18477e-05
34 *778:71 *2468:A1 0.000398131
35 *911:57 *2669:B 6.05946e-05
36 *911:57 *928:21 0
37 *922:42 *928:10 0
38 *922:57 *928:10 0
39 *922:57 *928:21 0
40 *927:44 *2669:B 0.000380315
41 *927:44 *2696:A1 0.000166507
*RES
1 *3017:Q *928:6 4.95 
2 *928:6 *928:10 5.85 
3 *928:10 *2698:A1 9 
4 *928:10 *928:21 6.39 
5 *928:21 *928:23 0.99 
6 *928:23 *2669:B 14.85 
7 *928:23 *2696:A1 5.85 
8 *928:21 *2468:A1 6.84 
9 *928:6 *2697:A1 8.19 
*END

*D_NET *929 0.00575976
*CONN
*I *2702:A1 I *D gf180mcu_fd_sc_mcu7t5v0__aoi22_1
*I *2708:A3 I *D gf180mcu_fd_sc_mcu7t5v0__nand4_1
*I *2704:A2 I *D gf180mcu_fd_sc_mcu7t5v0__nand3_1
*I *2293:I I *D gf180mcu_fd_sc_mcu7t5v0__clkinv_1
*I *2701:A1 I *D gf180mcu_fd_sc_mcu7t5v0__xor2_1
*I *2700:A1 I *D gf180mcu_fd_sc_mcu7t5v0__nand2_1
*I *3018:Q O *D gf180mcu_fd_sc_mcu7t5v0__dffq_1
*CAP
1 *2702:A1 0
2 *2708:A3 0
3 *2704:A2 0.000253986
4 *2293:I 0.000445849
5 *2701:A1 0.000199587
6 *2700:A1 7.98265e-05
7 *3018:Q 0.000200852
8 *929:53 0.000287822
9 *929:38 0.00065407
10 *929:12 0.000442645
11 *929:8 0.000384543
12 *929:6 0.000247779
13 *2704:A2 *2704:A1 2.60586e-05
14 *2704:A2 *2708:A2 6.78621e-06
15 *929:6 *930:12 0.000302467
16 *2670:A1 *2293:I 0.000505948
17 *2671:A2 *2293:I 0.000388209
18 *2671:A2 *929:53 1.17725e-05
19 *2701:A2 *2701:A1 5.97457e-06
20 *2702:B2 *2700:A1 2.89427e-06
21 *2702:B2 *929:8 7.71476e-06
22 *2702:B2 *929:12 4.51687e-05
23 *2704:A3 *2700:A1 2.1573e-06
24 *2704:A3 *2704:A2 7.64119e-05
25 *2704:A3 *929:6 3.68045e-05
26 *2704:A3 *929:8 3.08015e-05
27 *2704:A3 *929:12 1.24193e-05
28 *2705:A2 *2700:A1 1.1426e-05
29 *2705:A2 *2701:A1 2.30981e-05
30 *2706:A2 *929:6 0
31 *2708:A4 *2293:I 7.86733e-05
32 *2708:A4 *2704:A2 3.55118e-05
33 *2708:A4 *929:38 5.01255e-05
34 *2708:A4 *929:53 4.55112e-05
35 *2710:A2 *2704:A2 1.28665e-05
36 *3021:CLK *2293:I 3.53355e-05
37 *502:250 *2701:A1 1.47998e-05
38 *502:250 *929:6 0
39 *503:144 *929:38 0.000208596
40 *503:152 *2701:A1 3.27461e-05
41 *511:22 *2701:A1 0.000455757
42 *511:31 *929:38 5.58585e-05
43 *713:57 *2293:I 4.0907e-05
*RES
1 *3018:Q *929:6 6.03 
2 *929:6 *929:8 0.45 
3 *929:8 *929:12 1.26 
4 *929:12 *2700:A1 4.95 
5 *929:12 *2701:A1 15.3 
6 *929:8 *929:38 10.89 
7 *929:38 *2293:I 8.82 
8 *929:38 *929:53 0.45 
9 *929:53 *2704:A2 6.48 
10 *929:53 *2708:A3 4.5 
11 *929:6 *2702:A1 4.5 
*END

*D_NET *930 0.0130538
*CONN
*I *2706:A1 I *D gf180mcu_fd_sc_mcu7t5v0__aoi22_1
*I *2705:A1 I *D gf180mcu_fd_sc_mcu7t5v0__xnor2_1
*I *2704:A1 I *D gf180mcu_fd_sc_mcu7t5v0__nand3_1
*I *2473:A1 I *D gf180mcu_fd_sc_mcu7t5v0__nor2_1
*I *2671:A1 I *D gf180mcu_fd_sc_mcu7t5v0__aoi211_1
*I *2708:A2 I *D gf180mcu_fd_sc_mcu7t5v0__nand4_1
*I *3019:Q O *D gf180mcu_fd_sc_mcu7t5v0__dffq_1
*CAP
1 *2706:A1 2.42057e-05
2 *2705:A1 0.000141436
3 *2704:A1 5.305e-05
4 *2473:A1 0.00138456
5 *2671:A1 5.90394e-05
6 *2708:A2 5.84686e-05
7 *3019:Q 0.000258334
8 *930:62 0.000298151
9 *930:27 0.00159285
10 *930:16 0.000276759
11 *930:12 0.000392508
12 *930:6 0.000661257
13 *2473:A1 *2719:A1 0.000313669
14 *2473:A1 *934:21 0.000134086
15 *2473:A1 *934:58 0.00041646
16 *2474:B *2473:A1 0.000108466
17 *2672:A2 *2473:A1 0.00012723
18 *2686:B *930:62 0.00019033
19 *2704:A2 *2704:A1 2.60586e-05
20 *2704:A2 *2708:A2 6.78621e-06
21 *2704:A3 *930:12 2.91338e-05
22 *2706:A2 *2705:A1 0.000260468
23 *2706:A2 *2706:A1 3.12451e-05
24 *2706:A2 *930:12 0
25 *2706:B1 *2706:A1 2.36813e-05
26 *2707:A2 *2705:A1 0.000814533
27 *2713:A2 *2671:A1 8.68281e-06
28 *2718:A1 *2473:A1 0.00011452
29 *2725:B2 *2473:A1 8.92778e-05
30 *2954:CLK *2473:A1 9.40498e-06
31 *3020:CLK *930:62 0.000601531
32 *3022:CLK *2671:A1 0.000145212
33 *3023:D *2473:A1 2.00978e-05
34 *3023:CLK *2473:A1 0.000297533
35 *3024:D *2473:A1 1.94194e-05
36 *372:86 *2473:A1 0
37 *372:103 *2473:A1 0.000177924
38 *372:105 *2473:A1 0.000107581
39 *372:105 *930:27 5.34652e-05
40 *372:107 *930:27 4.6027e-05
41 *372:115 *930:12 0.000497968
42 *372:115 *930:16 0.000117527
43 *372:115 *930:27 0.000224958
44 *502:191 *2473:A1 0.000180473
45 *502:206 *2473:A1 8.80893e-05
46 *502:214 *2671:A1 3.2326e-06
47 *502:229 *2473:A1 0.00028126
48 *502:229 *930:27 0.00071647
49 *502:231 *930:12 0.000201539
50 *502:231 *930:16 0.000309993
51 *502:231 *930:27 0.000434734
52 *502:244 *930:12 3.48522e-05
53 *502:250 *2705:A1 7.91275e-05
54 *503:142 *2473:A1 8.16511e-05
55 *503:152 *2705:A1 2.08301e-05
56 *528:10 *2473:A1 5.61409e-05
57 *531:10 *2473:A1 0
58 *784:69 *2473:A1 4.90456e-05
59 *929:6 *930:12 0.000302467
*RES
1 *3019:Q *930:6 6.21 
2 *930:6 *930:12 7.56 
3 *930:12 *930:16 1.08 
4 *930:16 *2708:A2 9.27 
5 *930:16 *930:27 2.97 
6 *930:27 *2671:A1 9.45 
7 *930:27 *2473:A1 20.88 
8 *930:12 *2704:A1 9.27 
9 *930:6 *930:62 11.25 
10 *930:62 *2705:A1 6.93 
11 *930:62 *2706:A1 4.77 
*END

*D_NET *931 0.00362357
*CONN
*I *2292:I I *D gf180mcu_fd_sc_mcu7t5v0__clkinv_1
*I *2671:C I *D gf180mcu_fd_sc_mcu7t5v0__aoi211_1
*I *2709:A1 I *D gf180mcu_fd_sc_mcu7t5v0__aoi22_1
*I *2708:A1 I *D gf180mcu_fd_sc_mcu7t5v0__nand4_1
*I *3020:Q O *D gf180mcu_fd_sc_mcu7t5v0__dffq_1
*CAP
1 *2292:I 0
2 *2671:C 3.81544e-05
3 *2709:A1 0
4 *2708:A1 5.23556e-06
5 *3020:Q 0.000199218
6 *931:14 2.16746e-05
7 *931:12 0.000167222
8 *931:8 0.000311846
9 *2671:A2 *2671:C 6.51736e-05
10 *2671:A2 *2708:A1 0.000320271
11 *2671:A2 *931:12 3.01487e-05
12 *2671:A2 *931:14 0.000416747
13 *2710:B *931:8 1.56942e-05
14 *2714:C *931:8 2.36813e-05
15 *2714:C *931:12 0.000151201
16 *3020:D *931:8 0
17 *3022:CLK *931:8 0.000165947
18 *3022:CLK *931:12 0.000140786
19 *222:8 *931:8 8.49143e-05
20 *503:142 *2671:C 0.000445479
21 *503:142 *931:14 0.000263273
22 *503:144 *2708:A1 0.000400853
23 *503:144 *931:14 0.000182206
24 *520:8 *2708:A1 3.1612e-05
25 *520:34 *2671:C 0.000142236
*RES
1 *3020:Q *931:8 6.3 
2 *931:8 *931:12 5.67 
3 *931:12 *931:14 1.17 
4 *931:14 *2708:A1 9.99 
5 *931:14 *2709:A1 9 
6 *931:12 *2671:C 10.17 
7 *931:8 *2292:I 4.5 
*END

*D_NET *932 0.0024688
*CONN
*I *2713:A1 I *D gf180mcu_fd_sc_mcu7t5v0__aoi22_1
*I *2671:B I *D gf180mcu_fd_sc_mcu7t5v0__aoi211_1
*I *2291:I I *D gf180mcu_fd_sc_mcu7t5v0__clkinv_1
*I *3021:Q O *D gf180mcu_fd_sc_mcu7t5v0__dffq_1
*CAP
1 *2713:A1 0
2 *2671:B 0.000200671
3 *2291:I 8.99262e-05
4 *3021:Q 0.000156925
5 *932:17 0.00040914
6 *932:6 0.00045532
7 *2672:A2 *932:17 0
8 *2711:A1 *2671:B 0
9 *2711:A1 *932:17 5.47698e-05
10 *2713:A2 *2671:B 0.000354728
11 *3022:CLK *2671:B 0.000115763
12 *3022:CLK *932:17 0
13 *221:25 *2291:I 0.000368571
14 *221:25 *932:17 0.000262985
*RES
1 *3021:Q *932:6 5.49 
2 *932:6 *2291:I 5.49 
3 *932:6 *932:17 1.8 
4 *932:17 *2671:B 6.48 
5 *932:17 *2713:A1 4.5 
*END

*D_NET *933 0.0033702
*CONN
*I *2290:I I *D gf180mcu_fd_sc_mcu7t5v0__clkinv_1
*I *2717:A1 I *D gf180mcu_fd_sc_mcu7t5v0__aoi22_1
*I *3022:Q O *D gf180mcu_fd_sc_mcu7t5v0__dffq_1
*CAP
1 *2290:I 0.000334566
2 *2717:A1 0.00014231
3 *3022:Q 0.000192337
4 *933:10 0.000669213
5 *2717:B1 *2290:I 4.84662e-05
6 *2717:B2 *2290:I 0.000231069
7 *2717:B2 *933:10 0.000415026
8 *2718:A1 *2290:I 9.84908e-05
9 *2721:A2 *933:10 0.000195394
10 *220:37 *2290:I 0.000293026
11 *502:208 *2717:A1 4.51945e-05
12 *525:12 *2290:I 0.000467082
13 *525:12 *2717:A1 1.3026e-05
14 *525:12 *933:10 5.10963e-05
15 *525:16 *933:10 0.000158788
16 *525:18 *2290:I 1.51153e-05
*RES
1 *3022:Q *933:10 10.98 
2 *933:10 *2717:A1 9.99 
3 *933:10 *2290:I 12.42 
*END

*D_NET *934 0.00710414
*CONN
*I *2721:A1 I *D gf180mcu_fd_sc_mcu7t5v0__oai21_1
*I *2720:A1 I *D gf180mcu_fd_sc_mcu7t5v0__aoi22_1
*I *2724:A2 I *D gf180mcu_fd_sc_mcu7t5v0__nand3_1
*I *2668:A2 I *D gf180mcu_fd_sc_mcu7t5v0__nand2_1
*I *2481:A1 I *D gf180mcu_fd_sc_mcu7t5v0__nor2_1
*I *2719:A1 I *D gf180mcu_fd_sc_mcu7t5v0__nand2_1
*I *3023:Q O *D gf180mcu_fd_sc_mcu7t5v0__dffq_1
*CAP
1 *2721:A1 6.92005e-05
2 *2720:A1 0.00010534
3 *2724:A2 0
4 *2668:A2 0.000166073
5 *2481:A1 0.000488512
6 *2719:A1 3.59586e-05
7 *3023:Q 7.94189e-05
8 *934:58 0.000368146
9 *934:29 0.000950901
10 *934:25 0.000399385
11 *934:21 0.00030444
12 *934:8 0.000123143
13 *2473:A1 *2719:A1 0.000313669
14 *2473:A1 *934:21 0.000134086
15 *2473:A1 *934:58 0.00041646
16 *2480:A1 *2481:A1 0
17 *2672:B *934:29 0
18 *2720:B1 *2720:A1 3.12451e-05
19 *2720:B2 *934:58 8.43202e-05
20 *2721:B *2721:A1 0.000415026
21 *2721:B *934:58 0.000267419
22 *2722:A2 *2721:A1 0.000239571
23 *2724:A3 *934:25 2.14748e-05
24 *2724:A3 *934:29 1.07374e-05
25 *2726:A2 *934:25 0
26 *2726:A2 *934:58 2.60586e-05
27 *2959:CLK *2481:A1 0.000151417
28 *3023:D *934:8 1.07374e-05
29 *3023:D *934:58 3.02485e-05
30 *372:86 *2481:A1 2.91609e-05
31 *372:86 *2668:A2 5.94987e-05
32 *372:103 *2719:A1 3.19635e-05
33 *502:208 *2720:A1 0.00035461
34 *503:119 *2720:A1 7.14936e-05
35 *503:121 *2720:A1 8.29339e-05
36 *525:16 *934:8 1.56862e-05
37 *525:18 *2719:A1 0.000100113
38 *525:18 *934:8 1.58709e-05
39 *525:18 *934:25 0
40 *528:10 *2719:A1 0.000168938
41 *528:10 *934:21 0.000163622
42 *528:10 *934:58 0.00044244
43 *912:12 *2668:A2 3.31904e-05
44 *912:12 *934:25 4.83522e-05
45 *912:12 *934:29 0.000243277
*RES
1 *3023:Q *934:8 9.81 
2 *934:8 *2719:A1 10.08 
3 *934:8 *934:21 0.45 
4 *934:21 *934:25 5.31 
5 *934:25 *934:29 2.52 
6 *934:29 *2481:A1 8.1 
7 *934:29 *2668:A2 5.94 
8 *934:25 *2724:A2 4.5 
9 *934:21 *934:58 7.38 
10 *934:58 *2720:A1 14.76 
11 *934:58 *2721:A1 5.67 
*END

*D_NET *935 0.00967077
*CONN
*I *2818:A1 I *D gf180mcu_fd_sc_mcu7t5v0__aoi222_1
*I *2460:A1 I *D gf180mcu_fd_sc_mcu7t5v0__oai21_1
*I *2949:Q O *D gf180mcu_fd_sc_mcu7t5v0__dffq_1
*CAP
1 *2818:A1 0.0017457
2 *2460:A1 0.000374325
3 *2949:Q 0
4 *935:4 0.00212003
5 *2409:A1 *2818:A1 0.000319716
6 *2415:A1 *2818:A1 0
7 *2460:B *2460:A1 0.000591262
8 *2463:B *2818:A1 0.000559755
9 *2464:A1 *2460:A1 6.84825e-06
10 *2466:A1 *2818:A1 6.3006e-05
11 *2466:B *2818:A1 0.000286386
12 *2467:A1 *2460:A1 0
13 *2467:A2 *2818:A1 0.000212085
14 *2469:A1 *2460:A1 0.000275309
15 *2470:A2 *2460:A1 0.000671844
16 *2818:B2 *2818:A1 0.000371234
17 *2866:A1 *2818:A1 1.74796e-05
18 *2878:B2 *2818:A1 0.000110619
19 *2956:CLK *2818:A1 5.59693e-05
20 *3114:I *2818:A1 0
21 *3128:I *2818:A1 0.000496785
22 *3129:I *2818:A1 7.20334e-05
23 *244:491 *2460:A1 0.000429585
24 *244:491 *2818:A1 0
25 *244:513 *2818:A1 0
26 *713:18 *2818:A1 0
27 *713:46 *2818:A1 0
28 *713:53 *2818:A1 0
29 *778:55 *2818:A1 0.000308875
30 *779:36 *2818:A1 1.99603e-05
31 *779:49 *2818:A1 2.40587e-06
32 *779:148 *2818:A1 7.77173e-05
33 *779:159 *2818:A1 1.32661e-05
34 *908:12 *2818:A1 0.000468574
*RES
1 *2949:Q *935:4 4.5 
2 *935:4 *2460:A1 18.36 
3 *935:4 *2818:A1 29.88 
*END

*D_NET *936 0.00649405
*CONN
*I *3134:I I *D gf180mcu_fd_sc_mcu7t5v0__dlyc_1
*I *2834:A1 I *D gf180mcu_fd_sc_mcu7t5v0__aoi222_1
*I *2959:Q O *D gf180mcu_fd_sc_mcu7t5v0__dffq_1
*CAP
1 *3134:I 0.000206663
2 *2834:A1 0.000402021
3 *2959:Q 0
4 *936:6 0.000608685
5 *2472:A1 *2834:A1 0.000737018
6 *2472:A1 *3134:I 0.00123129
7 *2483:A2 *2834:A1 0.000213046
8 *2485:A1 *3134:I 3.5955e-06
9 *2486:B *3134:I 0.000127736
10 *2499:A1 *2834:A1 0
11 *2676:A3 *2834:A1 8.68398e-06
12 *2680:A1 *3134:I 0
13 *295:166 *2834:A1 0.000453416
14 *778:253 *2834:A1 9.85004e-05
15 *778:264 *2834:A1 0.00113567
16 *778:264 *3134:I 0.0006195
17 *778:288 *3134:I 0.000437294
18 *778:301 *3134:I 0.000210938
19 *920:6 *2834:A1 0
20 *920:28 *2834:A1 0
*RES
1 *2959:Q *936:6 9 
2 *936:6 *2834:A1 15.12 
3 *936:6 *3134:I 13.5 
*END

*D_NET *937 0.005114
*CONN
*I *3142:I I *D gf180mcu_fd_sc_mcu7t5v0__dlyc_1
*I *2842:A1 I *D gf180mcu_fd_sc_mcu7t5v0__aoi222_1
*I *2960:Q O *D gf180mcu_fd_sc_mcu7t5v0__dffq_1
*CAP
1 *3142:I 0.000406708
2 *2842:A1 0.000252866
3 *2960:Q 0
4 *937:4 0.000659574
5 *2842:A1 *2495:A1 1.73092e-05
6 *2842:A1 *2814:C2 3.32456e-05
7 *2842:B2 *2842:A1 0.00023711
8 *2965:D *3142:I 9.85004e-05
9 *295:10 *2842:A1 0.000335771
10 *295:10 *3142:I 0.000134003
11 *372:60 *3142:I 0.00038016
12 *499:20 *2842:A1 0.000120734
13 *499:20 *3142:I 0.000152959
14 *656:14 *3142:I 7.71214e-05
15 *689:24 *2842:A1 0.000412267
16 *690:34 *3142:I 0.00110934
17 *703:48 *3142:I 0.000632064
18 *756:148 *3142:I 1.4382e-06
19 *778:10 *3142:I 5.28273e-05
*RES
1 *2960:Q *937:4 4.5 
2 *937:4 *2842:A1 16.92 
3 *937:4 *3142:I 19.53 
*END

*D_NET *938 0.006045
*CONN
*I *3146:I I *D gf180mcu_fd_sc_mcu7t5v0__dlyc_1
*I *2850:A1 I *D gf180mcu_fd_sc_mcu7t5v0__aoi222_1
*I *2961:Q O *D gf180mcu_fd_sc_mcu7t5v0__dffq_1
*CAP
1 *3146:I 0.000463962
2 *2850:A1 0.00022846
3 *2961:Q 0.00015444
4 *938:10 0.000846862
5 *2850:A1 *953:10 0.0002294
6 *2488:A1 *2850:A1 4.34199e-06
7 *2765:A3 *938:10 9.84908e-05
8 *2883:A3 *3146:I 0.00139526
9 *2884:A1 *2850:A1 3.06929e-05
10 *2884:A1 *3146:I 3.06929e-05
11 *2961:D *2850:A1 4.68559e-05
12 *496:24 *2850:A1 1.02057e-05
13 *496:24 *3146:I 1.32133e-05
14 *502:84 *938:10 0.000346684
15 *630:24 *2850:A1 0.000164053
16 *706:10 *3146:I 8.68398e-06
17 *706:12 *2850:A1 7.66407e-05
18 *706:12 *3146:I 0.000102193
19 *756:112 *938:10 8.73651e-05
20 *756:116 *938:10 0.000557083
21 *782:89 *2850:A1 0.000440674
22 *783:92 *938:10 7.62412e-05
23 *783:100 *2850:A1 0.00022283
24 *784:158 *3146:I 0
25 *926:16 *3146:I 0.000409673
*RES
1 *2961:Q *938:10 11.34 
2 *938:10 *2850:A1 12.6 
3 *938:10 *3146:I 14.58 
*END

*D_NET *939 0.00431275
*CONN
*I *2489:A1 I *D gf180mcu_fd_sc_mcu7t5v0__nor2_1
*I *2858:A1 I *D gf180mcu_fd_sc_mcu7t5v0__aoi222_1
*I *2962:Q O *D gf180mcu_fd_sc_mcu7t5v0__dffq_1
*CAP
1 *2489:A1 0.000280641
2 *2858:A1 0.000219379
3 *2962:Q 0.000313584
4 *939:10 0.000813604
5 *2489:A1 *2858:B2 2.78273e-05
6 *2476:A2 *2489:A1 0
7 *2489:A2 *2489:A1 6.21753e-05
8 *2490:A1 *2489:A1 5.83222e-05
9 *2490:B *2489:A1 0.000213957
10 *2492:A1 *939:10 0.000173848
11 *2955:CLK *2489:A1 0
12 *2962:D *2489:A1 4.20744e-05
13 *3027:CLK *2489:A1 0
14 *295:76 *2489:A1 0.00048874
15 *295:76 *2858:A1 0.000902127
16 *645:22 *939:10 0.00071647
17 *914:14 *2858:A1 0
*RES
1 *2962:Q *939:10 16.47 
2 *939:10 *2858:A1 6.93 
3 *939:10 *2489:A1 7.47 
*END

*D_NET *940 0.00229066
*CONN
*I *2491:A1 I *D gf180mcu_fd_sc_mcu7t5v0__nor2_1
*I *2867:A1 I *D gf180mcu_fd_sc_mcu7t5v0__aoi222_1
*I *2963:Q O *D gf180mcu_fd_sc_mcu7t5v0__dffq_1
*CAP
1 *2491:A1 0.000175641
2 *2867:A1 0
3 *2963:Q 0.000442964
4 *940:12 0.000618605
5 *2491:A1 *2867:B2 2.54079e-05
6 *940:12 *2858:C2 8.57605e-05
7 *940:12 *2867:C2 0.000159362
8 *2508:B *940:12 7.73282e-05
9 *2867:A2 *2491:A1 4.6613e-06
10 *2963:D *2491:A1 6.27379e-05
11 *2971:D *940:12 0.000171129
12 *645:22 *940:12 0.000101624
13 *778:420 *940:12 0.000365445
*RES
1 *2963:Q *940:12 17.28 
2 *940:12 *2867:A1 4.5 
3 *940:12 *2491:A1 5.67 
*END

*D_NET *941 0.00303952
*CONN
*I *2878:A1 I *D gf180mcu_fd_sc_mcu7t5v0__aoi222_1
*I *3140:I I *D gf180mcu_fd_sc_mcu7t5v0__dlyc_1
*I *2964:Q O *D gf180mcu_fd_sc_mcu7t5v0__dffq_1
*CAP
1 *2878:A1 0
2 *3140:I 0.000266035
3 *2964:Q 0.000272854
4 *941:6 0.000538889
5 *3140:I *2878:C2 0.000355902
6 *2880:A1 *3140:I 0.000425254
7 *2880:A1 *941:6 9.84908e-05
8 *2880:B *3140:I 0.00023711
9 *2881:A1 *3140:I 0.000172257
10 *3052:D *3140:I 0.000299714
11 *251:30 *3140:I 0
12 *251:30 *941:6 0.000101318
13 *656:14 *3140:I 6.76575e-05
14 *656:14 *941:6 2.89427e-06
15 *756:313 *3140:I 4.16602e-05
16 *783:92 *941:6 0.000159481
*RES
1 *2964:Q *941:6 6.93 
2 *941:6 *3140:I 17.1 
3 *941:6 *2878:A1 4.5 
*END

*D_NET *942 0.00552927
*CONN
*I *2495:A1 I *D gf180mcu_fd_sc_mcu7t5v0__nor2_1
*I *2814:C2 I *D gf180mcu_fd_sc_mcu7t5v0__aoi222_1
*I *2965:Q O *D gf180mcu_fd_sc_mcu7t5v0__dffq_1
*CAP
1 *2495:A1 0.000429113
2 *2814:C2 0.000453523
3 *2965:Q 0.000387566
4 *942:8 0.0012702
5 *2306:I *942:8 7.55765e-06
6 *2345:A2 *2495:A1 0
7 *2496:C *2495:A1 0
8 *2823:A2 *2814:C2 7.29462e-05
9 *2839:A2 *2814:C2 0
10 *2842:A1 *2495:A1 1.73092e-05
11 *2842:A1 *2814:C2 3.32456e-05
12 *2842:B2 *2814:C2 3.94615e-05
13 *2842:B2 *942:8 1.51875e-05
14 *2844:A2 *2814:C2 0.000536121
15 *2847:A2 *2495:A1 6.06084e-05
16 *2847:A2 *2814:C2 7.16243e-05
17 *499:20 *2495:A1 0.000812045
18 *502:18 *942:8 0
19 *689:24 *2495:A1 0
20 *778:10 *942:8 0.00132276
*RES
1 *2965:Q *942:8 12.69 
2 *942:8 *2814:C2 13.77 
3 *942:8 *2495:A1 12.6 
*END

*D_NET *943 0.00273935
*CONN
*I *2826:C2 I *D gf180mcu_fd_sc_mcu7t5v0__aoi222_1
*I *3141:I I *D gf180mcu_fd_sc_mcu7t5v0__dlyc_1
*I *2966:Q O *D gf180mcu_fd_sc_mcu7t5v0__dffq_1
*CAP
1 *2826:C2 9.3814e-05
2 *3141:I 6.38195e-05
3 *2966:Q 0.000312456
4 *943:10 0.00047009
5 *3141:I *2479:A1 9.04462e-05
6 *943:10 *2826:A1 0.000276927
7 *943:10 *2879:A1 0.000162285
8 *2478:B *3141:I 6.12173e-05
9 *2478:B *943:10 0.000223546
10 *2826:B1 *2826:C2 3.8796e-05
11 *2826:B1 *943:10 4.4391e-05
12 *2826:B2 *3141:I 0.000266156
13 *2834:C1 *2826:C2 0.000226823
14 *2836:A1 *2826:C2 1.32193e-05
15 *689:24 *2826:C2 9.32478e-06
16 *690:34 *2826:C2 5.00391e-05
17 *690:34 *943:10 0.000265678
18 *782:20 *2826:C2 7.03219e-05
*RES
1 *2966:Q *943:10 12.78 
2 *943:10 *3141:I 9.81 
3 *943:10 *2826:C2 10.17 
*END

*D_NET *944 0.00331036
*CONN
*I *3144:I I *D gf180mcu_fd_sc_mcu7t5v0__dlyc_1
*I *2834:C2 I *D gf180mcu_fd_sc_mcu7t5v0__aoi222_1
*I *2967:Q O *D gf180mcu_fd_sc_mcu7t5v0__dffq_1
*CAP
1 *3144:I 0.000266366
2 *2834:C2 0.000184925
3 *2967:Q 0.000134554
4 *944:8 0.000585844
5 *2302:I *2834:C2 0.000213904
6 *2302:I *944:8 6.46011e-06
7 *2484:C *2834:C2 0.000174506
8 *2500:B *2834:C2 0
9 *2500:B *3144:I 0
10 *2834:A2 *944:8 9.85004e-05
11 *2834:B1 *944:8 9.06729e-06
12 *2836:A1 *944:8 0.000575844
13 *295:166 *944:8 0.000298913
14 *372:86 *2834:C2 0.000294431
15 *599:44 *2834:C2 5.48655e-05
16 *599:44 *3144:I 0.000175989
17 *599:54 *2834:C2 6.1686e-05
18 *920:32 *3144:I 0.000174506
*RES
1 *2967:Q *944:8 11.25 
2 *944:8 *2834:C2 11.16 
3 *944:8 *3144:I 11.43 
*END

*D_NET *945 0.0059335
*CONN
*I *2501:A1 I *D gf180mcu_fd_sc_mcu7t5v0__nor2_1
*I *2842:C2 I *D gf180mcu_fd_sc_mcu7t5v0__aoi222_1
*I *2968:Q O *D gf180mcu_fd_sc_mcu7t5v0__dffq_1
*CAP
1 *2501:A1 0.000236088
2 *2842:C2 0.000513721
3 *2968:Q 6.10737e-05
4 *945:10 0.000810883
5 *2303:I *2501:A1 1.18477e-05
6 *2303:I *945:10 0.000275309
7 *2814:C1 *2842:C2 1.86887e-06
8 *2836:A1 *2842:C2 0
9 *2842:B1 *2842:C2 8.68528e-06
10 *2878:B2 *2501:A1 0.000404351
11 *2878:B2 *945:10 0.000275309
12 *2960:D *2842:C2 0
13 *2960:CLK *2501:A1 0.000872504
14 *2960:CLK *2842:C2 0.000945785
15 *2968:D *2501:A1 0.00030737
16 *372:68 *2501:A1 1.39839e-05
17 *502:18 *2501:A1 0.000937873
18 *503:36 *2501:A1 5.23429e-06
19 *503:36 *2842:C2 0
20 *779:142 *2842:C2 0
21 *779:142 *945:10 0.000169524
22 *782:50 *2842:C2 8.20894e-05
*RES
1 *2968:Q *945:10 10.98 
2 *945:10 *2842:C2 13.32 
3 *945:10 *2501:A1 14.04 
*END

*D_NET *946 0.0138127
*CONN
*I *2827:A1 I *D gf180mcu_fd_sc_mcu7t5v0__aoi222_1
*I *2463:A1 I *D gf180mcu_fd_sc_mcu7t5v0__oai21_1
*I *2950:Q O *D gf180mcu_fd_sc_mcu7t5v0__dffq_1
*CAP
1 *2827:A1 0.00181916
2 *2463:A1 0.000180009
3 *2950:Q 0.000152293
4 *946:10 0.00215147
5 *2827:A1 *2477:A1 0.00102036
6 *2827:A1 *2879:A1 0.00248794
7 *2307:I *2827:A1 0.00164651
8 *2463:B *2463:A1 0.000119878
9 *2478:A1 *946:10 2.84111e-05
10 *2480:A1 *2827:A1 0.000193234
11 *2480:A1 *946:10 0
12 *2480:C *2827:A1 0.000479291
13 *2482:A1 *946:10 0.000118113
14 *2827:A2 *2827:A1 0.000270509
15 *2827:B2 *2827:A1 0.00011304
16 *2828:A1 *2827:A1 0
17 *2828:A2 *2827:A1 1.06795e-05
18 *2957:D *2827:A1 0.000100996
19 *2958:D *2463:A1 9.0531e-06
20 *2958:D *2827:A1 7.95552e-06
21 *2958:D *946:10 0.000369072
22 *2959:CLK *2827:A1 2.36954e-05
23 *3178:I *2827:A1 6.33547e-05
24 *597:51 *2827:A1 0.000246409
25 *601:29 *2827:A1 0.000427492
26 *694:13 *2827:A1 4.33874e-05
27 *694:29 *2827:A1 2.85333e-05
28 *712:57 *2827:A1 0
29 *712:68 *2827:A1 0.000229941
30 *713:12 *2463:A1 0.000102973
31 *713:12 *2827:A1 7.63913e-05
32 *713:104 *946:10 1.03727e-05
33 *756:187 *2827:A1 0.000928443
34 *778:38 *2827:A1 0.0001353
35 *779:148 *2463:A1 0
36 *779:148 *2827:A1 0
37 *894:8 *2827:A1 0.000218465
*RES
1 *2950:Q *946:10 10.8 
2 *946:10 *2463:A1 10.89 
3 *946:10 *2827:A1 41.04 
*END

*D_NET *947 0.00694776
*CONN
*I *3139:I I *D gf180mcu_fd_sc_mcu7t5v0__dlyc_1
*I *2850:C2 I *D gf180mcu_fd_sc_mcu7t5v0__aoi222_1
*I *2969:Q O *D gf180mcu_fd_sc_mcu7t5v0__dffq_1
*CAP
1 *3139:I 0.000274262
2 *2850:C2 0.000152536
3 *2969:Q 0.000109148
4 *947:10 0.000535946
5 *2677:A1 *3139:I 0.00060794
6 *2677:A1 *947:10 1.39839e-05
7 *2764:A1 *3139:I 0.000127028
8 *2884:A1 *2850:C2 0.00225631
9 *2884:A1 *947:10 0.00024316
10 *2884:A2 *2850:C2 1.67748e-05
11 *2884:A2 *947:10 8.46222e-05
12 *2887:A2 *3139:I 3.18747e-06
13 *2969:D *2850:C2 0.00128669
14 *3202:I *3139:I 0
15 *496:24 *2850:C2 0.000481772
16 *496:24 *3139:I 4.32041e-05
17 *502:84 *947:10 3.12451e-05
18 *783:100 *2850:C2 0.000247379
19 *784:158 *3139:I 0.000402423
20 *923:16 *3139:I 3.01487e-05
*RES
1 *2969:Q *947:10 10.08 
2 *947:10 *2850:C2 15.39 
3 *947:10 *3139:I 12.06 
*END

*D_NET *948 0.00684342
*CONN
*I *3145:I I *D gf180mcu_fd_sc_mcu7t5v0__dlyc_1
*I *2858:C2 I *D gf180mcu_fd_sc_mcu7t5v0__aoi222_1
*I *2970:Q O *D gf180mcu_fd_sc_mcu7t5v0__dffq_1
*CAP
1 *3145:I 0.000700257
2 *2858:C2 0.000786263
3 *2970:Q 0
4 *948:4 0.00148652
5 *2858:C2 *2867:C2 0.000130994
6 *3145:I *2867:C2 0
7 *3145:I *3148:I 8.67046e-05
8 *2475:A2 *2858:C2 9.20788e-05
9 *2492:A1 *2858:C2 0.000237083
10 *2505:A1 *3145:I 0
11 *2506:B *3145:I 0.000128437
12 *2508:B *2858:C2 0.000298055
13 *2763:A2 *3145:I 2.72937e-05
14 *2763:A3 *3145:I 0.000162659
15 *2955:CLK *2858:C2 0.000241982
16 *2963:D *2858:C2 5.32671e-05
17 *3057:D *3145:I 0
18 *295:112 *2858:C2 0.000326763
19 *645:22 *2858:C2 0.000135406
20 *706:20 *2858:C2 0.000149445
21 *706:78 *3145:I 0.00122922
22 *706:89 *3145:I 0.000353889
23 *778:420 *2858:C2 0.000131345
24 *940:12 *2858:C2 8.57605e-05
*RES
1 *2970:Q *948:4 4.5 
2 *948:4 *2858:C2 21.87 
3 *948:4 *3145:I 20.88 
*END

*D_NET *949 0.00436911
*CONN
*I *3148:I I *D gf180mcu_fd_sc_mcu7t5v0__dlyc_1
*I *2867:C2 I *D gf180mcu_fd_sc_mcu7t5v0__aoi222_1
*I *2971:Q O *D gf180mcu_fd_sc_mcu7t5v0__dffq_1
*CAP
1 *3148:I 0.000273538
2 *2867:C2 0.000565959
3 *2971:Q 0.000184334
4 *949:10 0.00102383
5 *2323:A3 *2867:C2 4.01448e-05
6 *2763:A2 *3148:I 5.30751e-05
7 *2763:A3 *2867:C2 5.52699e-05
8 *2763:A3 *3148:I 1.4382e-06
9 *2763:A3 *949:10 7.01603e-06
10 *2858:C2 *2867:C2 0.000130994
11 *2887:A2 *949:10 1.06888e-05
12 *2971:D *2867:C2 0.000442017
13 *3145:I *2867:C2 0
14 *3145:I *3148:I 8.67046e-05
15 *502:111 *949:10 3.58674e-05
16 *706:78 *2867:C2 8.83381e-05
17 *706:89 *3148:I 3.73774e-06
18 *784:170 *949:10 1.31826e-05
19 *923:12 *3148:I 0.000409001
20 *923:16 *3148:I 0.000425761
21 *923:16 *949:10 3.54696e-05
22 *924:16 *2867:C2 0.000246473
23 *924:16 *3148:I 0
24 *924:16 *949:10 7.69103e-05
25 *940:12 *2867:C2 0.000159362
*RES
1 *2971:Q *949:10 10.26 
2 *949:10 *2867:C2 15.57 
3 *949:10 *3148:I 11.88 
*END

*D_NET *950 0.00673011
*CONN
*I *3143:I I *D gf180mcu_fd_sc_mcu7t5v0__dlyc_1
*I *2878:C2 I *D gf180mcu_fd_sc_mcu7t5v0__aoi222_1
*I *2972:Q O *D gf180mcu_fd_sc_mcu7t5v0__dffq_1
*CAP
1 *3143:I 0.00033401
2 *2878:C2 0.000649886
3 *2972:Q 0
4 *950:4 0.000983896
5 *2878:B2 *2878:C2 0.000372597
6 *2880:A1 *2878:C2 0.000429309
7 *2881:A1 *2878:C2 1.7022e-05
8 *2881:A2 *2878:C2 0.000425761
9 *2882:A2 *2878:C2 0.000101132
10 *2882:A2 *3143:I 0.000106536
11 *2882:B *3143:I 5.34584e-05
12 *3037:D *3143:I 0.000123571
13 *3052:D *2878:C2 0.00023712
14 *3140:I *2878:C2 0.000355902
15 *251:30 *3143:I 1.20673e-05
16 *630:24 *2878:C2 7.77106e-05
17 *656:14 *2878:C2 6.47595e-05
18 *705:8 *2878:C2 2.26729e-05
19 *705:8 *3143:I 8.12451e-05
20 *705:10 *2878:C2 0.000157562
21 *706:10 *3143:I 0.00107864
22 *756:294 *2878:C2 0.000119952
23 *756:294 *3143:I 4.095e-05
24 *756:313 *2878:C2 0.000884344
*RES
1 *2972:Q *950:4 4.5 
2 *950:4 *2878:C2 21.69 
3 *950:4 *3143:I 8.37 
*END

*D_NET *951 0.00401704
*CONN
*I *3174:I I *D gf180mcu_fd_sc_mcu7t5v0__dlyc_1
*I *2834:B2 I *D gf180mcu_fd_sc_mcu7t5v0__aoi222_1
*I *2951:Q O *D gf180mcu_fd_sc_mcu7t5v0__dffq_1
*CAP
1 *3174:I 0
2 *2834:B2 0.000334521
3 *2951:Q 0.000537569
4 *951:12 0.000872089
5 *2302:I *2834:B2 0.000569434
6 *2478:A1 *951:12 0.000496785
7 *2480:A1 *2834:B2 9.07674e-05
8 *2482:A1 *951:12 2.4935e-05
9 *2482:A2 *951:12 6.40324e-06
10 *2482:B *2834:B2 0.00035741
11 *2482:C *2834:B2 0.000217308
12 *2482:C *951:12 0
13 *2834:A2 *2834:B2 0.000138736
14 *2958:D *951:12 0
15 *2967:D *2834:B2 6.79568e-05
16 *599:44 *2834:B2 3.16214e-05
17 *599:54 *2834:B2 9.4836e-05
18 *756:235 *2834:B2 0.000127759
19 *778:53 *951:12 0
20 *778:55 *951:12 4.8913e-05
*RES
1 *2951:Q *951:12 17.82 
2 *951:12 *2834:B2 18 
3 *951:12 *3174:I 4.5 
*END

*D_NET *952 0.005954
*CONN
*I *3135:I I *D gf180mcu_fd_sc_mcu7t5v0__dlyc_1
*I *2843:A1 I *D gf180mcu_fd_sc_mcu7t5v0__aoi222_1
*I *2952:Q O *D gf180mcu_fd_sc_mcu7t5v0__dffq_1
*CAP
1 *3135:I 0.000169519
2 *2843:A1 0.00149105
3 *2952:Q 0.000141449
4 *952:10 0.00180202
5 *2409:A1 *2843:A1 0
6 *2409:A1 *3135:I 0.000869174
7 *2409:A1 *952:10 3.48522e-05
8 *2409:A2 *952:10 1.56779e-05
9 *2410:B *2843:A1 9.20698e-05
10 *2410:B *952:10 0.000190481
11 *2469:A1 *2843:A1 0
12 *2469:A1 *952:10 0.000305139
13 *2843:B1 *2843:A1 5.06031e-06
14 *2866:A1 *2843:A1 0
15 *2878:B2 *2843:A1 0
16 *2934:D *2843:A1 0.000302466
17 *3190:I *2843:A1 0.000169515
18 *244:463 *2843:A1 0
19 *244:480 *2843:A1 5.92193e-05
20 *244:480 *3135:I 4.24123e-05
21 *244:480 *952:10 1.07281e-05
22 *713:20 *3135:I 0
23 *713:26 *3135:I 0
24 *713:46 *2843:A1 5.3289e-05
25 *713:46 *3135:I 2.79586e-05
26 *779:161 *952:10 1.55424e-05
27 *779:163 *952:10 5.78822e-05
28 *906:8 *2843:A1 9.85004e-05
*RES
1 *2952:Q *952:10 10.98 
2 *952:10 *2843:A1 18.9 
3 *952:10 *3135:I 11.34 
*END

*D_NET *953 0.00401028
*CONN
*I *2850:B2 I *D gf180mcu_fd_sc_mcu7t5v0__aoi222_1
*I *2471:A1 I *D gf180mcu_fd_sc_mcu7t5v0__oai21_1
*I *2953:Q O *D gf180mcu_fd_sc_mcu7t5v0__dffq_1
*CAP
1 *2850:B2 8.70631e-05
2 *2471:A1 0.000353992
3 *2953:Q 7.88817e-05
4 *953:10 0.000519936
5 *2471:B *2471:A1 0.000607886
6 *2471:B *2850:B2 0.000388845
7 *2472:B *2471:A1 9.84908e-05
8 *2850:A1 *953:10 0.0002294
9 *502:67 *2471:A1 0.00043778
10 *599:22 *2471:A1 0.000101995
11 *599:22 *2850:B2 9.27022e-05
12 *630:24 *2471:A1 0.000103139
13 *694:223 *2471:A1 2.96649e-05
14 *706:12 *953:10 0.00079964
15 *782:79 *2471:A1 3.84753e-06
16 *917:19 *2471:A1 7.70137e-05
*RES
1 *2953:Q *953:10 15.57 
2 *953:10 *2471:A1 17.55 
3 *953:10 *2850:B2 5.67 
*END

*D_NET *954 0.0071558
*CONN
*I *2858:B2 I *D gf180mcu_fd_sc_mcu7t5v0__aoi222_1
*I *3149:I I *D gf180mcu_fd_sc_mcu7t5v0__dlyc_1
*I *2954:Q O *D gf180mcu_fd_sc_mcu7t5v0__dffq_1
*CAP
1 *2858:B2 0.00101314
2 *3149:I 0.000217815
3 *2954:Q 0.000200305
4 *954:10 0.00143126
5 *2476:A1 *2858:B2 0.00131303
6 *2476:A1 *954:10 0.000270628
7 *2489:A1 *2858:B2 2.78273e-05
8 *2490:B *2858:B2 2.67104e-05
9 *2728:I *954:10 7.77106e-05
10 *2729:B2 *954:10 3.01487e-05
11 *2734:A1 *3149:I 2.38064e-05
12 *2734:A2 *2858:B2 7.772e-05
13 *2734:A2 *954:10 9.22066e-05
14 *2735:A1 *2858:B2 0.000102753
15 *2735:A2 *2858:B2 0.00072417
16 *2860:A1 *2858:B2 0.000103033
17 *2955:CLK *2858:B2 0.000299806
18 *3026:CLK *3149:I 2.49724e-05
19 *295:76 *2858:B2 0.000196273
20 *534:17 *3149:I 3.54696e-05
21 *534:17 *954:10 4.34467e-06
22 *645:22 *2858:B2 0.000862662
*RES
1 *2954:Q *954:10 10.98 
2 *954:10 *3149:I 10.53 
3 *954:10 *2858:B2 21.78 
*END

*D_NET *955 0.00108554
*CONN
*I *2867:B2 I *D gf180mcu_fd_sc_mcu7t5v0__aoi222_1
*I *2475:A1 I *D gf180mcu_fd_sc_mcu7t5v0__nor2_1
*I *2955:Q O *D gf180mcu_fd_sc_mcu7t5v0__dffq_1
*CAP
1 *2867:B2 0.000227353
2 *2475:A1 0.00039195
3 *2955:Q 0.000164596
4 *2476:B *2475:A1 0.00015997
5 *2491:A1 *2867:B2 2.54079e-05
6 *2508:A1 *2475:A1 0.000101398
7 *2508:A1 *2867:B2 1.48687e-05
*RES
1 *2955:Q *2475:A1 10.8 
2 *2475:A1 *2867:B2 10.35 
*END

*D_NET *956 0.00708862
*CONN
*I *2477:A1 I *D gf180mcu_fd_sc_mcu7t5v0__nor2_1
*I *2879:A1 I *D gf180mcu_fd_sc_mcu7t5v0__aoi222_1
*I *2956:Q O *D gf180mcu_fd_sc_mcu7t5v0__dffq_1
*CAP
1 *2477:A1 0.000231609
2 *2879:A1 0.000699406
3 *2956:Q 0
4 *956:4 0.000931015
5 *2879:A1 *2826:A1 5.1181e-05
6 *2819:A2 *2879:A1 0.00023579
7 *2827:A1 *2477:A1 0.00102036
8 *2827:A1 *2879:A1 0.00248794
9 *2828:A1 *2879:A1 0
10 *2834:A2 *2879:A1 0
11 *2844:A2 *2879:A1 0.000103983
12 *2959:CLK *2477:A1 0
13 *2966:D *2879:A1 4.1834e-05
14 *756:218 *2477:A1 0.000272792
15 *756:218 *2879:A1 0.000183662
16 *778:38 *2477:A1 0.000425752
17 *779:148 *2477:A1 0.000241013
18 *943:10 *2879:A1 0.000162285
*RES
1 *2956:Q *956:4 4.5 
2 *956:4 *2879:A1 22.32 
3 *956:4 *2477:A1 17.82 
*END

*D_NET *957 0.00435262
*CONN
*I *2479:A1 I *D gf180mcu_fd_sc_mcu7t5v0__nor2_1
*I *2814:A1 I *D gf180mcu_fd_sc_mcu7t5v0__aoi222_1
*I *2957:Q O *D gf180mcu_fd_sc_mcu7t5v0__dffq_1
*CAP
1 *2479:A1 0.000246445
2 *2814:A1 0.000166801
3 *2957:Q 7.79391e-05
4 *957:8 0.000491186
5 *2478:B *2479:A1 0.000626711
6 *2814:A2 *2814:A1 0.000164363
7 *2819:A1 *957:8 0
8 *2826:A2 *2479:A1 1.43879e-05
9 *2826:B1 *2479:A1 9.85004e-05
10 *2826:B2 *2479:A1 8.03028e-05
11 *2834:A2 *2479:A1 0
12 *2834:C1 *2479:A1 0.000522035
13 *2836:A1 *2479:A1 0.000543219
14 *2836:A1 *2814:A1 0.000633677
15 *3141:I *2479:A1 9.04462e-05
16 *597:32 *2479:A1 4.73125e-06
17 *597:32 *2814:A1 0
18 *597:32 *957:8 2.31089e-05
19 *690:34 *2479:A1 0.000287046
20 *779:12 *2479:A1 0.000281718
*RES
1 *2957:Q *957:8 5.22 
2 *957:8 *2814:A1 6.84 
3 *957:8 *2479:A1 17.91 
*END

*D_NET *958 0.00725073
*CONN
*I *3147:I I *D gf180mcu_fd_sc_mcu7t5v0__dlyc_1
*I *2826:A1 I *D gf180mcu_fd_sc_mcu7t5v0__aoi222_1
*I *2958:Q O *D gf180mcu_fd_sc_mcu7t5v0__dffq_1
*CAP
1 *3147:I 0.000389347
2 *2826:A1 0.000420031
3 *2958:Q 0.000238605
4 *958:10 0.00104798
5 *2497:A1 *3147:I 0
6 *2498:A1 *2826:A1 0.000293026
7 *2498:B *3147:I 0.000291047
8 *2498:B *958:10 0.000101615
9 *2502:A2 *3147:I 0
10 *2834:A2 *2826:A1 0.000423195
11 *2834:A2 *958:10 0.000227323
12 *2879:A1 *2826:A1 5.1181e-05
13 *2966:D *2826:A1 0.000284991
14 *295:166 *3147:I 0
15 *756:181 *3147:I 0.000871718
16 *756:181 *958:10 0.000174497
17 *756:218 *2826:A1 1.23715e-05
18 *756:218 *958:10 0.00131211
19 *779:142 *3147:I 0.000834763
20 *943:10 *2826:A1 0.000276927
*RES
1 *2958:Q *958:10 12.96 
2 *958:10 *2826:A1 13.68 
3 *958:10 *3147:I 13.68 
*END

*D_NET *959 0.0011159
*CONN
*I *3097:I I *D gf180mcu_fd_sc_mcu7t5v0__clkbuf_16
*I *3117:Z O *D gf180mcu_fd_sc_mcu7t5v0__clkbuf_16
*CAP
1 *3097:I 0.000237853
2 *3117:Z 0.000237853
3 *2599:A1 *3097:I 0.000225857
4 *2599:A2 *3097:I 7.26205e-05
5 *2602:A2 *3097:I 0.000290607
6 *728:32 *3097:I 5.11087e-05
*RES
1 *3117:Z *3097:I 11.79 
*END

*D_NET *960 0.00326019
*CONN
*I *2776:A2 I *D gf180mcu_fd_sc_mcu7t5v0__nor2_1
*I *2786:A2 I *D gf180mcu_fd_sc_mcu7t5v0__and2_1
*I *2782:A1 I *D gf180mcu_fd_sc_mcu7t5v0__xnor2_1
*I *3041:Q O *D gf180mcu_fd_sc_mcu7t5v0__dffq_1
*CAP
1 *2776:A2 0.000490729
2 *2786:A2 0.000128681
3 *2782:A1 6.34675e-05
4 *3041:Q 0
5 *960:6 0.000327537
6 *960:4 0.000626118
7 *2776:A2 *2776:A1 0.000240379
8 *2776:A2 *2786:A1 0
9 *2782:A1 *2786:A1 0
10 *2786:A2 *2790:A1 8.43025e-06
11 *960:6 *2786:A1 0
12 *2781:A2 *2776:A2 0.000143757
13 *2782:A2 *2786:A2 0.00052863
14 *2784:A2 *2776:A2 0
15 *2784:A2 *2782:A1 0
16 *2784:A2 *960:6 0
17 *2785:A2 *2786:A2 1.70787e-05
18 *2788:A2 *2776:A2 0.000651657
19 *3096:I *2786:A2 3.3721e-05
*RES
1 *3041:Q *960:4 4.5 
2 *960:4 *960:6 0.81 
3 *960:6 *2782:A1 4.95 
4 *960:6 *2786:A2 15.21 
5 *960:4 *2776:A2 9.72 
*END

*D_NET *961 0.00467535
*CONN
*I *2786:A1 I *D gf180mcu_fd_sc_mcu7t5v0__and2_1
*I *2776:A1 I *D gf180mcu_fd_sc_mcu7t5v0__nor2_1
*I *3164:I I *D gf180mcu_fd_sc_mcu7t5v0__dlyc_1
*I *3042:Q O *D gf180mcu_fd_sc_mcu7t5v0__dffq_1
*CAP
1 *2786:A1 0.000296582
2 *2776:A1 0.000375008
3 *3164:I 0
4 *3042:Q 6.52881e-05
5 *961:12 0.000575338
6 *961:8 0.0005622
7 *2776:A2 *2776:A1 0.000240379
8 *2776:A2 *2786:A1 0
9 *2781:A1 *2776:A1 0.000214327
10 *2781:A2 *2776:A1 0.000366594
11 *2782:A1 *2786:A1 0
12 *2782:A2 *2786:A1 0.000557083
13 *2784:A1 *2776:A1 1.42213e-05
14 *2784:A2 *2776:A1 0.000202192
15 *2785:A1 *2786:A1 0.000173347
16 *2785:A1 *961:8 0.000169524
17 *2785:A2 *2786:A1 2.84815e-05
18 *2787:A2 *2776:A1 0
19 *2788:A2 *2776:A1 2.05323e-05
20 *2788:A2 *961:8 0.000507502
21 *3042:D *961:12 0
22 *572:6 *2786:A1 0.000258909
23 *572:6 *961:8 4.78445e-05
24 *960:6 *2786:A1 0
*RES
1 *3042:Q *961:8 10.35 
2 *961:8 *961:12 5.67 
3 *961:12 *3164:I 4.5 
4 *961:12 *2776:A1 8.73 
5 *961:8 *2786:A1 12.06 
*END

*D_NET *962 0.00808289
*CONN
*I *2794:A2 I *D gf180mcu_fd_sc_mcu7t5v0__and3_1
*I *3189:I I *D gf180mcu_fd_sc_mcu7t5v0__dlyc_1
*I *2777:A2 I *D gf180mcu_fd_sc_mcu7t5v0__nand3_1
*I *2775:A2 I *D gf180mcu_fd_sc_mcu7t5v0__nand2_1
*I *2790:A1 I *D gf180mcu_fd_sc_mcu7t5v0__and3_1
*I *3043:Q O *D gf180mcu_fd_sc_mcu7t5v0__dffq_1
*CAP
1 *2794:A2 0.000187134
2 *3189:I 0.000704866
3 *2777:A2 0.000322914
4 *2775:A2 0
5 *2790:A1 0.000249917
6 *3043:Q 3.65323e-05
7 *962:31 0.000680982
8 *962:27 0.000939957
9 *962:8 0.000350607
10 *2282:I *962:31 3.22466e-06
11 *2782:A2 *2790:A1 0.000106536
12 *2785:A2 *2790:A1 9.22066e-05
13 *2785:A2 *3189:I 0.000220216
14 *2785:A2 *962:27 2.78496e-05
15 *2786:A2 *2790:A1 8.43025e-06
16 *2787:A4 *2790:A1 0
17 *2788:B *962:31 0
18 *2789:A1 *2790:A1 0.000286386
19 *2789:A1 *962:8 0.000169524
20 *2789:A1 *962:27 1.86249e-05
21 *2789:A1 *962:31 0.000232503
22 *2791:A1 *2790:A1 0
23 *2791:A1 *3189:I 0.000114196
24 *2791:A1 *962:27 8.68398e-06
25 *2791:A1 *962:31 0.000424785
26 *2791:C *962:31 0
27 *2792:A4 *2790:A1 0.000119192
28 *2792:A4 *962:8 7.46816e-05
29 *2792:A4 *962:31 3.61243e-06
30 *2793:A3 *3189:I 9.74367e-05
31 *2793:B *2777:A2 0.00013302
32 *2793:B *962:31 0.000681086
33 *2794:A3 *2794:A2 0.000103033
34 *2794:A3 *3189:I 0
35 *3043:D *3189:I 0.00043777
36 *3044:D *3189:I 0.000154208
37 *3044:CLK *2777:A2 0.000203125
38 *3044:CLK *962:31 0
39 *3096:I *2790:A1 0
40 *570:16 *3189:I 7.3603e-06
41 *576:6 *2790:A1 2.31089e-05
42 *576:12 *2790:A1 0.000531209
43 *579:10 *2790:A1 0.00032797
*RES
1 *3043:Q *962:8 5.22 
2 *962:8 *2790:A1 17.01 
3 *962:8 *962:27 4.95 
4 *962:27 *962:31 8.55 
5 *962:31 *2775:A2 4.5 
6 *962:31 *2777:A2 7.2 
7 *962:27 *3189:I 14.4 
8 *3189:I *2794:A2 10.8 
*END

*D_NET *963 0.00363517
*CONN
*I *3163:I I *D gf180mcu_fd_sc_mcu7t5v0__dlyc_1
*I *2794:A1 I *D gf180mcu_fd_sc_mcu7t5v0__and3_1
*I *3044:Q O *D gf180mcu_fd_sc_mcu7t5v0__dffq_1
*CAP
1 *3163:I 0.000270028
2 *2794:A1 0.000148928
3 *3044:Q 0.00010265
4 *963:8 0.000521606
5 *963:8 *964:22 3.22122e-05
6 *2778:A3 *963:8 0.000564313
7 *2783:A2 *3163:I 0.00062673
8 *2783:A2 *963:8 5.97457e-06
9 *2796:A3 *3163:I 0.000353172
10 *2800:A4 *963:8 5.86206e-05
11 *570:16 *2794:A1 0
12 *571:12 *3163:I 0
13 *571:14 *3163:I 3.64793e-05
14 *571:88 *3163:I 8.80694e-05
15 *574:14 *963:8 1.4382e-06
16 *574:34 *2794:A1 0.000233003
17 *574:34 *3163:I 0.00017649
18 *581:15 *2794:A1 0.000149891
19 *581:15 *3163:I 0.000265559
*RES
1 *3044:Q *963:8 10.53 
2 *963:8 *2794:A1 10.53 
3 *963:8 *3163:I 12.87 
*END

*D_NET *964 0.00598004
*CONN
*I *2796:A1 I *D gf180mcu_fd_sc_mcu7t5v0__and3_1
*I *2800:A2 I *D gf180mcu_fd_sc_mcu7t5v0__nand4_1
*I *2778:A1 I *D gf180mcu_fd_sc_mcu7t5v0__nor3_1
*I *2795:B I *D gf180mcu_fd_sc_mcu7t5v0__aoi21_1
*I *3045:Q O *D gf180mcu_fd_sc_mcu7t5v0__dffq_1
*CAP
1 *2796:A1 0.000225165
2 *2800:A2 0
3 *2778:A1 0
4 *2795:B 0.000172403
5 *3045:Q 0.000242557
6 *964:22 0.000359557
7 *964:16 0.000359027
8 *964:12 0.000639595
9 *2796:A1 *2801:A1 8.00681e-05
10 *2796:A1 *965:34 4.78812e-05
11 *964:12 *2774:A2 0.000151417
12 *964:12 *2801:A1 9.3226e-06
13 *964:12 *965:34 7.51605e-05
14 *964:16 *2800:A1 0.000226832
15 *964:16 *965:19 0.00072673
16 *964:16 *965:34 0.000166798
17 *2778:A2 *964:16 9.26419e-06
18 *2778:A2 *964:22 1.37635e-05
19 *2778:A3 *2795:B 3.08015e-05
20 *2778:A3 *964:22 3.0616e-05
21 *2783:A2 *964:16 1.71254e-05
22 *2783:A2 *964:22 0.00015449
23 *2795:A1 *2795:B 0.000133989
24 *2795:A2 *2795:B 5.55113e-05
25 *2796:A3 *2796:A1 0.000216889
26 *2796:A3 *964:16 2.51621e-05
27 *2796:A3 *964:22 2.13441e-06
28 *2801:A2 *964:16 0.000227863
29 *371:49 *964:16 4.24724e-05
30 *570:8 *2795:B 9.00225e-05
31 *570:8 *964:22 8.69474e-05
32 *570:16 *964:22 6.98034e-05
33 *581:15 *964:22 6.40664e-06
34 *708:20 *2796:A1 0.000486784
35 *708:30 *964:12 0.000765264
36 *963:8 *964:22 3.22122e-05
*RES
1 *3045:Q *964:12 16.56 
2 *964:12 *964:16 7.65 
3 *964:16 *964:22 6.48 
4 *964:22 *2795:B 6.21 
5 *964:22 *2778:A1 4.5 
6 *964:16 *2800:A2 9 
7 *964:12 *2796:A1 7.11 
*END

*D_NET *965 0.00751061
*CONN
*I *2798:A1 I *D gf180mcu_fd_sc_mcu7t5v0__oai211_1
*I *3156:I I *D gf180mcu_fd_sc_mcu7t5v0__dlyc_1
*I *2774:A2 I *D gf180mcu_fd_sc_mcu7t5v0__nand2_1
*I *2800:A1 I *D gf180mcu_fd_sc_mcu7t5v0__nand4_1
*I *3046:Q O *D gf180mcu_fd_sc_mcu7t5v0__dffq_1
*CAP
1 *2798:A1 0
2 *3156:I 0.000475574
3 *2774:A2 0.000286631
4 *2800:A1 8.0336e-05
5 *3046:Q 0
6 *965:34 0.000763869
7 *965:19 0.000696084
8 *965:6 0.000201495
9 *2774:A2 *2774:A1 0.000436469
10 *2774:A2 *2801:A1 0.000968766
11 *2778:A2 *2800:A1 3.26104e-05
12 *2778:A2 *965:19 8.24336e-05
13 *2795:A1 *2800:A1 1.56779e-05
14 *2796:A1 *965:34 4.78812e-05
15 *2797:A1 *2800:A1 9.04462e-05
16 *2798:B *965:34 9.04462e-05
17 *2799:B *3156:I 0
18 *3046:D *3156:I 0
19 *3046:D *965:34 6.30353e-05
20 *3088:CLK *3156:I 0.000196987
21 *371:45 *3156:I 0.000764607
22 *371:49 *3156:I 8.99346e-05
23 *371:49 *965:34 2.70694e-05
24 *574:14 *2800:A1 2.89427e-06
25 *698:22 *3156:I 4.38863e-05
26 *708:20 *3156:I 0.000612552
27 *708:24 *3156:I 1.39839e-05
28 *708:24 *965:34 0
29 *708:30 *965:19 7.08457e-06
30 *708:30 *965:34 8.31395e-06
31 *722:22 *3156:I 2.31089e-05
32 *722:33 *3156:I 4.15021e-05
33 *964:12 *2774:A2 0.000151417
34 *964:12 *965:34 7.51605e-05
35 *964:16 *2800:A1 0.000226832
36 *964:16 *965:19 0.00072673
37 *964:16 *965:34 0.000166798
*RES
1 *3046:Q *965:6 9 
2 *965:6 *2800:A1 9.9 
3 *965:6 *965:19 1.89 
4 *965:19 *2774:A2 12.69 
5 *965:19 *965:34 7.2 
6 *965:34 *3156:I 18.36 
7 *965:34 *2798:A1 4.5 
*END

*D_NET *966 0.0041207
*CONN
*I *2801:A1 I *D gf180mcu_fd_sc_mcu7t5v0__xor2_1
*I *2774:A1 I *D gf180mcu_fd_sc_mcu7t5v0__nand2_1
*I *3047:Q O *D gf180mcu_fd_sc_mcu7t5v0__dffq_1
*CAP
1 *2801:A1 0.000157403
2 *2774:A1 5.88337e-05
3 *3047:Q 0.000263178
4 *966:10 0.000479415
5 *2774:A2 *2774:A1 0.000436469
6 *2774:A2 *2801:A1 0.000968766
7 *2778:A2 *2774:A1 0.000192205
8 *2778:A2 *2801:A1 7.77358e-05
9 *2785:A2 *2801:A1 0.00114217
10 *2796:A1 *2801:A1 8.00681e-05
11 *2796:A3 *2801:A1 9.74183e-05
12 *3096:I *966:10 0
13 *371:68 *2801:A1 0.000157716
14 *708:30 *966:10 0
15 *964:12 *2801:A1 9.3226e-06
*RES
1 *3047:Q *966:10 15.57 
2 *966:10 *2774:A1 5.85 
3 *966:10 *2801:A1 8.55 
*END
